p cnf 248 3185
1 2 3 4 5 6 25 0
-1 -2 0
-1 -3 0
-1 -4 0
-1 -5 0
-1 -6 0
-1 -25 0
-2 -3 0
-2 -4 0
-2 -5 0
-2 -6 0
-2 -25 0
-3 -4 0
-3 -5 0
-3 -6 0
-3 -25 0
-4 -5 0
-4 -6 0
-4 -25 0
-5 -6 0
-5 -25 0
-6 -25 0
7 8 9 10 11 12 26 0
-7 -8 0
-7 -9 0
-7 -10 0
-7 -11 0
-7 -12 0
-7 -26 0
-8 -9 0
-8 -10 0
-8 -11 0
-8 -12 0
-8 -26 0
-9 -10 0
-9 -11 0
-9 -12 0
-9 -26 0
-10 -11 0
-10 -12 0
-10 -26 0
-11 -12 0
-11 -26 0
-12 -26 0
13 14 15 16 17 18 27 0
-13 -14 0
-13 -15 0
-13 -16 0
-13 -17 0
-13 -18 0
-13 -27 0
-14 -15 0
-14 -16 0
-14 -17 0
-14 -18 0
-14 -27 0
-15 -16 0
-15 -17 0
-15 -18 0
-15 -27 0
-16 -17 0
-16 -18 0
-16 -27 0
-17 -18 0
-17 -27 0
-18 -27 0
19 20 21 22 23 24 28 0
-19 -20 0
-19 -21 0
-19 -22 0
-19 -23 0
-19 -24 0
-19 -28 0
-20 -21 0
-20 -22 0
-20 -23 0
-20 -24 0
-20 -28 0
-21 -22 0
-21 -23 0
-21 -24 0
-21 -28 0
-22 -23 0
-22 -24 0
-22 -28 0
-23 -24 0
-23 -28 0
-24 -28 0
1 0
-1 -7 0
-2 -8 0
-3 -9 0
-4 -10 0
-5 -11 0
-6 -12 0
-7 -13 0
-8 -14 0
-9 -15 0
-10 -16 0
-11 -17 0
-12 -18 0
-13 -19 0
-14 -20 0
-15 -21 0
-16 -22 0
-17 -23 0
-18 -24 0
-4 -9 0
-5 -8 0
-6 -7 0
-10 -15 0
-11 -14 0
-12 -13 0
-16 -21 0
-17 -20 0
-18 -19 0
-29 0
-1 -33 29 0
-1 -33 30 0
-1 33 -29 -30 0
-2 -33 29 0
-2 -33 31 0
-2 33 -29 -31 0
-3 -33 29 0
-3 -33 32 0
-3 33 -29 -32 0
-4 -33 29 0
-4 33 -29 0
-5 -33 29 0
-5 33 -29 0
-6 -33 29 0
-6 33 -29 0
-25 -33 29 0
-25 33 -29 0
-30 0
-1 -30 34 0
-1 -29 34 0
-1 -34 30 29 0
-2 -34 30 0
-2 34 -30 0
-3 -34 30 0
-3 34 -30 0
-4 -34 30 0
-4 -34 31 0
-4 34 -30 -31 0
-5 -34 30 0
-5 -34 32 0
-5 34 -30 -32 0
-6 -34 30 0
-6 34 -30 0
-25 -34 30 0
-25 34 -30 0
31 0
-1 -35 31 0
-1 35 -31 0
-2 -31 35 0
-2 -29 35 0
-2 -35 31 29 0
-3 -35 31 0
-3 35 -31 0
-4 -31 35 0
-4 -30 35 0
-4 -35 31 30 0
-5 -35 31 0
-5 35 -31 0
-6 -35 31 0
-6 -35 32 0
-6 35 -31 -32 0
-25 -35 31 0
-25 35 -31 0
-32 0
-1 -36 32 0
-1 36 -32 0
-2 -36 32 0
-2 36 -32 0
-3 -32 36 0
-3 -29 36 0
-3 -36 32 29 0
-4 -36 32 0
-4 36 -32 0
-5 -32 36 0
-5 -30 36 0
-5 -36 32 30 0
-6 -32 36 0
-6 -31 36 0
-6 -36 32 31 0
-25 -36 32 0
-25 36 -32 0
-7 -37 33 0
-7 -37 34 0
-7 37 -33 -34 0
-8 -37 33 0
-8 -37 35 0
-8 37 -33 -35 0
-9 -37 33 0
-9 -37 36 0
-9 37 -33 -36 0
-10 -37 33 0
-10 37 -33 0
-11 -37 33 0
-11 37 -33 0
-12 -37 33 0
-12 37 -33 0
-26 -37 33 0
-26 37 -33 0
-7 -34 38 0
-7 -33 38 0
-7 -38 34 33 0
-8 -38 34 0
-8 38 -34 0
-9 -38 34 0
-9 38 -34 0
-10 -38 34 0
-10 -38 35 0
-10 38 -34 -35 0
-11 -38 34 0
-11 -38 36 0
-11 38 -34 -36 0
-12 -38 34 0
-12 38 -34 0
-26 -38 34 0
-26 38 -34 0
-7 -39 35 0
-7 39 -35 0
-8 -35 39 0
-8 -33 39 0
-8 -39 35 33 0
-9 -39 35 0
-9 39 -35 0
-10 -35 39 0
-10 -34 39 0
-10 -39 35 34 0
-11 -39 35 0
-11 39 -35 0
-12 -39 35 0
-12 -39 36 0
-12 39 -35 -36 0
-26 -39 35 0
-26 39 -35 0
-7 -40 36 0
-7 40 -36 0
-8 -40 36 0
-8 40 -36 0
-9 -36 40 0
-9 -33 40 0
-9 -40 36 33 0
-10 -40 36 0
-10 40 -36 0
-11 -36 40 0
-11 -34 40 0
-11 -40 36 34 0
-12 -36 40 0
-12 -35 40 0
-12 -40 36 35 0
-26 -40 36 0
-26 40 -36 0
-13 -41 37 0
-13 -41 38 0
-13 41 -37 -38 0
-14 -41 37 0
-14 -41 39 0
-14 41 -37 -39 0
-15 -41 37 0
-15 -41 40 0
-15 41 -37 -40 0
-16 -41 37 0
-16 41 -37 0
-17 -41 37 0
-17 41 -37 0
-18 -41 37 0
-18 41 -37 0
-27 -41 37 0
-27 41 -37 0
-13 -38 42 0
-13 -37 42 0
-13 -42 38 37 0
-14 -42 38 0
-14 42 -38 0
-15 -42 38 0
-15 42 -38 0
-16 -42 38 0
-16 -42 39 0
-16 42 -38 -39 0
-17 -42 38 0
-17 -42 40 0
-17 42 -38 -40 0
-18 -42 38 0
-18 42 -38 0
-27 -42 38 0
-27 42 -38 0
-13 -43 39 0
-13 43 -39 0
-14 -39 43 0
-14 -37 43 0
-14 -43 39 37 0
-15 -43 39 0
-15 43 -39 0
-16 -39 43 0
-16 -38 43 0
-16 -43 39 38 0
-17 -43 39 0
-17 43 -39 0
-18 -43 39 0
-18 -43 40 0
-18 43 -39 -40 0
-27 -43 39 0
-27 43 -39 0
-13 -44 40 0
-13 44 -40 0
-14 -44 40 0
-14 44 -40 0
-15 -40 44 0
-15 -37 44 0
-15 -44 40 37 0
-16 -44 40 0
-16 44 -40 0
-17 -40 44 0
-17 -38 44 0
-17 -44 40 38 0
-18 -40 44 0
-18 -39 44 0
-18 -44 40 39 0
-27 -44 40 0
-27 44 -40 0
-19 -45 41 0
-19 -45 42 0
-19 45 -41 -42 0
-20 -45 41 0
-20 -45 43 0
-20 45 -41 -43 0
-21 -45 41 0
-21 -45 44 0
-21 45 -41 -44 0
-22 -45 41 0
-22 45 -41 0
-23 -45 41 0
-23 45 -41 0
-24 -45 41 0
-24 45 -41 0
-28 -45 41 0
-28 45 -41 0
-19 -42 46 0
-19 -41 46 0
-19 -46 42 41 0
-20 -46 42 0
-20 46 -42 0
-21 -46 42 0
-21 46 -42 0
-22 -46 42 0
-22 -46 43 0
-22 46 -42 -43 0
-23 -46 42 0
-23 -46 44 0
-23 46 -42 -44 0
-24 -46 42 0
-24 46 -42 0
-28 -46 42 0
-28 46 -42 0
-19 -47 43 0
-19 47 -43 0
-20 -43 47 0
-20 -41 47 0
-20 -47 43 41 0
-21 -47 43 0
-21 47 -43 0
-22 -43 47 0
-22 -42 47 0
-22 -47 43 42 0
-23 -47 43 0
-23 47 -43 0
-24 -47 43 0
-24 -47 44 0
-24 47 -43 -44 0
-28 -47 43 0
-28 47 -43 0
-19 -48 44 0
-19 48 -44 0
-20 -48 44 0
-20 48 -44 0
-21 -44 48 0
-21 -41 48 0
-21 -48 44 41 0
-22 -48 44 0
-22 48 -44 0
-23 -44 48 0
-23 -42 48 0
-23 -48 44 42 0
-24 -44 48 0
-24 -43 48 0
-24 -48 44 43 0
-28 -48 44 0
-28 48 -44 0
-49 0
-1 -53 49 0
-1 -53 50 0
-1 53 -49 -50 0
-2 -53 49 0
-2 -53 51 0
-2 53 -49 -51 0
-3 -53 49 0
-3 -53 52 0
-3 53 -49 -52 0
-4 -53 49 0
-4 53 -49 0
-5 -53 49 0
-5 53 -49 0
-6 -53 49 0
-6 53 -49 0
-25 -53 49 0
-25 53 -49 0
50 0
-1 -50 54 0
-1 -49 54 0
-1 -54 50 49 0
-2 -54 50 0
-2 54 -50 0
-3 -54 50 0
-3 54 -50 0
-4 -54 50 0
-4 -54 51 0
-4 54 -50 -51 0
-5 -54 50 0
-5 -54 52 0
-5 54 -50 -52 0
-6 -54 50 0
-6 54 -50 0
-25 -54 50 0
-25 54 -50 0
-51 0
-1 -55 51 0
-1 55 -51 0
-2 -51 55 0
-2 -49 55 0
-2 -55 51 49 0
-3 -55 51 0
-3 55 -51 0
-4 -51 55 0
-4 -50 55 0
-4 -55 51 50 0
-5 -55 51 0
-5 55 -51 0
-6 -55 51 0
-6 -55 52 0
-6 55 -51 -52 0
-25 -55 51 0
-25 55 -51 0
-52 0
-1 -56 52 0
-1 56 -52 0
-2 -56 52 0
-2 56 -52 0
-3 -52 56 0
-3 -49 56 0
-3 -56 52 49 0
-4 -56 52 0
-4 56 -52 0
-5 -52 56 0
-5 -50 56 0
-5 -56 52 50 0
-6 -52 56 0
-6 -51 56 0
-6 -56 52 51 0
-25 -56 52 0
-25 56 -52 0
-7 -57 53 0
-7 -57 54 0
-7 57 -53 -54 0
-8 -57 53 0
-8 -57 55 0
-8 57 -53 -55 0
-9 -57 53 0
-9 -57 56 0
-9 57 -53 -56 0
-10 -57 53 0
-10 57 -53 0
-11 -57 53 0
-11 57 -53 0
-12 -57 53 0
-12 57 -53 0
-26 -57 53 0
-26 57 -53 0
-7 -54 58 0
-7 -53 58 0
-7 -58 54 53 0
-8 -58 54 0
-8 58 -54 0
-9 -58 54 0
-9 58 -54 0
-10 -58 54 0
-10 -58 55 0
-10 58 -54 -55 0
-11 -58 54 0
-11 -58 56 0
-11 58 -54 -56 0
-12 -58 54 0
-12 58 -54 0
-26 -58 54 0
-26 58 -54 0
-7 -59 55 0
-7 59 -55 0
-8 -55 59 0
-8 -53 59 0
-8 -59 55 53 0
-9 -59 55 0
-9 59 -55 0
-10 -55 59 0
-10 -54 59 0
-10 -59 55 54 0
-11 -59 55 0
-11 59 -55 0
-12 -59 55 0
-12 -59 56 0
-12 59 -55 -56 0
-26 -59 55 0
-26 59 -55 0
-7 -60 56 0
-7 60 -56 0
-8 -60 56 0
-8 60 -56 0
-9 -56 60 0
-9 -53 60 0
-9 -60 56 53 0
-10 -60 56 0
-10 60 -56 0
-11 -56 60 0
-11 -54 60 0
-11 -60 56 54 0
-12 -56 60 0
-12 -55 60 0
-12 -60 56 55 0
-26 -60 56 0
-26 60 -56 0
-13 -61 57 0
-13 -61 58 0
-13 61 -57 -58 0
-14 -61 57 0
-14 -61 59 0
-14 61 -57 -59 0
-15 -61 57 0
-15 -61 60 0
-15 61 -57 -60 0
-16 -61 57 0
-16 61 -57 0
-17 -61 57 0
-17 61 -57 0
-18 -61 57 0
-18 61 -57 0
-27 -61 57 0
-27 61 -57 0
-13 -58 62 0
-13 -57 62 0
-13 -62 58 57 0
-14 -62 58 0
-14 62 -58 0
-15 -62 58 0
-15 62 -58 0
-16 -62 58 0
-16 -62 59 0
-16 62 -58 -59 0
-17 -62 58 0
-17 -62 60 0
-17 62 -58 -60 0
-18 -62 58 0
-18 62 -58 0
-27 -62 58 0
-27 62 -58 0
-13 -63 59 0
-13 63 -59 0
-14 -59 63 0
-14 -57 63 0
-14 -63 59 57 0
-15 -63 59 0
-15 63 -59 0
-16 -59 63 0
-16 -58 63 0
-16 -63 59 58 0
-17 -63 59 0
-17 63 -59 0
-18 -63 59 0
-18 -63 60 0
-18 63 -59 -60 0
-27 -63 59 0
-27 63 -59 0
-13 -64 60 0
-13 64 -60 0
-14 -64 60 0
-14 64 -60 0
-15 -60 64 0
-15 -57 64 0
-15 -64 60 57 0
-16 -64 60 0
-16 64 -60 0
-17 -60 64 0
-17 -58 64 0
-17 -64 60 58 0
-18 -60 64 0
-18 -59 64 0
-18 -64 60 59 0
-27 -64 60 0
-27 64 -60 0
-19 -65 61 0
-19 -65 62 0
-19 65 -61 -62 0
-20 -65 61 0
-20 -65 63 0
-20 65 -61 -63 0
-21 -65 61 0
-21 -65 64 0
-21 65 -61 -64 0
-22 -65 61 0
-22 65 -61 0
-23 -65 61 0
-23 65 -61 0
-24 -65 61 0
-24 65 -61 0
-28 -65 61 0
-28 65 -61 0
-19 -62 66 0
-19 -61 66 0
-19 -66 62 61 0
-20 -66 62 0
-20 66 -62 0
-21 -66 62 0
-21 66 -62 0
-22 -66 62 0
-22 -66 63 0
-22 66 -62 -63 0
-23 -66 62 0
-23 -66 64 0
-23 66 -62 -64 0
-24 -66 62 0
-24 66 -62 0
-28 -66 62 0
-28 66 -62 0
-19 -67 63 0
-19 67 -63 0
-20 -63 67 0
-20 -61 67 0
-20 -67 63 61 0
-21 -67 63 0
-21 67 -63 0
-22 -63 67 0
-22 -62 67 0
-22 -67 63 62 0
-23 -67 63 0
-23 67 -63 0
-24 -67 63 0
-24 -67 64 0
-24 67 -63 -64 0
-28 -67 63 0
-28 67 -63 0
-19 -68 64 0
-19 68 -64 0
-20 -68 64 0
-20 68 -64 0
-21 -64 68 0
-21 -61 68 0
-21 -68 64 61 0
-22 -68 64 0
-22 68 -64 0
-23 -64 68 0
-23 -62 68 0
-23 -68 64 62 0
-24 -64 68 0
-24 -63 68 0
-24 -68 64 63 0
-28 -68 64 0
-28 68 -64 0
-69 0
-1 -73 69 0
-1 -73 70 0
-1 73 -69 -70 0
-2 -73 69 0
-2 -73 71 0
-2 73 -69 -71 0
-3 -73 69 0
-3 -73 72 0
-3 73 -69 -72 0
-4 -73 69 0
-4 73 -69 0
-5 -73 69 0
-5 73 -69 0
-6 -73 69 0
-6 73 -69 0
-25 -73 69 0
-25 73 -69 0
70 0
-1 -70 74 0
-1 -69 74 0
-1 -74 70 69 0
-2 -74 70 0
-2 74 -70 0
-3 -74 70 0
-3 74 -70 0
-4 -74 70 0
-4 -74 71 0
-4 74 -70 -71 0
-5 -74 70 0
-5 -74 72 0
-5 74 -70 -72 0
-6 -74 70 0
-6 74 -70 0
-25 -74 70 0
-25 74 -70 0
-71 0
-1 -75 71 0
-1 75 -71 0
-2 -71 75 0
-2 -69 75 0
-2 -75 71 69 0
-3 -75 71 0
-3 75 -71 0
-4 -71 75 0
-4 -70 75 0
-4 -75 71 70 0
-5 -75 71 0
-5 75 -71 0
-6 -75 71 0
-6 -75 72 0
-6 75 -71 -72 0
-25 -75 71 0
-25 75 -71 0
72 0
-1 -76 72 0
-1 76 -72 0
-2 -76 72 0
-2 76 -72 0
-3 -72 76 0
-3 -69 76 0
-3 -76 72 69 0
-4 -76 72 0
-4 76 -72 0
-5 -72 76 0
-5 -70 76 0
-5 -76 72 70 0
-6 -72 76 0
-6 -71 76 0
-6 -76 72 71 0
-25 -76 72 0
-25 76 -72 0
-7 -77 73 0
-7 -77 74 0
-7 77 -73 -74 0
-8 -77 73 0
-8 -77 75 0
-8 77 -73 -75 0
-9 -77 73 0
-9 -77 76 0
-9 77 -73 -76 0
-10 -77 73 0
-10 77 -73 0
-11 -77 73 0
-11 77 -73 0
-12 -77 73 0
-12 77 -73 0
-26 -77 73 0
-26 77 -73 0
-7 -74 78 0
-7 -73 78 0
-7 -78 74 73 0
-8 -78 74 0
-8 78 -74 0
-9 -78 74 0
-9 78 -74 0
-10 -78 74 0
-10 -78 75 0
-10 78 -74 -75 0
-11 -78 74 0
-11 -78 76 0
-11 78 -74 -76 0
-12 -78 74 0
-12 78 -74 0
-26 -78 74 0
-26 78 -74 0
-7 -79 75 0
-7 79 -75 0
-8 -75 79 0
-8 -73 79 0
-8 -79 75 73 0
-9 -79 75 0
-9 79 -75 0
-10 -75 79 0
-10 -74 79 0
-10 -79 75 74 0
-11 -79 75 0
-11 79 -75 0
-12 -79 75 0
-12 -79 76 0
-12 79 -75 -76 0
-26 -79 75 0
-26 79 -75 0
-7 -80 76 0
-7 80 -76 0
-8 -80 76 0
-8 80 -76 0
-9 -76 80 0
-9 -73 80 0
-9 -80 76 73 0
-10 -80 76 0
-10 80 -76 0
-11 -76 80 0
-11 -74 80 0
-11 -80 76 74 0
-12 -76 80 0
-12 -75 80 0
-12 -80 76 75 0
-26 -80 76 0
-26 80 -76 0
-13 -81 77 0
-13 -81 78 0
-13 81 -77 -78 0
-14 -81 77 0
-14 -81 79 0
-14 81 -77 -79 0
-15 -81 77 0
-15 -81 80 0
-15 81 -77 -80 0
-16 -81 77 0
-16 81 -77 0
-17 -81 77 0
-17 81 -77 0
-18 -81 77 0
-18 81 -77 0
-27 -81 77 0
-27 81 -77 0
-13 -78 82 0
-13 -77 82 0
-13 -82 78 77 0
-14 -82 78 0
-14 82 -78 0
-15 -82 78 0
-15 82 -78 0
-16 -82 78 0
-16 -82 79 0
-16 82 -78 -79 0
-17 -82 78 0
-17 -82 80 0
-17 82 -78 -80 0
-18 -82 78 0
-18 82 -78 0
-27 -82 78 0
-27 82 -78 0
-13 -83 79 0
-13 83 -79 0
-14 -79 83 0
-14 -77 83 0
-14 -83 79 77 0
-15 -83 79 0
-15 83 -79 0
-16 -79 83 0
-16 -78 83 0
-16 -83 79 78 0
-17 -83 79 0
-17 83 -79 0
-18 -83 79 0
-18 -83 80 0
-18 83 -79 -80 0
-27 -83 79 0
-27 83 -79 0
-13 -84 80 0
-13 84 -80 0
-14 -84 80 0
-14 84 -80 0
-15 -80 84 0
-15 -77 84 0
-15 -84 80 77 0
-16 -84 80 0
-16 84 -80 0
-17 -80 84 0
-17 -78 84 0
-17 -84 80 78 0
-18 -80 84 0
-18 -79 84 0
-18 -84 80 79 0
-27 -84 80 0
-27 84 -80 0
-19 -85 81 0
-19 -85 82 0
-19 85 -81 -82 0
-20 -85 81 0
-20 -85 83 0
-20 85 -81 -83 0
-21 -85 81 0
-21 -85 84 0
-21 85 -81 -84 0
-22 -85 81 0
-22 85 -81 0
-23 -85 81 0
-23 85 -81 0
-24 -85 81 0
-24 85 -81 0
-28 -85 81 0
-28 85 -81 0
-19 -82 86 0
-19 -81 86 0
-19 -86 82 81 0
-20 -86 82 0
-20 86 -82 0
-21 -86 82 0
-21 86 -82 0
-22 -86 82 0
-22 -86 83 0
-22 86 -82 -83 0
-23 -86 82 0
-23 -86 84 0
-23 86 -82 -84 0
-24 -86 82 0
-24 86 -82 0
-28 -86 82 0
-28 86 -82 0
-19 -87 83 0
-19 87 -83 0
-20 -83 87 0
-20 -81 87 0
-20 -87 83 81 0
-21 -87 83 0
-21 87 -83 0
-22 -83 87 0
-22 -82 87 0
-22 -87 83 82 0
-23 -87 83 0
-23 87 -83 0
-24 -87 83 0
-24 -87 84 0
-24 87 -83 -84 0
-28 -87 83 0
-28 87 -83 0
-19 -88 84 0
-19 88 -84 0
-20 -88 84 0
-20 88 -84 0
-21 -84 88 0
-21 -81 88 0
-21 -88 84 81 0
-22 -88 84 0
-22 88 -84 0
-23 -84 88 0
-23 -82 88 0
-23 -88 84 82 0
-24 -84 88 0
-24 -83 88 0
-24 -88 84 83 0
-28 -88 84 0
-28 88 -84 0
-89 0
-1 -93 89 0
-1 -93 90 0
-1 93 -89 -90 0
-2 -93 89 0
-2 -93 91 0
-2 93 -89 -91 0
-3 -93 89 0
-3 -93 92 0
-3 93 -89 -92 0
-4 -93 89 0
-4 93 -89 0
-5 -93 89 0
-5 93 -89 0
-6 -93 89 0
-6 93 -89 0
-25 -93 89 0
-25 93 -89 0
90 0
-1 -90 94 0
-1 -89 94 0
-1 -94 90 89 0
-2 -94 90 0
-2 94 -90 0
-3 -94 90 0
-3 94 -90 0
-4 -94 90 0
-4 -94 91 0
-4 94 -90 -91 0
-5 -94 90 0
-5 -94 92 0
-5 94 -90 -92 0
-6 -94 90 0
-6 94 -90 0
-25 -94 90 0
-25 94 -90 0
91 0
-1 -95 91 0
-1 95 -91 0
-2 -91 95 0
-2 -89 95 0
-2 -95 91 89 0
-3 -95 91 0
-3 95 -91 0
-4 -91 95 0
-4 -90 95 0
-4 -95 91 90 0
-5 -95 91 0
-5 95 -91 0
-6 -95 91 0
-6 -95 92 0
-6 95 -91 -92 0
-25 -95 91 0
-25 95 -91 0
-92 0
-1 -96 92 0
-1 96 -92 0
-2 -96 92 0
-2 96 -92 0
-3 -92 96 0
-3 -89 96 0
-3 -96 92 89 0
-4 -96 92 0
-4 96 -92 0
-5 -92 96 0
-5 -90 96 0
-5 -96 92 90 0
-6 -92 96 0
-6 -91 96 0
-6 -96 92 91 0
-25 -96 92 0
-25 96 -92 0
-7 -97 93 0
-7 -97 94 0
-7 97 -93 -94 0
-8 -97 93 0
-8 -97 95 0
-8 97 -93 -95 0
-9 -97 93 0
-9 -97 96 0
-9 97 -93 -96 0
-10 -97 93 0
-10 97 -93 0
-11 -97 93 0
-11 97 -93 0
-12 -97 93 0
-12 97 -93 0
-26 -97 93 0
-26 97 -93 0
-7 -94 98 0
-7 -93 98 0
-7 -98 94 93 0
-8 -98 94 0
-8 98 -94 0
-9 -98 94 0
-9 98 -94 0
-10 -98 94 0
-10 -98 95 0
-10 98 -94 -95 0
-11 -98 94 0
-11 -98 96 0
-11 98 -94 -96 0
-12 -98 94 0
-12 98 -94 0
-26 -98 94 0
-26 98 -94 0
-7 -99 95 0
-7 99 -95 0
-8 -95 99 0
-8 -93 99 0
-8 -99 95 93 0
-9 -99 95 0
-9 99 -95 0
-10 -95 99 0
-10 -94 99 0
-10 -99 95 94 0
-11 -99 95 0
-11 99 -95 0
-12 -99 95 0
-12 -99 96 0
-12 99 -95 -96 0
-26 -99 95 0
-26 99 -95 0
-7 -100 96 0
-7 100 -96 0
-8 -100 96 0
-8 100 -96 0
-9 -96 100 0
-9 -93 100 0
-9 -100 96 93 0
-10 -100 96 0
-10 100 -96 0
-11 -96 100 0
-11 -94 100 0
-11 -100 96 94 0
-12 -96 100 0
-12 -95 100 0
-12 -100 96 95 0
-26 -100 96 0
-26 100 -96 0
-13 -101 97 0
-13 -101 98 0
-13 101 -97 -98 0
-14 -101 97 0
-14 -101 99 0
-14 101 -97 -99 0
-15 -101 97 0
-15 -101 100 0
-15 101 -97 -100 0
-16 -101 97 0
-16 101 -97 0
-17 -101 97 0
-17 101 -97 0
-18 -101 97 0
-18 101 -97 0
-27 -101 97 0
-27 101 -97 0
-13 -98 102 0
-13 -97 102 0
-13 -102 98 97 0
-14 -102 98 0
-14 102 -98 0
-15 -102 98 0
-15 102 -98 0
-16 -102 98 0
-16 -102 99 0
-16 102 -98 -99 0
-17 -102 98 0
-17 -102 100 0
-17 102 -98 -100 0
-18 -102 98 0
-18 102 -98 0
-27 -102 98 0
-27 102 -98 0
-13 -103 99 0
-13 103 -99 0
-14 -99 103 0
-14 -97 103 0
-14 -103 99 97 0
-15 -103 99 0
-15 103 -99 0
-16 -99 103 0
-16 -98 103 0
-16 -103 99 98 0
-17 -103 99 0
-17 103 -99 0
-18 -103 99 0
-18 -103 100 0
-18 103 -99 -100 0
-27 -103 99 0
-27 103 -99 0
-13 -104 100 0
-13 104 -100 0
-14 -104 100 0
-14 104 -100 0
-15 -100 104 0
-15 -97 104 0
-15 -104 100 97 0
-16 -104 100 0
-16 104 -100 0
-17 -100 104 0
-17 -98 104 0
-17 -104 100 98 0
-18 -100 104 0
-18 -99 104 0
-18 -104 100 99 0
-27 -104 100 0
-27 104 -100 0
-19 -105 101 0
-19 -105 102 0
-19 105 -101 -102 0
-20 -105 101 0
-20 -105 103 0
-20 105 -101 -103 0
-21 -105 101 0
-21 -105 104 0
-21 105 -101 -104 0
-22 -105 101 0
-22 105 -101 0
-23 -105 101 0
-23 105 -101 0
-24 -105 101 0
-24 105 -101 0
-28 -105 101 0
-28 105 -101 0
-19 -102 106 0
-19 -101 106 0
-19 -106 102 101 0
-20 -106 102 0
-20 106 -102 0
-21 -106 102 0
-21 106 -102 0
-22 -106 102 0
-22 -106 103 0
-22 106 -102 -103 0
-23 -106 102 0
-23 -106 104 0
-23 106 -102 -104 0
-24 -106 102 0
-24 106 -102 0
-28 -106 102 0
-28 106 -102 0
-19 -107 103 0
-19 107 -103 0
-20 -103 107 0
-20 -101 107 0
-20 -107 103 101 0
-21 -107 103 0
-21 107 -103 0
-22 -103 107 0
-22 -102 107 0
-22 -107 103 102 0
-23 -107 103 0
-23 107 -103 0
-24 -107 103 0
-24 -107 104 0
-24 107 -103 -104 0
-28 -107 103 0
-28 107 -103 0
-19 -108 104 0
-19 108 -104 0
-20 -108 104 0
-20 108 -104 0
-21 -104 108 0
-21 -101 108 0
-21 -108 104 101 0
-22 -108 104 0
-22 108 -104 0
-23 -104 108 0
-23 -102 108 0
-23 -108 104 102 0
-24 -104 108 0
-24 -103 108 0
-24 -108 104 103 0
-28 -108 104 0
-28 108 -104 0
109 0
-1 -113 109 0
-1 -113 110 0
-1 113 -109 -110 0
-2 -113 109 0
-2 -113 111 0
-2 113 -109 -111 0
-3 -113 109 0
-3 -113 112 0
-3 113 -109 -112 0
-4 -113 109 0
-4 113 -109 0
-5 -113 109 0
-5 113 -109 0
-6 -113 109 0
-6 113 -109 0
-25 -113 109 0
-25 113 -109 0
-110 0
-1 -110 114 0
-1 -109 114 0
-1 -114 110 109 0
-2 -114 110 0
-2 114 -110 0
-3 -114 110 0
-3 114 -110 0
-4 -114 110 0
-4 -114 111 0
-4 114 -110 -111 0
-5 -114 110 0
-5 -114 112 0
-5 114 -110 -112 0
-6 -114 110 0
-6 114 -110 0
-25 -114 110 0
-25 114 -110 0
-111 0
-1 -115 111 0
-1 115 -111 0
-2 -111 115 0
-2 -109 115 0
-2 -115 111 109 0
-3 -115 111 0
-3 115 -111 0
-4 -111 115 0
-4 -110 115 0
-4 -115 111 110 0
-5 -115 111 0
-5 115 -111 0
-6 -115 111 0
-6 -115 112 0
-6 115 -111 -112 0
-25 -115 111 0
-25 115 -111 0
-112 0
-1 -116 112 0
-1 116 -112 0
-2 -116 112 0
-2 116 -112 0
-3 -112 116 0
-3 -109 116 0
-3 -116 112 109 0
-4 -116 112 0
-4 116 -112 0
-5 -112 116 0
-5 -110 116 0
-5 -116 112 110 0
-6 -112 116 0
-6 -111 116 0
-6 -116 112 111 0
-25 -116 112 0
-25 116 -112 0
-7 -117 113 0
-7 -117 114 0
-7 117 -113 -114 0
-8 -117 113 0
-8 -117 115 0
-8 117 -113 -115 0
-9 -117 113 0
-9 -117 116 0
-9 117 -113 -116 0
-10 -117 113 0
-10 117 -113 0
-11 -117 113 0
-11 117 -113 0
-12 -117 113 0
-12 117 -113 0
-26 -117 113 0
-26 117 -113 0
-7 -114 118 0
-7 -113 118 0
-7 -118 114 113 0
-8 -118 114 0
-8 118 -114 0
-9 -118 114 0
-9 118 -114 0
-10 -118 114 0
-10 -118 115 0
-10 118 -114 -115 0
-11 -118 114 0
-11 -118 116 0
-11 118 -114 -116 0
-12 -118 114 0
-12 118 -114 0
-26 -118 114 0
-26 118 -114 0
-7 -119 115 0
-7 119 -115 0
-8 -115 119 0
-8 -113 119 0
-8 -119 115 113 0
-9 -119 115 0
-9 119 -115 0
-10 -115 119 0
-10 -114 119 0
-10 -119 115 114 0
-11 -119 115 0
-11 119 -115 0
-12 -119 115 0
-12 -119 116 0
-12 119 -115 -116 0
-26 -119 115 0
-26 119 -115 0
-7 -120 116 0
-7 120 -116 0
-8 -120 116 0
-8 120 -116 0
-9 -116 120 0
-9 -113 120 0
-9 -120 116 113 0
-10 -120 116 0
-10 120 -116 0
-11 -116 120 0
-11 -114 120 0
-11 -120 116 114 0
-12 -116 120 0
-12 -115 120 0
-12 -120 116 115 0
-26 -120 116 0
-26 120 -116 0
-13 -121 117 0
-13 -121 118 0
-13 121 -117 -118 0
-14 -121 117 0
-14 -121 119 0
-14 121 -117 -119 0
-15 -121 117 0
-15 -121 120 0
-15 121 -117 -120 0
-16 -121 117 0
-16 121 -117 0
-17 -121 117 0
-17 121 -117 0
-18 -121 117 0
-18 121 -117 0
-27 -121 117 0
-27 121 -117 0
-13 -118 122 0
-13 -117 122 0
-13 -122 118 117 0
-14 -122 118 0
-14 122 -118 0
-15 -122 118 0
-15 122 -118 0
-16 -122 118 0
-16 -122 119 0
-16 122 -118 -119 0
-17 -122 118 0
-17 -122 120 0
-17 122 -118 -120 0
-18 -122 118 0
-18 122 -118 0
-27 -122 118 0
-27 122 -118 0
-13 -123 119 0
-13 123 -119 0
-14 -119 123 0
-14 -117 123 0
-14 -123 119 117 0
-15 -123 119 0
-15 123 -119 0
-16 -119 123 0
-16 -118 123 0
-16 -123 119 118 0
-17 -123 119 0
-17 123 -119 0
-18 -123 119 0
-18 -123 120 0
-18 123 -119 -120 0
-27 -123 119 0
-27 123 -119 0
-13 -124 120 0
-13 124 -120 0
-14 -124 120 0
-14 124 -120 0
-15 -120 124 0
-15 -117 124 0
-15 -124 120 117 0
-16 -124 120 0
-16 124 -120 0
-17 -120 124 0
-17 -118 124 0
-17 -124 120 118 0
-18 -120 124 0
-18 -119 124 0
-18 -124 120 119 0
-27 -124 120 0
-27 124 -120 0
-19 -125 121 0
-19 -125 122 0
-19 125 -121 -122 0
-20 -125 121 0
-20 -125 123 0
-20 125 -121 -123 0
-21 -125 121 0
-21 -125 124 0
-21 125 -121 -124 0
-22 -125 121 0
-22 125 -121 0
-23 -125 121 0
-23 125 -121 0
-24 -125 121 0
-24 125 -121 0
-28 -125 121 0
-28 125 -121 0
-19 -122 126 0
-19 -121 126 0
-19 -126 122 121 0
-20 -126 122 0
-20 126 -122 0
-21 -126 122 0
-21 126 -122 0
-22 -126 122 0
-22 -126 123 0
-22 126 -122 -123 0
-23 -126 122 0
-23 -126 124 0
-23 126 -122 -124 0
-24 -126 122 0
-24 126 -122 0
-28 -126 122 0
-28 126 -122 0
-19 -127 123 0
-19 127 -123 0
-20 -123 127 0
-20 -121 127 0
-20 -127 123 121 0
-21 -127 123 0
-21 127 -123 0
-22 -123 127 0
-22 -122 127 0
-22 -127 123 122 0
-23 -127 123 0
-23 127 -123 0
-24 -127 123 0
-24 -127 124 0
-24 127 -123 -124 0
-28 -127 123 0
-28 127 -123 0
-19 -128 124 0
-19 128 -124 0
-20 -128 124 0
-20 128 -124 0
-21 -124 128 0
-21 -121 128 0
-21 -128 124 121 0
-22 -128 124 0
-22 128 -124 0
-23 -124 128 0
-23 -122 128 0
-23 -128 124 122 0
-24 -124 128 0
-24 -123 128 0
-24 -128 124 123 0
-28 -128 124 0
-28 128 -124 0
129 0
-1 -133 129 0
-1 -133 130 0
-1 133 -129 -130 0
-2 -133 129 0
-2 -133 131 0
-2 133 -129 -131 0
-3 -133 129 0
-3 -133 132 0
-3 133 -129 -132 0
-4 -133 129 0
-4 133 -129 0
-5 -133 129 0
-5 133 -129 0
-6 -133 129 0
-6 133 -129 0
-25 -133 129 0
-25 133 -129 0
-130 0
-1 -130 134 0
-1 -129 134 0
-1 -134 130 129 0
-2 -134 130 0
-2 134 -130 0
-3 -134 130 0
-3 134 -130 0
-4 -134 130 0
-4 -134 131 0
-4 134 -130 -131 0
-5 -134 130 0
-5 -134 132 0
-5 134 -130 -132 0
-6 -134 130 0
-6 134 -130 0
-25 -134 130 0
-25 134 -130 0
-131 0
-1 -135 131 0
-1 135 -131 0
-2 -131 135 0
-2 -129 135 0
-2 -135 131 129 0
-3 -135 131 0
-3 135 -131 0
-4 -131 135 0
-4 -130 135 0
-4 -135 131 130 0
-5 -135 131 0
-5 135 -131 0
-6 -135 131 0
-6 -135 132 0
-6 135 -131 -132 0
-25 -135 131 0
-25 135 -131 0
132 0
-1 -136 132 0
-1 136 -132 0
-2 -136 132 0
-2 136 -132 0
-3 -132 136 0
-3 -129 136 0
-3 -136 132 129 0
-4 -136 132 0
-4 136 -132 0
-5 -132 136 0
-5 -130 136 0
-5 -136 132 130 0
-6 -132 136 0
-6 -131 136 0
-6 -136 132 131 0
-25 -136 132 0
-25 136 -132 0
-7 -137 133 0
-7 -137 134 0
-7 137 -133 -134 0
-8 -137 133 0
-8 -137 135 0
-8 137 -133 -135 0
-9 -137 133 0
-9 -137 136 0
-9 137 -133 -136 0
-10 -137 133 0
-10 137 -133 0
-11 -137 133 0
-11 137 -133 0
-12 -137 133 0
-12 137 -133 0
-26 -137 133 0
-26 137 -133 0
-7 -134 138 0
-7 -133 138 0
-7 -138 134 133 0
-8 -138 134 0
-8 138 -134 0
-9 -138 134 0
-9 138 -134 0
-10 -138 134 0
-10 -138 135 0
-10 138 -134 -135 0
-11 -138 134 0
-11 -138 136 0
-11 138 -134 -136 0
-12 -138 134 0
-12 138 -134 0
-26 -138 134 0
-26 138 -134 0
-7 -139 135 0
-7 139 -135 0
-8 -135 139 0
-8 -133 139 0
-8 -139 135 133 0
-9 -139 135 0
-9 139 -135 0
-10 -135 139 0
-10 -134 139 0
-10 -139 135 134 0
-11 -139 135 0
-11 139 -135 0
-12 -139 135 0
-12 -139 136 0
-12 139 -135 -136 0
-26 -139 135 0
-26 139 -135 0
-7 -140 136 0
-7 140 -136 0
-8 -140 136 0
-8 140 -136 0
-9 -136 140 0
-9 -133 140 0
-9 -140 136 133 0
-10 -140 136 0
-10 140 -136 0
-11 -136 140 0
-11 -134 140 0
-11 -140 136 134 0
-12 -136 140 0
-12 -135 140 0
-12 -140 136 135 0
-26 -140 136 0
-26 140 -136 0
-13 -141 137 0
-13 -141 138 0
-13 141 -137 -138 0
-14 -141 137 0
-14 -141 139 0
-14 141 -137 -139 0
-15 -141 137 0
-15 -141 140 0
-15 141 -137 -140 0
-16 -141 137 0
-16 141 -137 0
-17 -141 137 0
-17 141 -137 0
-18 -141 137 0
-18 141 -137 0
-27 -141 137 0
-27 141 -137 0
-13 -138 142 0
-13 -137 142 0
-13 -142 138 137 0
-14 -142 138 0
-14 142 -138 0
-15 -142 138 0
-15 142 -138 0
-16 -142 138 0
-16 -142 139 0
-16 142 -138 -139 0
-17 -142 138 0
-17 -142 140 0
-17 142 -138 -140 0
-18 -142 138 0
-18 142 -138 0
-27 -142 138 0
-27 142 -138 0
-13 -143 139 0
-13 143 -139 0
-14 -139 143 0
-14 -137 143 0
-14 -143 139 137 0
-15 -143 139 0
-15 143 -139 0
-16 -139 143 0
-16 -138 143 0
-16 -143 139 138 0
-17 -143 139 0
-17 143 -139 0
-18 -143 139 0
-18 -143 140 0
-18 143 -139 -140 0
-27 -143 139 0
-27 143 -139 0
-13 -144 140 0
-13 144 -140 0
-14 -144 140 0
-14 144 -140 0
-15 -140 144 0
-15 -137 144 0
-15 -144 140 137 0
-16 -144 140 0
-16 144 -140 0
-17 -140 144 0
-17 -138 144 0
-17 -144 140 138 0
-18 -140 144 0
-18 -139 144 0
-18 -144 140 139 0
-27 -144 140 0
-27 144 -140 0
-19 -145 141 0
-19 -145 142 0
-19 145 -141 -142 0
-20 -145 141 0
-20 -145 143 0
-20 145 -141 -143 0
-21 -145 141 0
-21 -145 144 0
-21 145 -141 -144 0
-22 -145 141 0
-22 145 -141 0
-23 -145 141 0
-23 145 -141 0
-24 -145 141 0
-24 145 -141 0
-28 -145 141 0
-28 145 -141 0
-19 -142 146 0
-19 -141 146 0
-19 -146 142 141 0
-20 -146 142 0
-20 146 -142 0
-21 -146 142 0
-21 146 -142 0
-22 -146 142 0
-22 -146 143 0
-22 146 -142 -143 0
-23 -146 142 0
-23 -146 144 0
-23 146 -142 -144 0
-24 -146 142 0
-24 146 -142 0
-28 -146 142 0
-28 146 -142 0
-19 -147 143 0
-19 147 -143 0
-20 -143 147 0
-20 -141 147 0
-20 -147 143 141 0
-21 -147 143 0
-21 147 -143 0
-22 -143 147 0
-22 -142 147 0
-22 -147 143 142 0
-23 -147 143 0
-23 147 -143 0
-24 -147 143 0
-24 -147 144 0
-24 147 -143 -144 0
-28 -147 143 0
-28 147 -143 0
-19 -148 144 0
-19 148 -144 0
-20 -148 144 0
-20 148 -144 0
-21 -144 148 0
-21 -141 148 0
-21 -148 144 141 0
-22 -148 144 0
-22 148 -144 0
-23 -144 148 0
-23 -142 148 0
-23 -148 144 142 0
-24 -144 148 0
-24 -143 148 0
-24 -148 144 143 0
-28 -148 144 0
-28 148 -144 0
149 0
-1 -153 149 0
-1 -153 150 0
-1 153 -149 -150 0
-2 -153 149 0
-2 -153 151 0
-2 153 -149 -151 0
-3 -153 149 0
-3 -153 152 0
-3 153 -149 -152 0
-4 -153 149 0
-4 153 -149 0
-5 -153 149 0
-5 153 -149 0
-6 -153 149 0
-6 153 -149 0
-25 -153 149 0
-25 153 -149 0
-150 0
-1 -150 154 0
-1 -149 154 0
-1 -154 150 149 0
-2 -154 150 0
-2 154 -150 0
-3 -154 150 0
-3 154 -150 0
-4 -154 150 0
-4 -154 151 0
-4 154 -150 -151 0
-5 -154 150 0
-5 -154 152 0
-5 154 -150 -152 0
-6 -154 150 0
-6 154 -150 0
-25 -154 150 0
-25 154 -150 0
151 0
-1 -155 151 0
-1 155 -151 0
-2 -151 155 0
-2 -149 155 0
-2 -155 151 149 0
-3 -155 151 0
-3 155 -151 0
-4 -151 155 0
-4 -150 155 0
-4 -155 151 150 0
-5 -155 151 0
-5 155 -151 0
-6 -155 151 0
-6 -155 152 0
-6 155 -151 -152 0
-25 -155 151 0
-25 155 -151 0
-152 0
-1 -156 152 0
-1 156 -152 0
-2 -156 152 0
-2 156 -152 0
-3 -152 156 0
-3 -149 156 0
-3 -156 152 149 0
-4 -156 152 0
-4 156 -152 0
-5 -152 156 0
-5 -150 156 0
-5 -156 152 150 0
-6 -152 156 0
-6 -151 156 0
-6 -156 152 151 0
-25 -156 152 0
-25 156 -152 0
-7 -157 153 0
-7 -157 154 0
-7 157 -153 -154 0
-8 -157 153 0
-8 -157 155 0
-8 157 -153 -155 0
-9 -157 153 0
-9 -157 156 0
-9 157 -153 -156 0
-10 -157 153 0
-10 157 -153 0
-11 -157 153 0
-11 157 -153 0
-12 -157 153 0
-12 157 -153 0
-26 -157 153 0
-26 157 -153 0
-7 -154 158 0
-7 -153 158 0
-7 -158 154 153 0
-8 -158 154 0
-8 158 -154 0
-9 -158 154 0
-9 158 -154 0
-10 -158 154 0
-10 -158 155 0
-10 158 -154 -155 0
-11 -158 154 0
-11 -158 156 0
-11 158 -154 -156 0
-12 -158 154 0
-12 158 -154 0
-26 -158 154 0
-26 158 -154 0
-7 -159 155 0
-7 159 -155 0
-8 -155 159 0
-8 -153 159 0
-8 -159 155 153 0
-9 -159 155 0
-9 159 -155 0
-10 -155 159 0
-10 -154 159 0
-10 -159 155 154 0
-11 -159 155 0
-11 159 -155 0
-12 -159 155 0
-12 -159 156 0
-12 159 -155 -156 0
-26 -159 155 0
-26 159 -155 0
-7 -160 156 0
-7 160 -156 0
-8 -160 156 0
-8 160 -156 0
-9 -156 160 0
-9 -153 160 0
-9 -160 156 153 0
-10 -160 156 0
-10 160 -156 0
-11 -156 160 0
-11 -154 160 0
-11 -160 156 154 0
-12 -156 160 0
-12 -155 160 0
-12 -160 156 155 0
-26 -160 156 0
-26 160 -156 0
-13 -161 157 0
-13 -161 158 0
-13 161 -157 -158 0
-14 -161 157 0
-14 -161 159 0
-14 161 -157 -159 0
-15 -161 157 0
-15 -161 160 0
-15 161 -157 -160 0
-16 -161 157 0
-16 161 -157 0
-17 -161 157 0
-17 161 -157 0
-18 -161 157 0
-18 161 -157 0
-27 -161 157 0
-27 161 -157 0
-13 -158 162 0
-13 -157 162 0
-13 -162 158 157 0
-14 -162 158 0
-14 162 -158 0
-15 -162 158 0
-15 162 -158 0
-16 -162 158 0
-16 -162 159 0
-16 162 -158 -159 0
-17 -162 158 0
-17 -162 160 0
-17 162 -158 -160 0
-18 -162 158 0
-18 162 -158 0
-27 -162 158 0
-27 162 -158 0
-13 -163 159 0
-13 163 -159 0
-14 -159 163 0
-14 -157 163 0
-14 -163 159 157 0
-15 -163 159 0
-15 163 -159 0
-16 -159 163 0
-16 -158 163 0
-16 -163 159 158 0
-17 -163 159 0
-17 163 -159 0
-18 -163 159 0
-18 -163 160 0
-18 163 -159 -160 0
-27 -163 159 0
-27 163 -159 0
-13 -164 160 0
-13 164 -160 0
-14 -164 160 0
-14 164 -160 0
-15 -160 164 0
-15 -157 164 0
-15 -164 160 157 0
-16 -164 160 0
-16 164 -160 0
-17 -160 164 0
-17 -158 164 0
-17 -164 160 158 0
-18 -160 164 0
-18 -159 164 0
-18 -164 160 159 0
-27 -164 160 0
-27 164 -160 0
-19 -165 161 0
-19 -165 162 0
-19 165 -161 -162 0
-20 -165 161 0
-20 -165 163 0
-20 165 -161 -163 0
-21 -165 161 0
-21 -165 164 0
-21 165 -161 -164 0
-22 -165 161 0
-22 165 -161 0
-23 -165 161 0
-23 165 -161 0
-24 -165 161 0
-24 165 -161 0
-28 -165 161 0
-28 165 -161 0
-19 -162 166 0
-19 -161 166 0
-19 -166 162 161 0
-20 -166 162 0
-20 166 -162 0
-21 -166 162 0
-21 166 -162 0
-22 -166 162 0
-22 -166 163 0
-22 166 -162 -163 0
-23 -166 162 0
-23 -166 164 0
-23 166 -162 -164 0
-24 -166 162 0
-24 166 -162 0
-28 -166 162 0
-28 166 -162 0
-19 -167 163 0
-19 167 -163 0
-20 -163 167 0
-20 -161 167 0
-20 -167 163 161 0
-21 -167 163 0
-21 167 -163 0
-22 -163 167 0
-22 -162 167 0
-22 -167 163 162 0
-23 -167 163 0
-23 167 -163 0
-24 -167 163 0
-24 -167 164 0
-24 167 -163 -164 0
-28 -167 163 0
-28 167 -163 0
-19 -168 164 0
-19 168 -164 0
-20 -168 164 0
-20 168 -164 0
-21 -164 168 0
-21 -161 168 0
-21 -168 164 161 0
-22 -168 164 0
-22 168 -164 0
-23 -164 168 0
-23 -162 168 0
-23 -168 164 162 0
-24 -164 168 0
-24 -163 168 0
-24 -168 164 163 0
-28 -168 164 0
-28 168 -164 0
169 0
-1 -173 169 0
-1 -173 170 0
-1 173 -169 -170 0
-2 -173 169 0
-2 -173 171 0
-2 173 -169 -171 0
-3 -173 169 0
-3 -173 172 0
-3 173 -169 -172 0
-4 -173 169 0
-4 173 -169 0
-5 -173 169 0
-5 173 -169 0
-6 -173 169 0
-6 173 -169 0
-25 -173 169 0
-25 173 -169 0
-170 0
-1 -170 174 0
-1 -169 174 0
-1 -174 170 169 0
-2 -174 170 0
-2 174 -170 0
-3 -174 170 0
-3 174 -170 0
-4 -174 170 0
-4 -174 171 0
-4 174 -170 -171 0
-5 -174 170 0
-5 -174 172 0
-5 174 -170 -172 0
-6 -174 170 0
-6 174 -170 0
-25 -174 170 0
-25 174 -170 0
171 0
-1 -175 171 0
-1 175 -171 0
-2 -171 175 0
-2 -169 175 0
-2 -175 171 169 0
-3 -175 171 0
-3 175 -171 0
-4 -171 175 0
-4 -170 175 0
-4 -175 171 170 0
-5 -175 171 0
-5 175 -171 0
-6 -175 171 0
-6 -175 172 0
-6 175 -171 -172 0
-25 -175 171 0
-25 175 -171 0
172 0
-1 -176 172 0
-1 176 -172 0
-2 -176 172 0
-2 176 -172 0
-3 -172 176 0
-3 -169 176 0
-3 -176 172 169 0
-4 -176 172 0
-4 176 -172 0
-5 -172 176 0
-5 -170 176 0
-5 -176 172 170 0
-6 -172 176 0
-6 -171 176 0
-6 -176 172 171 0
-25 -176 172 0
-25 176 -172 0
-7 -177 173 0
-7 -177 174 0
-7 177 -173 -174 0
-8 -177 173 0
-8 -177 175 0
-8 177 -173 -175 0
-9 -177 173 0
-9 -177 176 0
-9 177 -173 -176 0
-10 -177 173 0
-10 177 -173 0
-11 -177 173 0
-11 177 -173 0
-12 -177 173 0
-12 177 -173 0
-26 -177 173 0
-26 177 -173 0
-7 -174 178 0
-7 -173 178 0
-7 -178 174 173 0
-8 -178 174 0
-8 178 -174 0
-9 -178 174 0
-9 178 -174 0
-10 -178 174 0
-10 -178 175 0
-10 178 -174 -175 0
-11 -178 174 0
-11 -178 176 0
-11 178 -174 -176 0
-12 -178 174 0
-12 178 -174 0
-26 -178 174 0
-26 178 -174 0
-7 -179 175 0
-7 179 -175 0
-8 -175 179 0
-8 -173 179 0
-8 -179 175 173 0
-9 -179 175 0
-9 179 -175 0
-10 -175 179 0
-10 -174 179 0
-10 -179 175 174 0
-11 -179 175 0
-11 179 -175 0
-12 -179 175 0
-12 -179 176 0
-12 179 -175 -176 0
-26 -179 175 0
-26 179 -175 0
-7 -180 176 0
-7 180 -176 0
-8 -180 176 0
-8 180 -176 0
-9 -176 180 0
-9 -173 180 0
-9 -180 176 173 0
-10 -180 176 0
-10 180 -176 0
-11 -176 180 0
-11 -174 180 0
-11 -180 176 174 0
-12 -176 180 0
-12 -175 180 0
-12 -180 176 175 0
-26 -180 176 0
-26 180 -176 0
-13 -181 177 0
-13 -181 178 0
-13 181 -177 -178 0
-14 -181 177 0
-14 -181 179 0
-14 181 -177 -179 0
-15 -181 177 0
-15 -181 180 0
-15 181 -177 -180 0
-16 -181 177 0
-16 181 -177 0
-17 -181 177 0
-17 181 -177 0
-18 -181 177 0
-18 181 -177 0
-27 -181 177 0
-27 181 -177 0
-13 -178 182 0
-13 -177 182 0
-13 -182 178 177 0
-14 -182 178 0
-14 182 -178 0
-15 -182 178 0
-15 182 -178 0
-16 -182 178 0
-16 -182 179 0
-16 182 -178 -179 0
-17 -182 178 0
-17 -182 180 0
-17 182 -178 -180 0
-18 -182 178 0
-18 182 -178 0
-27 -182 178 0
-27 182 -178 0
-13 -183 179 0
-13 183 -179 0
-14 -179 183 0
-14 -177 183 0
-14 -183 179 177 0
-15 -183 179 0
-15 183 -179 0
-16 -179 183 0
-16 -178 183 0
-16 -183 179 178 0
-17 -183 179 0
-17 183 -179 0
-18 -183 179 0
-18 -183 180 0
-18 183 -179 -180 0
-27 -183 179 0
-27 183 -179 0
-13 -184 180 0
-13 184 -180 0
-14 -184 180 0
-14 184 -180 0
-15 -180 184 0
-15 -177 184 0
-15 -184 180 177 0
-16 -184 180 0
-16 184 -180 0
-17 -180 184 0
-17 -178 184 0
-17 -184 180 178 0
-18 -180 184 0
-18 -179 184 0
-18 -184 180 179 0
-27 -184 180 0
-27 184 -180 0
-19 -185 181 0
-19 -185 182 0
-19 185 -181 -182 0
-20 -185 181 0
-20 -185 183 0
-20 185 -181 -183 0
-21 -185 181 0
-21 -185 184 0
-21 185 -181 -184 0
-22 -185 181 0
-22 185 -181 0
-23 -185 181 0
-23 185 -181 0
-24 -185 181 0
-24 185 -181 0
-28 -185 181 0
-28 185 -181 0
-19 -182 186 0
-19 -181 186 0
-19 -186 182 181 0
-20 -186 182 0
-20 186 -182 0
-21 -186 182 0
-21 186 -182 0
-22 -186 182 0
-22 -186 183 0
-22 186 -182 -183 0
-23 -186 182 0
-23 -186 184 0
-23 186 -182 -184 0
-24 -186 182 0
-24 186 -182 0
-28 -186 182 0
-28 186 -182 0
-19 -187 183 0
-19 187 -183 0
-20 -183 187 0
-20 -181 187 0
-20 -187 183 181 0
-21 -187 183 0
-21 187 -183 0
-22 -183 187 0
-22 -182 187 0
-22 -187 183 182 0
-23 -187 183 0
-23 187 -183 0
-24 -187 183 0
-24 -187 184 0
-24 187 -183 -184 0
-28 -187 183 0
-28 187 -183 0
-19 -188 184 0
-19 188 -184 0
-20 -188 184 0
-20 188 -184 0
-21 -184 188 0
-21 -181 188 0
-21 -188 184 181 0
-22 -188 184 0
-22 188 -184 0
-23 -184 188 0
-23 -182 188 0
-23 -188 184 182 0
-24 -184 188 0
-24 -183 188 0
-24 -188 184 183 0
-28 -188 184 0
-28 188 -184 0
189 0
-1 -193 189 0
-1 -193 190 0
-1 193 -189 -190 0
-2 -193 189 0
-2 -193 191 0
-2 193 -189 -191 0
-3 -193 189 0
-3 -193 192 0
-3 193 -189 -192 0
-4 -193 189 0
-4 193 -189 0
-5 -193 189 0
-5 193 -189 0
-6 -193 189 0
-6 193 -189 0
-25 -193 189 0
-25 193 -189 0
190 0
-1 -190 194 0
-1 -189 194 0
-1 -194 190 189 0
-2 -194 190 0
-2 194 -190 0
-3 -194 190 0
-3 194 -190 0
-4 -194 190 0
-4 -194 191 0
-4 194 -190 -191 0
-5 -194 190 0
-5 -194 192 0
-5 194 -190 -192 0
-6 -194 190 0
-6 194 -190 0
-25 -194 190 0
-25 194 -190 0
-191 0
-1 -195 191 0
-1 195 -191 0
-2 -191 195 0
-2 -189 195 0
-2 -195 191 189 0
-3 -195 191 0
-3 195 -191 0
-4 -191 195 0
-4 -190 195 0
-4 -195 191 190 0
-5 -195 191 0
-5 195 -191 0
-6 -195 191 0
-6 -195 192 0
-6 195 -191 -192 0
-25 -195 191 0
-25 195 -191 0
-192 0
-1 -196 192 0
-1 196 -192 0
-2 -196 192 0
-2 196 -192 0
-3 -192 196 0
-3 -189 196 0
-3 -196 192 189 0
-4 -196 192 0
-4 196 -192 0
-5 -192 196 0
-5 -190 196 0
-5 -196 192 190 0
-6 -192 196 0
-6 -191 196 0
-6 -196 192 191 0
-25 -196 192 0
-25 196 -192 0
-7 -197 193 0
-7 -197 194 0
-7 197 -193 -194 0
-8 -197 193 0
-8 -197 195 0
-8 197 -193 -195 0
-9 -197 193 0
-9 -197 196 0
-9 197 -193 -196 0
-10 -197 193 0
-10 197 -193 0
-11 -197 193 0
-11 197 -193 0
-12 -197 193 0
-12 197 -193 0
-26 -197 193 0
-26 197 -193 0
-7 -194 198 0
-7 -193 198 0
-7 -198 194 193 0
-8 -198 194 0
-8 198 -194 0
-9 -198 194 0
-9 198 -194 0
-10 -198 194 0
-10 -198 195 0
-10 198 -194 -195 0
-11 -198 194 0
-11 -198 196 0
-11 198 -194 -196 0
-12 -198 194 0
-12 198 -194 0
-26 -198 194 0
-26 198 -194 0
-7 -199 195 0
-7 199 -195 0
-8 -195 199 0
-8 -193 199 0
-8 -199 195 193 0
-9 -199 195 0
-9 199 -195 0
-10 -195 199 0
-10 -194 199 0
-10 -199 195 194 0
-11 -199 195 0
-11 199 -195 0
-12 -199 195 0
-12 -199 196 0
-12 199 -195 -196 0
-26 -199 195 0
-26 199 -195 0
-7 -200 196 0
-7 200 -196 0
-8 -200 196 0
-8 200 -196 0
-9 -196 200 0
-9 -193 200 0
-9 -200 196 193 0
-10 -200 196 0
-10 200 -196 0
-11 -196 200 0
-11 -194 200 0
-11 -200 196 194 0
-12 -196 200 0
-12 -195 200 0
-12 -200 196 195 0
-26 -200 196 0
-26 200 -196 0
-13 -201 197 0
-13 -201 198 0
-13 201 -197 -198 0
-14 -201 197 0
-14 -201 199 0
-14 201 -197 -199 0
-15 -201 197 0
-15 -201 200 0
-15 201 -197 -200 0
-16 -201 197 0
-16 201 -197 0
-17 -201 197 0
-17 201 -197 0
-18 -201 197 0
-18 201 -197 0
-27 -201 197 0
-27 201 -197 0
-13 -198 202 0
-13 -197 202 0
-13 -202 198 197 0
-14 -202 198 0
-14 202 -198 0
-15 -202 198 0
-15 202 -198 0
-16 -202 198 0
-16 -202 199 0
-16 202 -198 -199 0
-17 -202 198 0
-17 -202 200 0
-17 202 -198 -200 0
-18 -202 198 0
-18 202 -198 0
-27 -202 198 0
-27 202 -198 0
-13 -203 199 0
-13 203 -199 0
-14 -199 203 0
-14 -197 203 0
-14 -203 199 197 0
-15 -203 199 0
-15 203 -199 0
-16 -199 203 0
-16 -198 203 0
-16 -203 199 198 0
-17 -203 199 0
-17 203 -199 0
-18 -203 199 0
-18 -203 200 0
-18 203 -199 -200 0
-27 -203 199 0
-27 203 -199 0
-13 -204 200 0
-13 204 -200 0
-14 -204 200 0
-14 204 -200 0
-15 -200 204 0
-15 -197 204 0
-15 -204 200 197 0
-16 -204 200 0
-16 204 -200 0
-17 -200 204 0
-17 -198 204 0
-17 -204 200 198 0
-18 -200 204 0
-18 -199 204 0
-18 -204 200 199 0
-27 -204 200 0
-27 204 -200 0
-19 -205 201 0
-19 -205 202 0
-19 205 -201 -202 0
-20 -205 201 0
-20 -205 203 0
-20 205 -201 -203 0
-21 -205 201 0
-21 -205 204 0
-21 205 -201 -204 0
-22 -205 201 0
-22 205 -201 0
-23 -205 201 0
-23 205 -201 0
-24 -205 201 0
-24 205 -201 0
-28 -205 201 0
-28 205 -201 0
-19 -202 206 0
-19 -201 206 0
-19 -206 202 201 0
-20 -206 202 0
-20 206 -202 0
-21 -206 202 0
-21 206 -202 0
-22 -206 202 0
-22 -206 203 0
-22 206 -202 -203 0
-23 -206 202 0
-23 -206 204 0
-23 206 -202 -204 0
-24 -206 202 0
-24 206 -202 0
-28 -206 202 0
-28 206 -202 0
-19 -207 203 0
-19 207 -203 0
-20 -203 207 0
-20 -201 207 0
-20 -207 203 201 0
-21 -207 203 0
-21 207 -203 0
-22 -203 207 0
-22 -202 207 0
-22 -207 203 202 0
-23 -207 203 0
-23 207 -203 0
-24 -207 203 0
-24 -207 204 0
-24 207 -203 -204 0
-28 -207 203 0
-28 207 -203 0
-19 -208 204 0
-19 208 -204 0
-20 -208 204 0
-20 208 -204 0
-21 -204 208 0
-21 -201 208 0
-21 -208 204 201 0
-22 -208 204 0
-22 208 -204 0
-23 -204 208 0
-23 -202 208 0
-23 -208 204 202 0
-24 -204 208 0
-24 -203 208 0
-24 -208 204 203 0
-28 -208 204 0
-28 208 -204 0
209 0
-1 -213 209 0
-1 -213 210 0
-1 213 -209 -210 0
-2 -213 209 0
-2 -213 211 0
-2 213 -209 -211 0
-3 -213 209 0
-3 -213 212 0
-3 213 -209 -212 0
-4 -213 209 0
-4 213 -209 0
-5 -213 209 0
-5 213 -209 0
-6 -213 209 0
-6 213 -209 0
-25 -213 209 0
-25 213 -209 0
210 0
-1 -210 214 0
-1 -209 214 0
-1 -214 210 209 0
-2 -214 210 0
-2 214 -210 0
-3 -214 210 0
-3 214 -210 0
-4 -214 210 0
-4 -214 211 0
-4 214 -210 -211 0
-5 -214 210 0
-5 -214 212 0
-5 214 -210 -212 0
-6 -214 210 0
-6 214 -210 0
-25 -214 210 0
-25 214 -210 0
-211 0
-1 -215 211 0
-1 215 -211 0
-2 -211 215 0
-2 -209 215 0
-2 -215 211 209 0
-3 -215 211 0
-3 215 -211 0
-4 -211 215 0
-4 -210 215 0
-4 -215 211 210 0
-5 -215 211 0
-5 215 -211 0
-6 -215 211 0
-6 -215 212 0
-6 215 -211 -212 0
-25 -215 211 0
-25 215 -211 0
212 0
-1 -216 212 0
-1 216 -212 0
-2 -216 212 0
-2 216 -212 0
-3 -212 216 0
-3 -209 216 0
-3 -216 212 209 0
-4 -216 212 0
-4 216 -212 0
-5 -212 216 0
-5 -210 216 0
-5 -216 212 210 0
-6 -212 216 0
-6 -211 216 0
-6 -216 212 211 0
-25 -216 212 0
-25 216 -212 0
-7 -217 213 0
-7 -217 214 0
-7 217 -213 -214 0
-8 -217 213 0
-8 -217 215 0
-8 217 -213 -215 0
-9 -217 213 0
-9 -217 216 0
-9 217 -213 -216 0
-10 -217 213 0
-10 217 -213 0
-11 -217 213 0
-11 217 -213 0
-12 -217 213 0
-12 217 -213 0
-26 -217 213 0
-26 217 -213 0
-7 -214 218 0
-7 -213 218 0
-7 -218 214 213 0
-8 -218 214 0
-8 218 -214 0
-9 -218 214 0
-9 218 -214 0
-10 -218 214 0
-10 -218 215 0
-10 218 -214 -215 0
-11 -218 214 0
-11 -218 216 0
-11 218 -214 -216 0
-12 -218 214 0
-12 218 -214 0
-26 -218 214 0
-26 218 -214 0
-7 -219 215 0
-7 219 -215 0
-8 -215 219 0
-8 -213 219 0
-8 -219 215 213 0
-9 -219 215 0
-9 219 -215 0
-10 -215 219 0
-10 -214 219 0
-10 -219 215 214 0
-11 -219 215 0
-11 219 -215 0
-12 -219 215 0
-12 -219 216 0
-12 219 -215 -216 0
-26 -219 215 0
-26 219 -215 0
-7 -220 216 0
-7 220 -216 0
-8 -220 216 0
-8 220 -216 0
-9 -216 220 0
-9 -213 220 0
-9 -220 216 213 0
-10 -220 216 0
-10 220 -216 0
-11 -216 220 0
-11 -214 220 0
-11 -220 216 214 0
-12 -216 220 0
-12 -215 220 0
-12 -220 216 215 0
-26 -220 216 0
-26 220 -216 0
-13 -221 217 0
-13 -221 218 0
-13 221 -217 -218 0
-14 -221 217 0
-14 -221 219 0
-14 221 -217 -219 0
-15 -221 217 0
-15 -221 220 0
-15 221 -217 -220 0
-16 -221 217 0
-16 221 -217 0
-17 -221 217 0
-17 221 -217 0
-18 -221 217 0
-18 221 -217 0
-27 -221 217 0
-27 221 -217 0
-13 -218 222 0
-13 -217 222 0
-13 -222 218 217 0
-14 -222 218 0
-14 222 -218 0
-15 -222 218 0
-15 222 -218 0
-16 -222 218 0
-16 -222 219 0
-16 222 -218 -219 0
-17 -222 218 0
-17 -222 220 0
-17 222 -218 -220 0
-18 -222 218 0
-18 222 -218 0
-27 -222 218 0
-27 222 -218 0
-13 -223 219 0
-13 223 -219 0
-14 -219 223 0
-14 -217 223 0
-14 -223 219 217 0
-15 -223 219 0
-15 223 -219 0
-16 -219 223 0
-16 -218 223 0
-16 -223 219 218 0
-17 -223 219 0
-17 223 -219 0
-18 -223 219 0
-18 -223 220 0
-18 223 -219 -220 0
-27 -223 219 0
-27 223 -219 0
-13 -224 220 0
-13 224 -220 0
-14 -224 220 0
-14 224 -220 0
-15 -220 224 0
-15 -217 224 0
-15 -224 220 217 0
-16 -224 220 0
-16 224 -220 0
-17 -220 224 0
-17 -218 224 0
-17 -224 220 218 0
-18 -220 224 0
-18 -219 224 0
-18 -224 220 219 0
-27 -224 220 0
-27 224 -220 0
-19 -225 221 0
-19 -225 222 0
-19 225 -221 -222 0
-20 -225 221 0
-20 -225 223 0
-20 225 -221 -223 0
-21 -225 221 0
-21 -225 224 0
-21 225 -221 -224 0
-22 -225 221 0
-22 225 -221 0
-23 -225 221 0
-23 225 -221 0
-24 -225 221 0
-24 225 -221 0
-28 -225 221 0
-28 225 -221 0
-19 -222 226 0
-19 -221 226 0
-19 -226 222 221 0
-20 -226 222 0
-20 226 -222 0
-21 -226 222 0
-21 226 -222 0
-22 -226 222 0
-22 -226 223 0
-22 226 -222 -223 0
-23 -226 222 0
-23 -226 224 0
-23 226 -222 -224 0
-24 -226 222 0
-24 226 -222 0
-28 -226 222 0
-28 226 -222 0
-19 -227 223 0
-19 227 -223 0
-20 -223 227 0
-20 -221 227 0
-20 -227 223 221 0
-21 -227 223 0
-21 227 -223 0
-22 -223 227 0
-22 -222 227 0
-22 -227 223 222 0
-23 -227 223 0
-23 227 -223 0
-24 -227 223 0
-24 -227 224 0
-24 227 -223 -224 0
-28 -227 223 0
-28 227 -223 0
-19 -228 224 0
-19 228 -224 0
-20 -228 224 0
-20 228 -224 0
-21 -224 228 0
-21 -221 228 0
-21 -228 224 221 0
-22 -228 224 0
-22 228 -224 0
-23 -224 228 0
-23 -222 228 0
-23 -228 224 222 0
-24 -224 228 0
-24 -223 228 0
-24 -228 224 223 0
-28 -228 224 0
-28 228 -224 0
229 0
-1 -233 229 0
-1 -233 230 0
-1 233 -229 -230 0
-2 -233 229 0
-2 -233 231 0
-2 233 -229 -231 0
-3 -233 229 0
-3 -233 232 0
-3 233 -229 -232 0
-4 -233 229 0
-4 233 -229 0
-5 -233 229 0
-5 233 -229 0
-6 -233 229 0
-6 233 -229 0
-25 -233 229 0
-25 233 -229 0
230 0
-1 -230 234 0
-1 -229 234 0
-1 -234 230 229 0
-2 -234 230 0
-2 234 -230 0
-3 -234 230 0
-3 234 -230 0
-4 -234 230 0
-4 -234 231 0
-4 234 -230 -231 0
-5 -234 230 0
-5 -234 232 0
-5 234 -230 -232 0
-6 -234 230 0
-6 234 -230 0
-25 -234 230 0
-25 234 -230 0
231 0
-1 -235 231 0
-1 235 -231 0
-2 -231 235 0
-2 -229 235 0
-2 -235 231 229 0
-3 -235 231 0
-3 235 -231 0
-4 -231 235 0
-4 -230 235 0
-4 -235 231 230 0
-5 -235 231 0
-5 235 -231 0
-6 -235 231 0
-6 -235 232 0
-6 235 -231 -232 0
-25 -235 231 0
-25 235 -231 0
-232 0
-1 -236 232 0
-1 236 -232 0
-2 -236 232 0
-2 236 -232 0
-3 -232 236 0
-3 -229 236 0
-3 -236 232 229 0
-4 -236 232 0
-4 236 -232 0
-5 -232 236 0
-5 -230 236 0
-5 -236 232 230 0
-6 -232 236 0
-6 -231 236 0
-6 -236 232 231 0
-25 -236 232 0
-25 236 -232 0
-7 -237 233 0
-7 -237 234 0
-7 237 -233 -234 0
-8 -237 233 0
-8 -237 235 0
-8 237 -233 -235 0
-9 -237 233 0
-9 -237 236 0
-9 237 -233 -236 0
-10 -237 233 0
-10 237 -233 0
-11 -237 233 0
-11 237 -233 0
-12 -237 233 0
-12 237 -233 0
-26 -237 233 0
-26 237 -233 0
-7 -234 238 0
-7 -233 238 0
-7 -238 234 233 0
-8 -238 234 0
-8 238 -234 0
-9 -238 234 0
-9 238 -234 0
-10 -238 234 0
-10 -238 235 0
-10 238 -234 -235 0
-11 -238 234 0
-11 -238 236 0
-11 238 -234 -236 0
-12 -238 234 0
-12 238 -234 0
-26 -238 234 0
-26 238 -234 0
-7 -239 235 0
-7 239 -235 0
-8 -235 239 0
-8 -233 239 0
-8 -239 235 233 0
-9 -239 235 0
-9 239 -235 0
-10 -235 239 0
-10 -234 239 0
-10 -239 235 234 0
-11 -239 235 0
-11 239 -235 0
-12 -239 235 0
-12 -239 236 0
-12 239 -235 -236 0
-26 -239 235 0
-26 239 -235 0
-7 -240 236 0
-7 240 -236 0
-8 -240 236 0
-8 240 -236 0
-9 -236 240 0
-9 -233 240 0
-9 -240 236 233 0
-10 -240 236 0
-10 240 -236 0
-11 -236 240 0
-11 -234 240 0
-11 -240 236 234 0
-12 -236 240 0
-12 -235 240 0
-12 -240 236 235 0
-26 -240 236 0
-26 240 -236 0
-13 -241 237 0
-13 -241 238 0
-13 241 -237 -238 0
-14 -241 237 0
-14 -241 239 0
-14 241 -237 -239 0
-15 -241 237 0
-15 -241 240 0
-15 241 -237 -240 0
-16 -241 237 0
-16 241 -237 0
-17 -241 237 0
-17 241 -237 0
-18 -241 237 0
-18 241 -237 0
-27 -241 237 0
-27 241 -237 0
-13 -238 242 0
-13 -237 242 0
-13 -242 238 237 0
-14 -242 238 0
-14 242 -238 0
-15 -242 238 0
-15 242 -238 0
-16 -242 238 0
-16 -242 239 0
-16 242 -238 -239 0
-17 -242 238 0
-17 -242 240 0
-17 242 -238 -240 0
-18 -242 238 0
-18 242 -238 0
-27 -242 238 0
-27 242 -238 0
-13 -243 239 0
-13 243 -239 0
-14 -239 243 0
-14 -237 243 0
-14 -243 239 237 0
-15 -243 239 0
-15 243 -239 0
-16 -239 243 0
-16 -238 243 0
-16 -243 239 238 0
-17 -243 239 0
-17 243 -239 0
-18 -243 239 0
-18 -243 240 0
-18 243 -239 -240 0
-27 -243 239 0
-27 243 -239 0
-13 -244 240 0
-13 244 -240 0
-14 -244 240 0
-14 244 -240 0
-15 -240 244 0
-15 -237 244 0
-15 -244 240 237 0
-16 -244 240 0
-16 244 -240 0
-17 -240 244 0
-17 -238 244 0
-17 -244 240 238 0
-18 -240 244 0
-18 -239 244 0
-18 -244 240 239 0
-27 -244 240 0
-27 244 -240 0
-19 -245 241 0
-19 -245 242 0
-19 245 -241 -242 0
-20 -245 241 0
-20 -245 243 0
-20 245 -241 -243 0
-21 -245 241 0
-21 -245 244 0
-21 245 -241 -244 0
-22 -245 241 0
-22 245 -241 0
-23 -245 241 0
-23 245 -241 0
-24 -245 241 0
-24 245 -241 0
-28 -245 241 0
-28 245 -241 0
-19 -242 246 0
-19 -241 246 0
-19 -246 242 241 0
-20 -246 242 0
-20 246 -242 0
-21 -246 242 0
-21 246 -242 0
-22 -246 242 0
-22 -246 243 0
-22 246 -242 -243 0
-23 -246 242 0
-23 -246 244 0
-23 246 -242 -244 0
-24 -246 242 0
-24 246 -242 0
-28 -246 242 0
-28 246 -242 0
-19 -247 243 0
-19 247 -243 0
-20 -243 247 0
-20 -241 247 0
-20 -247 243 241 0
-21 -247 243 0
-21 247 -243 0
-22 -243 247 0
-22 -242 247 0
-22 -247 243 242 0
-23 -247 243 0
-23 247 -243 0
-24 -247 243 0
-24 -247 244 0
-24 247 -243 -244 0
-28 -247 243 0
-28 247 -243 0
-19 -248 244 0
-19 248 -244 0
-20 -248 244 0
-20 248 -244 0
-21 -244 248 0
-21 -241 248 0
-21 -248 244 241 0
-22 -248 244 0
-22 248 -244 0
-23 -244 248 0
-23 -242 248 0
-23 -248 244 242 0
-24 -244 248 0
-24 -243 248 0
-24 -248 244 243 0
-28 -248 244 0
-28 248 -244 0
-45 46 0
-46 47 0
-47 48 0
-65 66 0
-66 67 0
-67 68 0
-85 86 0
-86 87 0
-87 88 0
-105 106 0
-106 107 0
-107 108 0
-125 126 0
-126 127 0
-127 128 0
-145 146 0
-146 147 0
-147 148 0
-165 166 0
-166 167 0
-167 168 0
-185 186 0
-186 187 0
-187 188 0
-205 206 0
-206 207 0
-207 208 0
-225 226 0
-226 227 0
-227 228 0
-245 246 0
-246 247 0
-247 248 0
