p cnf 1258 27819
1 2 3 4 5 6 7 8 9 10 81 0
-1 -2 0
-1 -3 0
-1 -4 0
-1 -5 0
-1 -6 0
-1 -7 0
-1 -8 0
-1 -9 0
-1 -10 0
-1 -81 0
-2 -3 0
-2 -4 0
-2 -5 0
-2 -6 0
-2 -7 0
-2 -8 0
-2 -9 0
-2 -10 0
-2 -81 0
-3 -4 0
-3 -5 0
-3 -6 0
-3 -7 0
-3 -8 0
-3 -9 0
-3 -10 0
-3 -81 0
-4 -5 0
-4 -6 0
-4 -7 0
-4 -8 0
-4 -9 0
-4 -10 0
-4 -81 0
-5 -6 0
-5 -7 0
-5 -8 0
-5 -9 0
-5 -10 0
-5 -81 0
-6 -7 0
-6 -8 0
-6 -9 0
-6 -10 0
-6 -81 0
-7 -8 0
-7 -9 0
-7 -10 0
-7 -81 0
-8 -9 0
-8 -10 0
-8 -81 0
-9 -10 0
-9 -81 0
-10 -81 0
11 12 13 14 15 16 17 18 19 20 82 0
-11 -12 0
-11 -13 0
-11 -14 0
-11 -15 0
-11 -16 0
-11 -17 0
-11 -18 0
-11 -19 0
-11 -20 0
-11 -82 0
-12 -13 0
-12 -14 0
-12 -15 0
-12 -16 0
-12 -17 0
-12 -18 0
-12 -19 0
-12 -20 0
-12 -82 0
-13 -14 0
-13 -15 0
-13 -16 0
-13 -17 0
-13 -18 0
-13 -19 0
-13 -20 0
-13 -82 0
-14 -15 0
-14 -16 0
-14 -17 0
-14 -18 0
-14 -19 0
-14 -20 0
-14 -82 0
-15 -16 0
-15 -17 0
-15 -18 0
-15 -19 0
-15 -20 0
-15 -82 0
-16 -17 0
-16 -18 0
-16 -19 0
-16 -20 0
-16 -82 0
-17 -18 0
-17 -19 0
-17 -20 0
-17 -82 0
-18 -19 0
-18 -20 0
-18 -82 0
-19 -20 0
-19 -82 0
-20 -82 0
21 22 23 24 25 26 27 28 29 30 83 0
-21 -22 0
-21 -23 0
-21 -24 0
-21 -25 0
-21 -26 0
-21 -27 0
-21 -28 0
-21 -29 0
-21 -30 0
-21 -83 0
-22 -23 0
-22 -24 0
-22 -25 0
-22 -26 0
-22 -27 0
-22 -28 0
-22 -29 0
-22 -30 0
-22 -83 0
-23 -24 0
-23 -25 0
-23 -26 0
-23 -27 0
-23 -28 0
-23 -29 0
-23 -30 0
-23 -83 0
-24 -25 0
-24 -26 0
-24 -27 0
-24 -28 0
-24 -29 0
-24 -30 0
-24 -83 0
-25 -26 0
-25 -27 0
-25 -28 0
-25 -29 0
-25 -30 0
-25 -83 0
-26 -27 0
-26 -28 0
-26 -29 0
-26 -30 0
-26 -83 0
-27 -28 0
-27 -29 0
-27 -30 0
-27 -83 0
-28 -29 0
-28 -30 0
-28 -83 0
-29 -30 0
-29 -83 0
-30 -83 0
31 32 33 34 35 36 37 38 39 40 84 0
-31 -32 0
-31 -33 0
-31 -34 0
-31 -35 0
-31 -36 0
-31 -37 0
-31 -38 0
-31 -39 0
-31 -40 0
-31 -84 0
-32 -33 0
-32 -34 0
-32 -35 0
-32 -36 0
-32 -37 0
-32 -38 0
-32 -39 0
-32 -40 0
-32 -84 0
-33 -34 0
-33 -35 0
-33 -36 0
-33 -37 0
-33 -38 0
-33 -39 0
-33 -40 0
-33 -84 0
-34 -35 0
-34 -36 0
-34 -37 0
-34 -38 0
-34 -39 0
-34 -40 0
-34 -84 0
-35 -36 0
-35 -37 0
-35 -38 0
-35 -39 0
-35 -40 0
-35 -84 0
-36 -37 0
-36 -38 0
-36 -39 0
-36 -40 0
-36 -84 0
-37 -38 0
-37 -39 0
-37 -40 0
-37 -84 0
-38 -39 0
-38 -40 0
-38 -84 0
-39 -40 0
-39 -84 0
-40 -84 0
41 42 43 44 45 46 47 48 49 50 85 0
-41 -42 0
-41 -43 0
-41 -44 0
-41 -45 0
-41 -46 0
-41 -47 0
-41 -48 0
-41 -49 0
-41 -50 0
-41 -85 0
-42 -43 0
-42 -44 0
-42 -45 0
-42 -46 0
-42 -47 0
-42 -48 0
-42 -49 0
-42 -50 0
-42 -85 0
-43 -44 0
-43 -45 0
-43 -46 0
-43 -47 0
-43 -48 0
-43 -49 0
-43 -50 0
-43 -85 0
-44 -45 0
-44 -46 0
-44 -47 0
-44 -48 0
-44 -49 0
-44 -50 0
-44 -85 0
-45 -46 0
-45 -47 0
-45 -48 0
-45 -49 0
-45 -50 0
-45 -85 0
-46 -47 0
-46 -48 0
-46 -49 0
-46 -50 0
-46 -85 0
-47 -48 0
-47 -49 0
-47 -50 0
-47 -85 0
-48 -49 0
-48 -50 0
-48 -85 0
-49 -50 0
-49 -85 0
-50 -85 0
51 52 53 54 55 56 57 58 59 60 86 0
-51 -52 0
-51 -53 0
-51 -54 0
-51 -55 0
-51 -56 0
-51 -57 0
-51 -58 0
-51 -59 0
-51 -60 0
-51 -86 0
-52 -53 0
-52 -54 0
-52 -55 0
-52 -56 0
-52 -57 0
-52 -58 0
-52 -59 0
-52 -60 0
-52 -86 0
-53 -54 0
-53 -55 0
-53 -56 0
-53 -57 0
-53 -58 0
-53 -59 0
-53 -60 0
-53 -86 0
-54 -55 0
-54 -56 0
-54 -57 0
-54 -58 0
-54 -59 0
-54 -60 0
-54 -86 0
-55 -56 0
-55 -57 0
-55 -58 0
-55 -59 0
-55 -60 0
-55 -86 0
-56 -57 0
-56 -58 0
-56 -59 0
-56 -60 0
-56 -86 0
-57 -58 0
-57 -59 0
-57 -60 0
-57 -86 0
-58 -59 0
-58 -60 0
-58 -86 0
-59 -60 0
-59 -86 0
-60 -86 0
61 62 63 64 65 66 67 68 69 70 87 0
-61 -62 0
-61 -63 0
-61 -64 0
-61 -65 0
-61 -66 0
-61 -67 0
-61 -68 0
-61 -69 0
-61 -70 0
-61 -87 0
-62 -63 0
-62 -64 0
-62 -65 0
-62 -66 0
-62 -67 0
-62 -68 0
-62 -69 0
-62 -70 0
-62 -87 0
-63 -64 0
-63 -65 0
-63 -66 0
-63 -67 0
-63 -68 0
-63 -69 0
-63 -70 0
-63 -87 0
-64 -65 0
-64 -66 0
-64 -67 0
-64 -68 0
-64 -69 0
-64 -70 0
-64 -87 0
-65 -66 0
-65 -67 0
-65 -68 0
-65 -69 0
-65 -70 0
-65 -87 0
-66 -67 0
-66 -68 0
-66 -69 0
-66 -70 0
-66 -87 0
-67 -68 0
-67 -69 0
-67 -70 0
-67 -87 0
-68 -69 0
-68 -70 0
-68 -87 0
-69 -70 0
-69 -87 0
-70 -87 0
71 72 73 74 75 76 77 78 79 80 88 0
-71 -72 0
-71 -73 0
-71 -74 0
-71 -75 0
-71 -76 0
-71 -77 0
-71 -78 0
-71 -79 0
-71 -80 0
-71 -88 0
-72 -73 0
-72 -74 0
-72 -75 0
-72 -76 0
-72 -77 0
-72 -78 0
-72 -79 0
-72 -80 0
-72 -88 0
-73 -74 0
-73 -75 0
-73 -76 0
-73 -77 0
-73 -78 0
-73 -79 0
-73 -80 0
-73 -88 0
-74 -75 0
-74 -76 0
-74 -77 0
-74 -78 0
-74 -79 0
-74 -80 0
-74 -88 0
-75 -76 0
-75 -77 0
-75 -78 0
-75 -79 0
-75 -80 0
-75 -88 0
-76 -77 0
-76 -78 0
-76 -79 0
-76 -80 0
-76 -88 0
-77 -78 0
-77 -79 0
-77 -80 0
-77 -88 0
-78 -79 0
-78 -80 0
-78 -88 0
-79 -80 0
-79 -88 0
-80 -88 0
-1 -11 0
-2 -12 0
-3 -13 0
-4 -14 0
-5 -15 0
-6 -16 0
-7 -17 0
-8 -18 0
-9 -19 0
-10 -20 0
-11 -21 0
-12 -22 0
-13 -23 0
-14 -24 0
-15 -25 0
-16 -26 0
-17 -27 0
-18 -28 0
-19 -29 0
-20 -30 0
-21 -31 0
-22 -32 0
-23 -33 0
-24 -34 0
-25 -35 0
-26 -36 0
-27 -37 0
-28 -38 0
-29 -39 0
-30 -40 0
-31 -41 0
-32 -42 0
-33 -43 0
-34 -44 0
-35 -45 0
-36 -46 0
-37 -47 0
-38 -48 0
-39 -49 0
-40 -50 0
-41 -51 0
-42 -52 0
-43 -53 0
-44 -54 0
-45 -55 0
-46 -56 0
-47 -57 0
-48 -58 0
-49 -59 0
-50 -60 0
-51 -61 0
-52 -62 0
-53 -63 0
-54 -64 0
-55 -65 0
-56 -66 0
-57 -67 0
-58 -68 0
-59 -69 0
-60 -70 0
-61 -71 0
-62 -72 0
-63 -73 0
-64 -74 0
-65 -75 0
-66 -76 0
-67 -77 0
-68 -78 0
-69 -79 0
-70 -80 0
-5 -13 0
-5 -14 0
-6 -12 0
-6 -14 0
-7 -12 0
-7 -13 0
-8 -11 0
-8 -14 0
-8 -17 0
-9 -11 0
-9 -13 0
-9 -16 0
-10 -11 0
-10 -12 0
-10 -15 0
-15 -23 0
-15 -24 0
-16 -22 0
-16 -24 0
-17 -22 0
-17 -23 0
-18 -21 0
-18 -24 0
-18 -27 0
-19 -21 0
-19 -23 0
-19 -26 0
-20 -21 0
-20 -22 0
-20 -25 0
-25 -33 0
-25 -34 0
-26 -32 0
-26 -34 0
-27 -32 0
-27 -33 0
-28 -31 0
-28 -34 0
-28 -37 0
-29 -31 0
-29 -33 0
-29 -36 0
-30 -31 0
-30 -32 0
-30 -35 0
-35 -43 0
-35 -44 0
-36 -42 0
-36 -44 0
-37 -42 0
-37 -43 0
-38 -41 0
-38 -44 0
-38 -47 0
-39 -41 0
-39 -43 0
-39 -46 0
-40 -41 0
-40 -42 0
-40 -45 0
-45 -53 0
-45 -54 0
-46 -52 0
-46 -54 0
-47 -52 0
-47 -53 0
-48 -51 0
-48 -54 0
-48 -57 0
-49 -51 0
-49 -53 0
-49 -56 0
-50 -51 0
-50 -52 0
-50 -55 0
-55 -63 0
-55 -64 0
-56 -62 0
-56 -64 0
-57 -62 0
-57 -63 0
-58 -61 0
-58 -64 0
-58 -67 0
-59 -61 0
-59 -63 0
-59 -66 0
-60 -61 0
-60 -62 0
-60 -65 0
-65 -73 0
-65 -74 0
-66 -72 0
-66 -74 0
-67 -72 0
-67 -73 0
-68 -71 0
-68 -74 0
-68 -77 0
-69 -71 0
-69 -73 0
-69 -76 0
-70 -71 0
-70 -72 0
-70 -75 0
-89 0
-1 -94 89 0
-1 -94 90 0
-1 94 -89 -90 0
-2 -94 89 0
-2 -94 91 0
-2 94 -89 -91 0
-3 -94 89 0
-3 -94 92 0
-3 94 -89 -92 0
-4 -94 89 0
-4 -94 93 0
-4 94 -89 -93 0
-5 -94 89 0
-5 94 -89 0
-6 -94 89 0
-6 94 -89 0
-7 -94 89 0
-7 94 -89 0
-8 -94 89 0
-8 94 -89 0
-9 -94 89 0
-9 94 -89 0
-10 -94 89 0
-10 94 -89 0
-81 -94 89 0
-81 94 -89 0
-90 0
-1 -90 95 0
-1 -89 95 0
-1 -95 90 89 0
-2 -95 90 0
-2 95 -90 0
-3 -95 90 0
-3 95 -90 0
-4 -95 90 0
-4 95 -90 0
-5 -95 90 0
-5 -95 91 0
-5 95 -90 -91 0
-6 -95 90 0
-6 -95 92 0
-6 95 -90 -92 0
-7 -95 90 0
-7 -95 93 0
-7 95 -90 -93 0
-8 -95 90 0
-8 95 -90 0
-9 -95 90 0
-9 95 -90 0
-10 -95 90 0
-10 95 -90 0
-81 -95 90 0
-81 95 -90 0
-91 0
-1 -96 91 0
-1 96 -91 0
-2 -91 96 0
-2 -89 96 0
-2 -96 91 89 0
-3 -96 91 0
-3 96 -91 0
-4 -96 91 0
-4 96 -91 0
-5 -91 96 0
-5 -90 96 0
-5 -96 91 90 0
-6 -96 91 0
-6 96 -91 0
-7 -96 91 0
-7 96 -91 0
-8 -96 91 0
-8 -96 92 0
-8 96 -91 -92 0
-9 -96 91 0
-9 -96 93 0
-9 96 -91 -93 0
-10 -96 91 0
-10 96 -91 0
-81 -96 91 0
-81 96 -91 0
92 0
-1 -97 92 0
-1 97 -92 0
-2 -97 92 0
-2 97 -92 0
-3 -92 97 0
-3 -89 97 0
-3 -97 92 89 0
-4 -97 92 0
-4 97 -92 0
-5 -97 92 0
-5 97 -92 0
-6 -92 97 0
-6 -90 97 0
-6 -97 92 90 0
-7 -97 92 0
-7 97 -92 0
-8 -92 97 0
-8 -91 97 0
-8 -97 92 91 0
-9 -97 92 0
-9 97 -92 0
-10 -97 92 0
-10 -97 93 0
-10 97 -92 -93 0
-81 -97 92 0
-81 97 -92 0
-93 0
-1 -98 93 0
-1 98 -93 0
-2 -98 93 0
-2 98 -93 0
-3 -98 93 0
-3 98 -93 0
-4 -93 98 0
-4 -89 98 0
-4 -98 93 89 0
-5 -98 93 0
-5 98 -93 0
-6 -98 93 0
-6 98 -93 0
-7 -93 98 0
-7 -90 98 0
-7 -98 93 90 0
-8 -98 93 0
-8 98 -93 0
-9 -93 98 0
-9 -91 98 0
-9 -98 93 91 0
-10 -93 98 0
-10 -92 98 0
-10 -98 93 92 0
-81 -98 93 0
-81 98 -93 0
-11 -99 94 0
-11 -99 95 0
-11 99 -94 -95 0
-12 -99 94 0
-12 -99 96 0
-12 99 -94 -96 0
-13 -99 94 0
-13 -99 97 0
-13 99 -94 -97 0
-14 -99 94 0
-14 -99 98 0
-14 99 -94 -98 0
-15 -99 94 0
-15 99 -94 0
-16 -99 94 0
-16 99 -94 0
-17 -99 94 0
-17 99 -94 0
-18 -99 94 0
-18 99 -94 0
-19 -99 94 0
-19 99 -94 0
-20 -99 94 0
-20 99 -94 0
-82 -99 94 0
-82 99 -94 0
-11 -95 100 0
-11 -94 100 0
-11 -100 95 94 0
-12 -100 95 0
-12 100 -95 0
-13 -100 95 0
-13 100 -95 0
-14 -100 95 0
-14 100 -95 0
-15 -100 95 0
-15 -100 96 0
-15 100 -95 -96 0
-16 -100 95 0
-16 -100 97 0
-16 100 -95 -97 0
-17 -100 95 0
-17 -100 98 0
-17 100 -95 -98 0
-18 -100 95 0
-18 100 -95 0
-19 -100 95 0
-19 100 -95 0
-20 -100 95 0
-20 100 -95 0
-82 -100 95 0
-82 100 -95 0
-11 -101 96 0
-11 101 -96 0
-12 -96 101 0
-12 -94 101 0
-12 -101 96 94 0
-13 -101 96 0
-13 101 -96 0
-14 -101 96 0
-14 101 -96 0
-15 -96 101 0
-15 -95 101 0
-15 -101 96 95 0
-16 -101 96 0
-16 101 -96 0
-17 -101 96 0
-17 101 -96 0
-18 -101 96 0
-18 -101 97 0
-18 101 -96 -97 0
-19 -101 96 0
-19 -101 98 0
-19 101 -96 -98 0
-20 -101 96 0
-20 101 -96 0
-82 -101 96 0
-82 101 -96 0
-11 -102 97 0
-11 102 -97 0
-12 -102 97 0
-12 102 -97 0
-13 -97 102 0
-13 -94 102 0
-13 -102 97 94 0
-14 -102 97 0
-14 102 -97 0
-15 -102 97 0
-15 102 -97 0
-16 -97 102 0
-16 -95 102 0
-16 -102 97 95 0
-17 -102 97 0
-17 102 -97 0
-18 -97 102 0
-18 -96 102 0
-18 -102 97 96 0
-19 -102 97 0
-19 102 -97 0
-20 -102 97 0
-20 -102 98 0
-20 102 -97 -98 0
-82 -102 97 0
-82 102 -97 0
-11 -103 98 0
-11 103 -98 0
-12 -103 98 0
-12 103 -98 0
-13 -103 98 0
-13 103 -98 0
-14 -98 103 0
-14 -94 103 0
-14 -103 98 94 0
-15 -103 98 0
-15 103 -98 0
-16 -103 98 0
-16 103 -98 0
-17 -98 103 0
-17 -95 103 0
-17 -103 98 95 0
-18 -103 98 0
-18 103 -98 0
-19 -98 103 0
-19 -96 103 0
-19 -103 98 96 0
-20 -98 103 0
-20 -97 103 0
-20 -103 98 97 0
-82 -103 98 0
-82 103 -98 0
-21 -104 99 0
-21 -104 100 0
-21 104 -99 -100 0
-22 -104 99 0
-22 -104 101 0
-22 104 -99 -101 0
-23 -104 99 0
-23 -104 102 0
-23 104 -99 -102 0
-24 -104 99 0
-24 -104 103 0
-24 104 -99 -103 0
-25 -104 99 0
-25 104 -99 0
-26 -104 99 0
-26 104 -99 0
-27 -104 99 0
-27 104 -99 0
-28 -104 99 0
-28 104 -99 0
-29 -104 99 0
-29 104 -99 0
-30 -104 99 0
-30 104 -99 0
-83 -104 99 0
-83 104 -99 0
-21 -100 105 0
-21 -99 105 0
-21 -105 100 99 0
-22 -105 100 0
-22 105 -100 0
-23 -105 100 0
-23 105 -100 0
-24 -105 100 0
-24 105 -100 0
-25 -105 100 0
-25 -105 101 0
-25 105 -100 -101 0
-26 -105 100 0
-26 -105 102 0
-26 105 -100 -102 0
-27 -105 100 0
-27 -105 103 0
-27 105 -100 -103 0
-28 -105 100 0
-28 105 -100 0
-29 -105 100 0
-29 105 -100 0
-30 -105 100 0
-30 105 -100 0
-83 -105 100 0
-83 105 -100 0
-21 -106 101 0
-21 106 -101 0
-22 -101 106 0
-22 -99 106 0
-22 -106 101 99 0
-23 -106 101 0
-23 106 -101 0
-24 -106 101 0
-24 106 -101 0
-25 -101 106 0
-25 -100 106 0
-25 -106 101 100 0
-26 -106 101 0
-26 106 -101 0
-27 -106 101 0
-27 106 -101 0
-28 -106 101 0
-28 -106 102 0
-28 106 -101 -102 0
-29 -106 101 0
-29 -106 103 0
-29 106 -101 -103 0
-30 -106 101 0
-30 106 -101 0
-83 -106 101 0
-83 106 -101 0
-21 -107 102 0
-21 107 -102 0
-22 -107 102 0
-22 107 -102 0
-23 -102 107 0
-23 -99 107 0
-23 -107 102 99 0
-24 -107 102 0
-24 107 -102 0
-25 -107 102 0
-25 107 -102 0
-26 -102 107 0
-26 -100 107 0
-26 -107 102 100 0
-27 -107 102 0
-27 107 -102 0
-28 -102 107 0
-28 -101 107 0
-28 -107 102 101 0
-29 -107 102 0
-29 107 -102 0
-30 -107 102 0
-30 -107 103 0
-30 107 -102 -103 0
-83 -107 102 0
-83 107 -102 0
-21 -108 103 0
-21 108 -103 0
-22 -108 103 0
-22 108 -103 0
-23 -108 103 0
-23 108 -103 0
-24 -103 108 0
-24 -99 108 0
-24 -108 103 99 0
-25 -108 103 0
-25 108 -103 0
-26 -108 103 0
-26 108 -103 0
-27 -103 108 0
-27 -100 108 0
-27 -108 103 100 0
-28 -108 103 0
-28 108 -103 0
-29 -103 108 0
-29 -101 108 0
-29 -108 103 101 0
-30 -103 108 0
-30 -102 108 0
-30 -108 103 102 0
-83 -108 103 0
-83 108 -103 0
-31 -109 104 0
-31 -109 105 0
-31 109 -104 -105 0
-32 -109 104 0
-32 -109 106 0
-32 109 -104 -106 0
-33 -109 104 0
-33 -109 107 0
-33 109 -104 -107 0
-34 -109 104 0
-34 -109 108 0
-34 109 -104 -108 0
-35 -109 104 0
-35 109 -104 0
-36 -109 104 0
-36 109 -104 0
-37 -109 104 0
-37 109 -104 0
-38 -109 104 0
-38 109 -104 0
-39 -109 104 0
-39 109 -104 0
-40 -109 104 0
-40 109 -104 0
-84 -109 104 0
-84 109 -104 0
-31 -105 110 0
-31 -104 110 0
-31 -110 105 104 0
-32 -110 105 0
-32 110 -105 0
-33 -110 105 0
-33 110 -105 0
-34 -110 105 0
-34 110 -105 0
-35 -110 105 0
-35 -110 106 0
-35 110 -105 -106 0
-36 -110 105 0
-36 -110 107 0
-36 110 -105 -107 0
-37 -110 105 0
-37 -110 108 0
-37 110 -105 -108 0
-38 -110 105 0
-38 110 -105 0
-39 -110 105 0
-39 110 -105 0
-40 -110 105 0
-40 110 -105 0
-84 -110 105 0
-84 110 -105 0
-31 -111 106 0
-31 111 -106 0
-32 -106 111 0
-32 -104 111 0
-32 -111 106 104 0
-33 -111 106 0
-33 111 -106 0
-34 -111 106 0
-34 111 -106 0
-35 -106 111 0
-35 -105 111 0
-35 -111 106 105 0
-36 -111 106 0
-36 111 -106 0
-37 -111 106 0
-37 111 -106 0
-38 -111 106 0
-38 -111 107 0
-38 111 -106 -107 0
-39 -111 106 0
-39 -111 108 0
-39 111 -106 -108 0
-40 -111 106 0
-40 111 -106 0
-84 -111 106 0
-84 111 -106 0
-31 -112 107 0
-31 112 -107 0
-32 -112 107 0
-32 112 -107 0
-33 -107 112 0
-33 -104 112 0
-33 -112 107 104 0
-34 -112 107 0
-34 112 -107 0
-35 -112 107 0
-35 112 -107 0
-36 -107 112 0
-36 -105 112 0
-36 -112 107 105 0
-37 -112 107 0
-37 112 -107 0
-38 -107 112 0
-38 -106 112 0
-38 -112 107 106 0
-39 -112 107 0
-39 112 -107 0
-40 -112 107 0
-40 -112 108 0
-40 112 -107 -108 0
-84 -112 107 0
-84 112 -107 0
-31 -113 108 0
-31 113 -108 0
-32 -113 108 0
-32 113 -108 0
-33 -113 108 0
-33 113 -108 0
-34 -108 113 0
-34 -104 113 0
-34 -113 108 104 0
-35 -113 108 0
-35 113 -108 0
-36 -113 108 0
-36 113 -108 0
-37 -108 113 0
-37 -105 113 0
-37 -113 108 105 0
-38 -113 108 0
-38 113 -108 0
-39 -108 113 0
-39 -106 113 0
-39 -113 108 106 0
-40 -108 113 0
-40 -107 113 0
-40 -113 108 107 0
-84 -113 108 0
-84 113 -108 0
-41 -114 109 0
-41 -114 110 0
-41 114 -109 -110 0
-42 -114 109 0
-42 -114 111 0
-42 114 -109 -111 0
-43 -114 109 0
-43 -114 112 0
-43 114 -109 -112 0
-44 -114 109 0
-44 -114 113 0
-44 114 -109 -113 0
-45 -114 109 0
-45 114 -109 0
-46 -114 109 0
-46 114 -109 0
-47 -114 109 0
-47 114 -109 0
-48 -114 109 0
-48 114 -109 0
-49 -114 109 0
-49 114 -109 0
-50 -114 109 0
-50 114 -109 0
-85 -114 109 0
-85 114 -109 0
-41 -110 115 0
-41 -109 115 0
-41 -115 110 109 0
-42 -115 110 0
-42 115 -110 0
-43 -115 110 0
-43 115 -110 0
-44 -115 110 0
-44 115 -110 0
-45 -115 110 0
-45 -115 111 0
-45 115 -110 -111 0
-46 -115 110 0
-46 -115 112 0
-46 115 -110 -112 0
-47 -115 110 0
-47 -115 113 0
-47 115 -110 -113 0
-48 -115 110 0
-48 115 -110 0
-49 -115 110 0
-49 115 -110 0
-50 -115 110 0
-50 115 -110 0
-85 -115 110 0
-85 115 -110 0
-41 -116 111 0
-41 116 -111 0
-42 -111 116 0
-42 -109 116 0
-42 -116 111 109 0
-43 -116 111 0
-43 116 -111 0
-44 -116 111 0
-44 116 -111 0
-45 -111 116 0
-45 -110 116 0
-45 -116 111 110 0
-46 -116 111 0
-46 116 -111 0
-47 -116 111 0
-47 116 -111 0
-48 -116 111 0
-48 -116 112 0
-48 116 -111 -112 0
-49 -116 111 0
-49 -116 113 0
-49 116 -111 -113 0
-50 -116 111 0
-50 116 -111 0
-85 -116 111 0
-85 116 -111 0
-41 -117 112 0
-41 117 -112 0
-42 -117 112 0
-42 117 -112 0
-43 -112 117 0
-43 -109 117 0
-43 -117 112 109 0
-44 -117 112 0
-44 117 -112 0
-45 -117 112 0
-45 117 -112 0
-46 -112 117 0
-46 -110 117 0
-46 -117 112 110 0
-47 -117 112 0
-47 117 -112 0
-48 -112 117 0
-48 -111 117 0
-48 -117 112 111 0
-49 -117 112 0
-49 117 -112 0
-50 -117 112 0
-50 -117 113 0
-50 117 -112 -113 0
-85 -117 112 0
-85 117 -112 0
-41 -118 113 0
-41 118 -113 0
-42 -118 113 0
-42 118 -113 0
-43 -118 113 0
-43 118 -113 0
-44 -113 118 0
-44 -109 118 0
-44 -118 113 109 0
-45 -118 113 0
-45 118 -113 0
-46 -118 113 0
-46 118 -113 0
-47 -113 118 0
-47 -110 118 0
-47 -118 113 110 0
-48 -118 113 0
-48 118 -113 0
-49 -113 118 0
-49 -111 118 0
-49 -118 113 111 0
-50 -113 118 0
-50 -112 118 0
-50 -118 113 112 0
-85 -118 113 0
-85 118 -113 0
-51 -119 114 0
-51 -119 115 0
-51 119 -114 -115 0
-52 -119 114 0
-52 -119 116 0
-52 119 -114 -116 0
-53 -119 114 0
-53 -119 117 0
-53 119 -114 -117 0
-54 -119 114 0
-54 -119 118 0
-54 119 -114 -118 0
-55 -119 114 0
-55 119 -114 0
-56 -119 114 0
-56 119 -114 0
-57 -119 114 0
-57 119 -114 0
-58 -119 114 0
-58 119 -114 0
-59 -119 114 0
-59 119 -114 0
-60 -119 114 0
-60 119 -114 0
-86 -119 114 0
-86 119 -114 0
-51 -115 120 0
-51 -114 120 0
-51 -120 115 114 0
-52 -120 115 0
-52 120 -115 0
-53 -120 115 0
-53 120 -115 0
-54 -120 115 0
-54 120 -115 0
-55 -120 115 0
-55 -120 116 0
-55 120 -115 -116 0
-56 -120 115 0
-56 -120 117 0
-56 120 -115 -117 0
-57 -120 115 0
-57 -120 118 0
-57 120 -115 -118 0
-58 -120 115 0
-58 120 -115 0
-59 -120 115 0
-59 120 -115 0
-60 -120 115 0
-60 120 -115 0
-86 -120 115 0
-86 120 -115 0
-51 -121 116 0
-51 121 -116 0
-52 -116 121 0
-52 -114 121 0
-52 -121 116 114 0
-53 -121 116 0
-53 121 -116 0
-54 -121 116 0
-54 121 -116 0
-55 -116 121 0
-55 -115 121 0
-55 -121 116 115 0
-56 -121 116 0
-56 121 -116 0
-57 -121 116 0
-57 121 -116 0
-58 -121 116 0
-58 -121 117 0
-58 121 -116 -117 0
-59 -121 116 0
-59 -121 118 0
-59 121 -116 -118 0
-60 -121 116 0
-60 121 -116 0
-86 -121 116 0
-86 121 -116 0
-51 -122 117 0
-51 122 -117 0
-52 -122 117 0
-52 122 -117 0
-53 -117 122 0
-53 -114 122 0
-53 -122 117 114 0
-54 -122 117 0
-54 122 -117 0
-55 -122 117 0
-55 122 -117 0
-56 -117 122 0
-56 -115 122 0
-56 -122 117 115 0
-57 -122 117 0
-57 122 -117 0
-58 -117 122 0
-58 -116 122 0
-58 -122 117 116 0
-59 -122 117 0
-59 122 -117 0
-60 -122 117 0
-60 -122 118 0
-60 122 -117 -118 0
-86 -122 117 0
-86 122 -117 0
-51 -123 118 0
-51 123 -118 0
-52 -123 118 0
-52 123 -118 0
-53 -123 118 0
-53 123 -118 0
-54 -118 123 0
-54 -114 123 0
-54 -123 118 114 0
-55 -123 118 0
-55 123 -118 0
-56 -123 118 0
-56 123 -118 0
-57 -118 123 0
-57 -115 123 0
-57 -123 118 115 0
-58 -123 118 0
-58 123 -118 0
-59 -118 123 0
-59 -116 123 0
-59 -123 118 116 0
-60 -118 123 0
-60 -117 123 0
-60 -123 118 117 0
-86 -123 118 0
-86 123 -118 0
-61 -124 119 0
-61 -124 120 0
-61 124 -119 -120 0
-62 -124 119 0
-62 -124 121 0
-62 124 -119 -121 0
-63 -124 119 0
-63 -124 122 0
-63 124 -119 -122 0
-64 -124 119 0
-64 -124 123 0
-64 124 -119 -123 0
-65 -124 119 0
-65 124 -119 0
-66 -124 119 0
-66 124 -119 0
-67 -124 119 0
-67 124 -119 0
-68 -124 119 0
-68 124 -119 0
-69 -124 119 0
-69 124 -119 0
-70 -124 119 0
-70 124 -119 0
-87 -124 119 0
-87 124 -119 0
-61 -120 125 0
-61 -119 125 0
-61 -125 120 119 0
-62 -125 120 0
-62 125 -120 0
-63 -125 120 0
-63 125 -120 0
-64 -125 120 0
-64 125 -120 0
-65 -125 120 0
-65 -125 121 0
-65 125 -120 -121 0
-66 -125 120 0
-66 -125 122 0
-66 125 -120 -122 0
-67 -125 120 0
-67 -125 123 0
-67 125 -120 -123 0
-68 -125 120 0
-68 125 -120 0
-69 -125 120 0
-69 125 -120 0
-70 -125 120 0
-70 125 -120 0
-87 -125 120 0
-87 125 -120 0
-61 -126 121 0
-61 126 -121 0
-62 -121 126 0
-62 -119 126 0
-62 -126 121 119 0
-63 -126 121 0
-63 126 -121 0
-64 -126 121 0
-64 126 -121 0
-65 -121 126 0
-65 -120 126 0
-65 -126 121 120 0
-66 -126 121 0
-66 126 -121 0
-67 -126 121 0
-67 126 -121 0
-68 -126 121 0
-68 -126 122 0
-68 126 -121 -122 0
-69 -126 121 0
-69 -126 123 0
-69 126 -121 -123 0
-70 -126 121 0
-70 126 -121 0
-87 -126 121 0
-87 126 -121 0
-61 -127 122 0
-61 127 -122 0
-62 -127 122 0
-62 127 -122 0
-63 -122 127 0
-63 -119 127 0
-63 -127 122 119 0
-64 -127 122 0
-64 127 -122 0
-65 -127 122 0
-65 127 -122 0
-66 -122 127 0
-66 -120 127 0
-66 -127 122 120 0
-67 -127 122 0
-67 127 -122 0
-68 -122 127 0
-68 -121 127 0
-68 -127 122 121 0
-69 -127 122 0
-69 127 -122 0
-70 -127 122 0
-70 -127 123 0
-70 127 -122 -123 0
-87 -127 122 0
-87 127 -122 0
-61 -128 123 0
-61 128 -123 0
-62 -128 123 0
-62 128 -123 0
-63 -128 123 0
-63 128 -123 0
-64 -123 128 0
-64 -119 128 0
-64 -128 123 119 0
-65 -128 123 0
-65 128 -123 0
-66 -128 123 0
-66 128 -123 0
-67 -123 128 0
-67 -120 128 0
-67 -128 123 120 0
-68 -128 123 0
-68 128 -123 0
-69 -123 128 0
-69 -121 128 0
-69 -128 123 121 0
-70 -123 128 0
-70 -122 128 0
-70 -128 123 122 0
-87 -128 123 0
-87 128 -123 0
-71 -129 124 0
-71 -129 125 0
-71 129 -124 -125 0
-72 -129 124 0
-72 -129 126 0
-72 129 -124 -126 0
-73 -129 124 0
-73 -129 127 0
-73 129 -124 -127 0
-74 -129 124 0
-74 -129 128 0
-74 129 -124 -128 0
-75 -129 124 0
-75 129 -124 0
-76 -129 124 0
-76 129 -124 0
-77 -129 124 0
-77 129 -124 0
-78 -129 124 0
-78 129 -124 0
-79 -129 124 0
-79 129 -124 0
-80 -129 124 0
-80 129 -124 0
-88 -129 124 0
-88 129 -124 0
-71 -125 130 0
-71 -124 130 0
-71 -130 125 124 0
-72 -130 125 0
-72 130 -125 0
-73 -130 125 0
-73 130 -125 0
-74 -130 125 0
-74 130 -125 0
-75 -130 125 0
-75 -130 126 0
-75 130 -125 -126 0
-76 -130 125 0
-76 -130 127 0
-76 130 -125 -127 0
-77 -130 125 0
-77 -130 128 0
-77 130 -125 -128 0
-78 -130 125 0
-78 130 -125 0
-79 -130 125 0
-79 130 -125 0
-80 -130 125 0
-80 130 -125 0
-88 -130 125 0
-88 130 -125 0
-71 -131 126 0
-71 131 -126 0
-72 -126 131 0
-72 -124 131 0
-72 -131 126 124 0
-73 -131 126 0
-73 131 -126 0
-74 -131 126 0
-74 131 -126 0
-75 -126 131 0
-75 -125 131 0
-75 -131 126 125 0
-76 -131 126 0
-76 131 -126 0
-77 -131 126 0
-77 131 -126 0
-78 -131 126 0
-78 -131 127 0
-78 131 -126 -127 0
-79 -131 126 0
-79 -131 128 0
-79 131 -126 -128 0
-80 -131 126 0
-80 131 -126 0
-88 -131 126 0
-88 131 -126 0
-71 -132 127 0
-71 132 -127 0
-72 -132 127 0
-72 132 -127 0
-73 -127 132 0
-73 -124 132 0
-73 -132 127 124 0
-74 -132 127 0
-74 132 -127 0
-75 -132 127 0
-75 132 -127 0
-76 -127 132 0
-76 -125 132 0
-76 -132 127 125 0
-77 -132 127 0
-77 132 -127 0
-78 -127 132 0
-78 -126 132 0
-78 -132 127 126 0
-79 -132 127 0
-79 132 -127 0
-80 -132 127 0
-80 -132 128 0
-80 132 -127 -128 0
-88 -132 127 0
-88 132 -127 0
-71 -133 128 0
-71 133 -128 0
-72 -133 128 0
-72 133 -128 0
-73 -133 128 0
-73 133 -128 0
-74 -128 133 0
-74 -124 133 0
-74 -133 128 124 0
-75 -133 128 0
-75 133 -128 0
-76 -133 128 0
-76 133 -128 0
-77 -128 133 0
-77 -125 133 0
-77 -133 128 125 0
-78 -133 128 0
-78 133 -128 0
-79 -128 133 0
-79 -126 133 0
-79 -133 128 126 0
-80 -128 133 0
-80 -127 133 0
-80 -133 128 127 0
-88 -133 128 0
-88 133 -128 0
-134 0
-1 -139 134 0
-1 -139 135 0
-1 139 -134 -135 0
-2 -139 134 0
-2 -139 136 0
-2 139 -134 -136 0
-3 -139 134 0
-3 -139 137 0
-3 139 -134 -137 0
-4 -139 134 0
-4 -139 138 0
-4 139 -134 -138 0
-5 -139 134 0
-5 139 -134 0
-6 -139 134 0
-6 139 -134 0
-7 -139 134 0
-7 139 -134 0
-8 -139 134 0
-8 139 -134 0
-9 -139 134 0
-9 139 -134 0
-10 -139 134 0
-10 139 -134 0
-81 -139 134 0
-81 139 -134 0
-135 0
-1 -135 140 0
-1 -134 140 0
-1 -140 135 134 0
-2 -140 135 0
-2 140 -135 0
-3 -140 135 0
-3 140 -135 0
-4 -140 135 0
-4 140 -135 0
-5 -140 135 0
-5 -140 136 0
-5 140 -135 -136 0
-6 -140 135 0
-6 -140 137 0
-6 140 -135 -137 0
-7 -140 135 0
-7 -140 138 0
-7 140 -135 -138 0
-8 -140 135 0
-8 140 -135 0
-9 -140 135 0
-9 140 -135 0
-10 -140 135 0
-10 140 -135 0
-81 -140 135 0
-81 140 -135 0
136 0
-1 -141 136 0
-1 141 -136 0
-2 -136 141 0
-2 -134 141 0
-2 -141 136 134 0
-3 -141 136 0
-3 141 -136 0
-4 -141 136 0
-4 141 -136 0
-5 -136 141 0
-5 -135 141 0
-5 -141 136 135 0
-6 -141 136 0
-6 141 -136 0
-7 -141 136 0
-7 141 -136 0
-8 -141 136 0
-8 -141 137 0
-8 141 -136 -137 0
-9 -141 136 0
-9 -141 138 0
-9 141 -136 -138 0
-10 -141 136 0
-10 141 -136 0
-81 -141 136 0
-81 141 -136 0
-137 0
-1 -142 137 0
-1 142 -137 0
-2 -142 137 0
-2 142 -137 0
-3 -137 142 0
-3 -134 142 0
-3 -142 137 134 0
-4 -142 137 0
-4 142 -137 0
-5 -142 137 0
-5 142 -137 0
-6 -137 142 0
-6 -135 142 0
-6 -142 137 135 0
-7 -142 137 0
-7 142 -137 0
-8 -137 142 0
-8 -136 142 0
-8 -142 137 136 0
-9 -142 137 0
-9 142 -137 0
-10 -142 137 0
-10 -142 138 0
-10 142 -137 -138 0
-81 -142 137 0
-81 142 -137 0
-138 0
-1 -143 138 0
-1 143 -138 0
-2 -143 138 0
-2 143 -138 0
-3 -143 138 0
-3 143 -138 0
-4 -138 143 0
-4 -134 143 0
-4 -143 138 134 0
-5 -143 138 0
-5 143 -138 0
-6 -143 138 0
-6 143 -138 0
-7 -138 143 0
-7 -135 143 0
-7 -143 138 135 0
-8 -143 138 0
-8 143 -138 0
-9 -138 143 0
-9 -136 143 0
-9 -143 138 136 0
-10 -138 143 0
-10 -137 143 0
-10 -143 138 137 0
-81 -143 138 0
-81 143 -138 0
-11 -144 139 0
-11 -144 140 0
-11 144 -139 -140 0
-12 -144 139 0
-12 -144 141 0
-12 144 -139 -141 0
-13 -144 139 0
-13 -144 142 0
-13 144 -139 -142 0
-14 -144 139 0
-14 -144 143 0
-14 144 -139 -143 0
-15 -144 139 0
-15 144 -139 0
-16 -144 139 0
-16 144 -139 0
-17 -144 139 0
-17 144 -139 0
-18 -144 139 0
-18 144 -139 0
-19 -144 139 0
-19 144 -139 0
-20 -144 139 0
-20 144 -139 0
-82 -144 139 0
-82 144 -139 0
-11 -140 145 0
-11 -139 145 0
-11 -145 140 139 0
-12 -145 140 0
-12 145 -140 0
-13 -145 140 0
-13 145 -140 0
-14 -145 140 0
-14 145 -140 0
-15 -145 140 0
-15 -145 141 0
-15 145 -140 -141 0
-16 -145 140 0
-16 -145 142 0
-16 145 -140 -142 0
-17 -145 140 0
-17 -145 143 0
-17 145 -140 -143 0
-18 -145 140 0
-18 145 -140 0
-19 -145 140 0
-19 145 -140 0
-20 -145 140 0
-20 145 -140 0
-82 -145 140 0
-82 145 -140 0
-11 -146 141 0
-11 146 -141 0
-12 -141 146 0
-12 -139 146 0
-12 -146 141 139 0
-13 -146 141 0
-13 146 -141 0
-14 -146 141 0
-14 146 -141 0
-15 -141 146 0
-15 -140 146 0
-15 -146 141 140 0
-16 -146 141 0
-16 146 -141 0
-17 -146 141 0
-17 146 -141 0
-18 -146 141 0
-18 -146 142 0
-18 146 -141 -142 0
-19 -146 141 0
-19 -146 143 0
-19 146 -141 -143 0
-20 -146 141 0
-20 146 -141 0
-82 -146 141 0
-82 146 -141 0
-11 -147 142 0
-11 147 -142 0
-12 -147 142 0
-12 147 -142 0
-13 -142 147 0
-13 -139 147 0
-13 -147 142 139 0
-14 -147 142 0
-14 147 -142 0
-15 -147 142 0
-15 147 -142 0
-16 -142 147 0
-16 -140 147 0
-16 -147 142 140 0
-17 -147 142 0
-17 147 -142 0
-18 -142 147 0
-18 -141 147 0
-18 -147 142 141 0
-19 -147 142 0
-19 147 -142 0
-20 -147 142 0
-20 -147 143 0
-20 147 -142 -143 0
-82 -147 142 0
-82 147 -142 0
-11 -148 143 0
-11 148 -143 0
-12 -148 143 0
-12 148 -143 0
-13 -148 143 0
-13 148 -143 0
-14 -143 148 0
-14 -139 148 0
-14 -148 143 139 0
-15 -148 143 0
-15 148 -143 0
-16 -148 143 0
-16 148 -143 0
-17 -143 148 0
-17 -140 148 0
-17 -148 143 140 0
-18 -148 143 0
-18 148 -143 0
-19 -143 148 0
-19 -141 148 0
-19 -148 143 141 0
-20 -143 148 0
-20 -142 148 0
-20 -148 143 142 0
-82 -148 143 0
-82 148 -143 0
-21 -149 144 0
-21 -149 145 0
-21 149 -144 -145 0
-22 -149 144 0
-22 -149 146 0
-22 149 -144 -146 0
-23 -149 144 0
-23 -149 147 0
-23 149 -144 -147 0
-24 -149 144 0
-24 -149 148 0
-24 149 -144 -148 0
-25 -149 144 0
-25 149 -144 0
-26 -149 144 0
-26 149 -144 0
-27 -149 144 0
-27 149 -144 0
-28 -149 144 0
-28 149 -144 0
-29 -149 144 0
-29 149 -144 0
-30 -149 144 0
-30 149 -144 0
-83 -149 144 0
-83 149 -144 0
-21 -145 150 0
-21 -144 150 0
-21 -150 145 144 0
-22 -150 145 0
-22 150 -145 0
-23 -150 145 0
-23 150 -145 0
-24 -150 145 0
-24 150 -145 0
-25 -150 145 0
-25 -150 146 0
-25 150 -145 -146 0
-26 -150 145 0
-26 -150 147 0
-26 150 -145 -147 0
-27 -150 145 0
-27 -150 148 0
-27 150 -145 -148 0
-28 -150 145 0
-28 150 -145 0
-29 -150 145 0
-29 150 -145 0
-30 -150 145 0
-30 150 -145 0
-83 -150 145 0
-83 150 -145 0
-21 -151 146 0
-21 151 -146 0
-22 -146 151 0
-22 -144 151 0
-22 -151 146 144 0
-23 -151 146 0
-23 151 -146 0
-24 -151 146 0
-24 151 -146 0
-25 -146 151 0
-25 -145 151 0
-25 -151 146 145 0
-26 -151 146 0
-26 151 -146 0
-27 -151 146 0
-27 151 -146 0
-28 -151 146 0
-28 -151 147 0
-28 151 -146 -147 0
-29 -151 146 0
-29 -151 148 0
-29 151 -146 -148 0
-30 -151 146 0
-30 151 -146 0
-83 -151 146 0
-83 151 -146 0
-21 -152 147 0
-21 152 -147 0
-22 -152 147 0
-22 152 -147 0
-23 -147 152 0
-23 -144 152 0
-23 -152 147 144 0
-24 -152 147 0
-24 152 -147 0
-25 -152 147 0
-25 152 -147 0
-26 -147 152 0
-26 -145 152 0
-26 -152 147 145 0
-27 -152 147 0
-27 152 -147 0
-28 -147 152 0
-28 -146 152 0
-28 -152 147 146 0
-29 -152 147 0
-29 152 -147 0
-30 -152 147 0
-30 -152 148 0
-30 152 -147 -148 0
-83 -152 147 0
-83 152 -147 0
-21 -153 148 0
-21 153 -148 0
-22 -153 148 0
-22 153 -148 0
-23 -153 148 0
-23 153 -148 0
-24 -148 153 0
-24 -144 153 0
-24 -153 148 144 0
-25 -153 148 0
-25 153 -148 0
-26 -153 148 0
-26 153 -148 0
-27 -148 153 0
-27 -145 153 0
-27 -153 148 145 0
-28 -153 148 0
-28 153 -148 0
-29 -148 153 0
-29 -146 153 0
-29 -153 148 146 0
-30 -148 153 0
-30 -147 153 0
-30 -153 148 147 0
-83 -153 148 0
-83 153 -148 0
-31 -154 149 0
-31 -154 150 0
-31 154 -149 -150 0
-32 -154 149 0
-32 -154 151 0
-32 154 -149 -151 0
-33 -154 149 0
-33 -154 152 0
-33 154 -149 -152 0
-34 -154 149 0
-34 -154 153 0
-34 154 -149 -153 0
-35 -154 149 0
-35 154 -149 0
-36 -154 149 0
-36 154 -149 0
-37 -154 149 0
-37 154 -149 0
-38 -154 149 0
-38 154 -149 0
-39 -154 149 0
-39 154 -149 0
-40 -154 149 0
-40 154 -149 0
-84 -154 149 0
-84 154 -149 0
-31 -150 155 0
-31 -149 155 0
-31 -155 150 149 0
-32 -155 150 0
-32 155 -150 0
-33 -155 150 0
-33 155 -150 0
-34 -155 150 0
-34 155 -150 0
-35 -155 150 0
-35 -155 151 0
-35 155 -150 -151 0
-36 -155 150 0
-36 -155 152 0
-36 155 -150 -152 0
-37 -155 150 0
-37 -155 153 0
-37 155 -150 -153 0
-38 -155 150 0
-38 155 -150 0
-39 -155 150 0
-39 155 -150 0
-40 -155 150 0
-40 155 -150 0
-84 -155 150 0
-84 155 -150 0
-31 -156 151 0
-31 156 -151 0
-32 -151 156 0
-32 -149 156 0
-32 -156 151 149 0
-33 -156 151 0
-33 156 -151 0
-34 -156 151 0
-34 156 -151 0
-35 -151 156 0
-35 -150 156 0
-35 -156 151 150 0
-36 -156 151 0
-36 156 -151 0
-37 -156 151 0
-37 156 -151 0
-38 -156 151 0
-38 -156 152 0
-38 156 -151 -152 0
-39 -156 151 0
-39 -156 153 0
-39 156 -151 -153 0
-40 -156 151 0
-40 156 -151 0
-84 -156 151 0
-84 156 -151 0
-31 -157 152 0
-31 157 -152 0
-32 -157 152 0
-32 157 -152 0
-33 -152 157 0
-33 -149 157 0
-33 -157 152 149 0
-34 -157 152 0
-34 157 -152 0
-35 -157 152 0
-35 157 -152 0
-36 -152 157 0
-36 -150 157 0
-36 -157 152 150 0
-37 -157 152 0
-37 157 -152 0
-38 -152 157 0
-38 -151 157 0
-38 -157 152 151 0
-39 -157 152 0
-39 157 -152 0
-40 -157 152 0
-40 -157 153 0
-40 157 -152 -153 0
-84 -157 152 0
-84 157 -152 0
-31 -158 153 0
-31 158 -153 0
-32 -158 153 0
-32 158 -153 0
-33 -158 153 0
-33 158 -153 0
-34 -153 158 0
-34 -149 158 0
-34 -158 153 149 0
-35 -158 153 0
-35 158 -153 0
-36 -158 153 0
-36 158 -153 0
-37 -153 158 0
-37 -150 158 0
-37 -158 153 150 0
-38 -158 153 0
-38 158 -153 0
-39 -153 158 0
-39 -151 158 0
-39 -158 153 151 0
-40 -153 158 0
-40 -152 158 0
-40 -158 153 152 0
-84 -158 153 0
-84 158 -153 0
-41 -159 154 0
-41 -159 155 0
-41 159 -154 -155 0
-42 -159 154 0
-42 -159 156 0
-42 159 -154 -156 0
-43 -159 154 0
-43 -159 157 0
-43 159 -154 -157 0
-44 -159 154 0
-44 -159 158 0
-44 159 -154 -158 0
-45 -159 154 0
-45 159 -154 0
-46 -159 154 0
-46 159 -154 0
-47 -159 154 0
-47 159 -154 0
-48 -159 154 0
-48 159 -154 0
-49 -159 154 0
-49 159 -154 0
-50 -159 154 0
-50 159 -154 0
-85 -159 154 0
-85 159 -154 0
-41 -155 160 0
-41 -154 160 0
-41 -160 155 154 0
-42 -160 155 0
-42 160 -155 0
-43 -160 155 0
-43 160 -155 0
-44 -160 155 0
-44 160 -155 0
-45 -160 155 0
-45 -160 156 0
-45 160 -155 -156 0
-46 -160 155 0
-46 -160 157 0
-46 160 -155 -157 0
-47 -160 155 0
-47 -160 158 0
-47 160 -155 -158 0
-48 -160 155 0
-48 160 -155 0
-49 -160 155 0
-49 160 -155 0
-50 -160 155 0
-50 160 -155 0
-85 -160 155 0
-85 160 -155 0
-41 -161 156 0
-41 161 -156 0
-42 -156 161 0
-42 -154 161 0
-42 -161 156 154 0
-43 -161 156 0
-43 161 -156 0
-44 -161 156 0
-44 161 -156 0
-45 -156 161 0
-45 -155 161 0
-45 -161 156 155 0
-46 -161 156 0
-46 161 -156 0
-47 -161 156 0
-47 161 -156 0
-48 -161 156 0
-48 -161 157 0
-48 161 -156 -157 0
-49 -161 156 0
-49 -161 158 0
-49 161 -156 -158 0
-50 -161 156 0
-50 161 -156 0
-85 -161 156 0
-85 161 -156 0
-41 -162 157 0
-41 162 -157 0
-42 -162 157 0
-42 162 -157 0
-43 -157 162 0
-43 -154 162 0
-43 -162 157 154 0
-44 -162 157 0
-44 162 -157 0
-45 -162 157 0
-45 162 -157 0
-46 -157 162 0
-46 -155 162 0
-46 -162 157 155 0
-47 -162 157 0
-47 162 -157 0
-48 -157 162 0
-48 -156 162 0
-48 -162 157 156 0
-49 -162 157 0
-49 162 -157 0
-50 -162 157 0
-50 -162 158 0
-50 162 -157 -158 0
-85 -162 157 0
-85 162 -157 0
-41 -163 158 0
-41 163 -158 0
-42 -163 158 0
-42 163 -158 0
-43 -163 158 0
-43 163 -158 0
-44 -158 163 0
-44 -154 163 0
-44 -163 158 154 0
-45 -163 158 0
-45 163 -158 0
-46 -163 158 0
-46 163 -158 0
-47 -158 163 0
-47 -155 163 0
-47 -163 158 155 0
-48 -163 158 0
-48 163 -158 0
-49 -158 163 0
-49 -156 163 0
-49 -163 158 156 0
-50 -158 163 0
-50 -157 163 0
-50 -163 158 157 0
-85 -163 158 0
-85 163 -158 0
-51 -164 159 0
-51 -164 160 0
-51 164 -159 -160 0
-52 -164 159 0
-52 -164 161 0
-52 164 -159 -161 0
-53 -164 159 0
-53 -164 162 0
-53 164 -159 -162 0
-54 -164 159 0
-54 -164 163 0
-54 164 -159 -163 0
-55 -164 159 0
-55 164 -159 0
-56 -164 159 0
-56 164 -159 0
-57 -164 159 0
-57 164 -159 0
-58 -164 159 0
-58 164 -159 0
-59 -164 159 0
-59 164 -159 0
-60 -164 159 0
-60 164 -159 0
-86 -164 159 0
-86 164 -159 0
-51 -160 165 0
-51 -159 165 0
-51 -165 160 159 0
-52 -165 160 0
-52 165 -160 0
-53 -165 160 0
-53 165 -160 0
-54 -165 160 0
-54 165 -160 0
-55 -165 160 0
-55 -165 161 0
-55 165 -160 -161 0
-56 -165 160 0
-56 -165 162 0
-56 165 -160 -162 0
-57 -165 160 0
-57 -165 163 0
-57 165 -160 -163 0
-58 -165 160 0
-58 165 -160 0
-59 -165 160 0
-59 165 -160 0
-60 -165 160 0
-60 165 -160 0
-86 -165 160 0
-86 165 -160 0
-51 -166 161 0
-51 166 -161 0
-52 -161 166 0
-52 -159 166 0
-52 -166 161 159 0
-53 -166 161 0
-53 166 -161 0
-54 -166 161 0
-54 166 -161 0
-55 -161 166 0
-55 -160 166 0
-55 -166 161 160 0
-56 -166 161 0
-56 166 -161 0
-57 -166 161 0
-57 166 -161 0
-58 -166 161 0
-58 -166 162 0
-58 166 -161 -162 0
-59 -166 161 0
-59 -166 163 0
-59 166 -161 -163 0
-60 -166 161 0
-60 166 -161 0
-86 -166 161 0
-86 166 -161 0
-51 -167 162 0
-51 167 -162 0
-52 -167 162 0
-52 167 -162 0
-53 -162 167 0
-53 -159 167 0
-53 -167 162 159 0
-54 -167 162 0
-54 167 -162 0
-55 -167 162 0
-55 167 -162 0
-56 -162 167 0
-56 -160 167 0
-56 -167 162 160 0
-57 -167 162 0
-57 167 -162 0
-58 -162 167 0
-58 -161 167 0
-58 -167 162 161 0
-59 -167 162 0
-59 167 -162 0
-60 -167 162 0
-60 -167 163 0
-60 167 -162 -163 0
-86 -167 162 0
-86 167 -162 0
-51 -168 163 0
-51 168 -163 0
-52 -168 163 0
-52 168 -163 0
-53 -168 163 0
-53 168 -163 0
-54 -163 168 0
-54 -159 168 0
-54 -168 163 159 0
-55 -168 163 0
-55 168 -163 0
-56 -168 163 0
-56 168 -163 0
-57 -163 168 0
-57 -160 168 0
-57 -168 163 160 0
-58 -168 163 0
-58 168 -163 0
-59 -163 168 0
-59 -161 168 0
-59 -168 163 161 0
-60 -163 168 0
-60 -162 168 0
-60 -168 163 162 0
-86 -168 163 0
-86 168 -163 0
-61 -169 164 0
-61 -169 165 0
-61 169 -164 -165 0
-62 -169 164 0
-62 -169 166 0
-62 169 -164 -166 0
-63 -169 164 0
-63 -169 167 0
-63 169 -164 -167 0
-64 -169 164 0
-64 -169 168 0
-64 169 -164 -168 0
-65 -169 164 0
-65 169 -164 0
-66 -169 164 0
-66 169 -164 0
-67 -169 164 0
-67 169 -164 0
-68 -169 164 0
-68 169 -164 0
-69 -169 164 0
-69 169 -164 0
-70 -169 164 0
-70 169 -164 0
-87 -169 164 0
-87 169 -164 0
-61 -165 170 0
-61 -164 170 0
-61 -170 165 164 0
-62 -170 165 0
-62 170 -165 0
-63 -170 165 0
-63 170 -165 0
-64 -170 165 0
-64 170 -165 0
-65 -170 165 0
-65 -170 166 0
-65 170 -165 -166 0
-66 -170 165 0
-66 -170 167 0
-66 170 -165 -167 0
-67 -170 165 0
-67 -170 168 0
-67 170 -165 -168 0
-68 -170 165 0
-68 170 -165 0
-69 -170 165 0
-69 170 -165 0
-70 -170 165 0
-70 170 -165 0
-87 -170 165 0
-87 170 -165 0
-61 -171 166 0
-61 171 -166 0
-62 -166 171 0
-62 -164 171 0
-62 -171 166 164 0
-63 -171 166 0
-63 171 -166 0
-64 -171 166 0
-64 171 -166 0
-65 -166 171 0
-65 -165 171 0
-65 -171 166 165 0
-66 -171 166 0
-66 171 -166 0
-67 -171 166 0
-67 171 -166 0
-68 -171 166 0
-68 -171 167 0
-68 171 -166 -167 0
-69 -171 166 0
-69 -171 168 0
-69 171 -166 -168 0
-70 -171 166 0
-70 171 -166 0
-87 -171 166 0
-87 171 -166 0
-61 -172 167 0
-61 172 -167 0
-62 -172 167 0
-62 172 -167 0
-63 -167 172 0
-63 -164 172 0
-63 -172 167 164 0
-64 -172 167 0
-64 172 -167 0
-65 -172 167 0
-65 172 -167 0
-66 -167 172 0
-66 -165 172 0
-66 -172 167 165 0
-67 -172 167 0
-67 172 -167 0
-68 -167 172 0
-68 -166 172 0
-68 -172 167 166 0
-69 -172 167 0
-69 172 -167 0
-70 -172 167 0
-70 -172 168 0
-70 172 -167 -168 0
-87 -172 167 0
-87 172 -167 0
-61 -173 168 0
-61 173 -168 0
-62 -173 168 0
-62 173 -168 0
-63 -173 168 0
-63 173 -168 0
-64 -168 173 0
-64 -164 173 0
-64 -173 168 164 0
-65 -173 168 0
-65 173 -168 0
-66 -173 168 0
-66 173 -168 0
-67 -168 173 0
-67 -165 173 0
-67 -173 168 165 0
-68 -173 168 0
-68 173 -168 0
-69 -168 173 0
-69 -166 173 0
-69 -173 168 166 0
-70 -168 173 0
-70 -167 173 0
-70 -173 168 167 0
-87 -173 168 0
-87 173 -168 0
-71 -174 169 0
-71 -174 170 0
-71 174 -169 -170 0
-72 -174 169 0
-72 -174 171 0
-72 174 -169 -171 0
-73 -174 169 0
-73 -174 172 0
-73 174 -169 -172 0
-74 -174 169 0
-74 -174 173 0
-74 174 -169 -173 0
-75 -174 169 0
-75 174 -169 0
-76 -174 169 0
-76 174 -169 0
-77 -174 169 0
-77 174 -169 0
-78 -174 169 0
-78 174 -169 0
-79 -174 169 0
-79 174 -169 0
-80 -174 169 0
-80 174 -169 0
-88 -174 169 0
-88 174 -169 0
-71 -170 175 0
-71 -169 175 0
-71 -175 170 169 0
-72 -175 170 0
-72 175 -170 0
-73 -175 170 0
-73 175 -170 0
-74 -175 170 0
-74 175 -170 0
-75 -175 170 0
-75 -175 171 0
-75 175 -170 -171 0
-76 -175 170 0
-76 -175 172 0
-76 175 -170 -172 0
-77 -175 170 0
-77 -175 173 0
-77 175 -170 -173 0
-78 -175 170 0
-78 175 -170 0
-79 -175 170 0
-79 175 -170 0
-80 -175 170 0
-80 175 -170 0
-88 -175 170 0
-88 175 -170 0
-71 -176 171 0
-71 176 -171 0
-72 -171 176 0
-72 -169 176 0
-72 -176 171 169 0
-73 -176 171 0
-73 176 -171 0
-74 -176 171 0
-74 176 -171 0
-75 -171 176 0
-75 -170 176 0
-75 -176 171 170 0
-76 -176 171 0
-76 176 -171 0
-77 -176 171 0
-77 176 -171 0
-78 -176 171 0
-78 -176 172 0
-78 176 -171 -172 0
-79 -176 171 0
-79 -176 173 0
-79 176 -171 -173 0
-80 -176 171 0
-80 176 -171 0
-88 -176 171 0
-88 176 -171 0
-71 -177 172 0
-71 177 -172 0
-72 -177 172 0
-72 177 -172 0
-73 -172 177 0
-73 -169 177 0
-73 -177 172 169 0
-74 -177 172 0
-74 177 -172 0
-75 -177 172 0
-75 177 -172 0
-76 -172 177 0
-76 -170 177 0
-76 -177 172 170 0
-77 -177 172 0
-77 177 -172 0
-78 -172 177 0
-78 -171 177 0
-78 -177 172 171 0
-79 -177 172 0
-79 177 -172 0
-80 -177 172 0
-80 -177 173 0
-80 177 -172 -173 0
-88 -177 172 0
-88 177 -172 0
-71 -178 173 0
-71 178 -173 0
-72 -178 173 0
-72 178 -173 0
-73 -178 173 0
-73 178 -173 0
-74 -173 178 0
-74 -169 178 0
-74 -178 173 169 0
-75 -178 173 0
-75 178 -173 0
-76 -178 173 0
-76 178 -173 0
-77 -173 178 0
-77 -170 178 0
-77 -178 173 170 0
-78 -178 173 0
-78 178 -173 0
-79 -173 178 0
-79 -171 178 0
-79 -178 173 171 0
-80 -173 178 0
-80 -172 178 0
-80 -178 173 172 0
-88 -178 173 0
-88 178 -173 0
-179 0
-1 -184 179 0
-1 -184 180 0
-1 184 -179 -180 0
-2 -184 179 0
-2 -184 181 0
-2 184 -179 -181 0
-3 -184 179 0
-3 -184 182 0
-3 184 -179 -182 0
-4 -184 179 0
-4 -184 183 0
-4 184 -179 -183 0
-5 -184 179 0
-5 184 -179 0
-6 -184 179 0
-6 184 -179 0
-7 -184 179 0
-7 184 -179 0
-8 -184 179 0
-8 184 -179 0
-9 -184 179 0
-9 184 -179 0
-10 -184 179 0
-10 184 -179 0
-81 -184 179 0
-81 184 -179 0
-180 0
-1 -180 185 0
-1 -179 185 0
-1 -185 180 179 0
-2 -185 180 0
-2 185 -180 0
-3 -185 180 0
-3 185 -180 0
-4 -185 180 0
-4 185 -180 0
-5 -185 180 0
-5 -185 181 0
-5 185 -180 -181 0
-6 -185 180 0
-6 -185 182 0
-6 185 -180 -182 0
-7 -185 180 0
-7 -185 183 0
-7 185 -180 -183 0
-8 -185 180 0
-8 185 -180 0
-9 -185 180 0
-9 185 -180 0
-10 -185 180 0
-10 185 -180 0
-81 -185 180 0
-81 185 -180 0
181 0
-1 -186 181 0
-1 186 -181 0
-2 -181 186 0
-2 -179 186 0
-2 -186 181 179 0
-3 -186 181 0
-3 186 -181 0
-4 -186 181 0
-4 186 -181 0
-5 -181 186 0
-5 -180 186 0
-5 -186 181 180 0
-6 -186 181 0
-6 186 -181 0
-7 -186 181 0
-7 186 -181 0
-8 -186 181 0
-8 -186 182 0
-8 186 -181 -182 0
-9 -186 181 0
-9 -186 183 0
-9 186 -181 -183 0
-10 -186 181 0
-10 186 -181 0
-81 -186 181 0
-81 186 -181 0
-182 0
-1 -187 182 0
-1 187 -182 0
-2 -187 182 0
-2 187 -182 0
-3 -182 187 0
-3 -179 187 0
-3 -187 182 179 0
-4 -187 182 0
-4 187 -182 0
-5 -187 182 0
-5 187 -182 0
-6 -182 187 0
-6 -180 187 0
-6 -187 182 180 0
-7 -187 182 0
-7 187 -182 0
-8 -182 187 0
-8 -181 187 0
-8 -187 182 181 0
-9 -187 182 0
-9 187 -182 0
-10 -187 182 0
-10 -187 183 0
-10 187 -182 -183 0
-81 -187 182 0
-81 187 -182 0
183 0
-1 -188 183 0
-1 188 -183 0
-2 -188 183 0
-2 188 -183 0
-3 -188 183 0
-3 188 -183 0
-4 -183 188 0
-4 -179 188 0
-4 -188 183 179 0
-5 -188 183 0
-5 188 -183 0
-6 -188 183 0
-6 188 -183 0
-7 -183 188 0
-7 -180 188 0
-7 -188 183 180 0
-8 -188 183 0
-8 188 -183 0
-9 -183 188 0
-9 -181 188 0
-9 -188 183 181 0
-10 -183 188 0
-10 -182 188 0
-10 -188 183 182 0
-81 -188 183 0
-81 188 -183 0
-11 -189 184 0
-11 -189 185 0
-11 189 -184 -185 0
-12 -189 184 0
-12 -189 186 0
-12 189 -184 -186 0
-13 -189 184 0
-13 -189 187 0
-13 189 -184 -187 0
-14 -189 184 0
-14 -189 188 0
-14 189 -184 -188 0
-15 -189 184 0
-15 189 -184 0
-16 -189 184 0
-16 189 -184 0
-17 -189 184 0
-17 189 -184 0
-18 -189 184 0
-18 189 -184 0
-19 -189 184 0
-19 189 -184 0
-20 -189 184 0
-20 189 -184 0
-82 -189 184 0
-82 189 -184 0
-11 -185 190 0
-11 -184 190 0
-11 -190 185 184 0
-12 -190 185 0
-12 190 -185 0
-13 -190 185 0
-13 190 -185 0
-14 -190 185 0
-14 190 -185 0
-15 -190 185 0
-15 -190 186 0
-15 190 -185 -186 0
-16 -190 185 0
-16 -190 187 0
-16 190 -185 -187 0
-17 -190 185 0
-17 -190 188 0
-17 190 -185 -188 0
-18 -190 185 0
-18 190 -185 0
-19 -190 185 0
-19 190 -185 0
-20 -190 185 0
-20 190 -185 0
-82 -190 185 0
-82 190 -185 0
-11 -191 186 0
-11 191 -186 0
-12 -186 191 0
-12 -184 191 0
-12 -191 186 184 0
-13 -191 186 0
-13 191 -186 0
-14 -191 186 0
-14 191 -186 0
-15 -186 191 0
-15 -185 191 0
-15 -191 186 185 0
-16 -191 186 0
-16 191 -186 0
-17 -191 186 0
-17 191 -186 0
-18 -191 186 0
-18 -191 187 0
-18 191 -186 -187 0
-19 -191 186 0
-19 -191 188 0
-19 191 -186 -188 0
-20 -191 186 0
-20 191 -186 0
-82 -191 186 0
-82 191 -186 0
-11 -192 187 0
-11 192 -187 0
-12 -192 187 0
-12 192 -187 0
-13 -187 192 0
-13 -184 192 0
-13 -192 187 184 0
-14 -192 187 0
-14 192 -187 0
-15 -192 187 0
-15 192 -187 0
-16 -187 192 0
-16 -185 192 0
-16 -192 187 185 0
-17 -192 187 0
-17 192 -187 0
-18 -187 192 0
-18 -186 192 0
-18 -192 187 186 0
-19 -192 187 0
-19 192 -187 0
-20 -192 187 0
-20 -192 188 0
-20 192 -187 -188 0
-82 -192 187 0
-82 192 -187 0
-11 -193 188 0
-11 193 -188 0
-12 -193 188 0
-12 193 -188 0
-13 -193 188 0
-13 193 -188 0
-14 -188 193 0
-14 -184 193 0
-14 -193 188 184 0
-15 -193 188 0
-15 193 -188 0
-16 -193 188 0
-16 193 -188 0
-17 -188 193 0
-17 -185 193 0
-17 -193 188 185 0
-18 -193 188 0
-18 193 -188 0
-19 -188 193 0
-19 -186 193 0
-19 -193 188 186 0
-20 -188 193 0
-20 -187 193 0
-20 -193 188 187 0
-82 -193 188 0
-82 193 -188 0
-21 -194 189 0
-21 -194 190 0
-21 194 -189 -190 0
-22 -194 189 0
-22 -194 191 0
-22 194 -189 -191 0
-23 -194 189 0
-23 -194 192 0
-23 194 -189 -192 0
-24 -194 189 0
-24 -194 193 0
-24 194 -189 -193 0
-25 -194 189 0
-25 194 -189 0
-26 -194 189 0
-26 194 -189 0
-27 -194 189 0
-27 194 -189 0
-28 -194 189 0
-28 194 -189 0
-29 -194 189 0
-29 194 -189 0
-30 -194 189 0
-30 194 -189 0
-83 -194 189 0
-83 194 -189 0
-21 -190 195 0
-21 -189 195 0
-21 -195 190 189 0
-22 -195 190 0
-22 195 -190 0
-23 -195 190 0
-23 195 -190 0
-24 -195 190 0
-24 195 -190 0
-25 -195 190 0
-25 -195 191 0
-25 195 -190 -191 0
-26 -195 190 0
-26 -195 192 0
-26 195 -190 -192 0
-27 -195 190 0
-27 -195 193 0
-27 195 -190 -193 0
-28 -195 190 0
-28 195 -190 0
-29 -195 190 0
-29 195 -190 0
-30 -195 190 0
-30 195 -190 0
-83 -195 190 0
-83 195 -190 0
-21 -196 191 0
-21 196 -191 0
-22 -191 196 0
-22 -189 196 0
-22 -196 191 189 0
-23 -196 191 0
-23 196 -191 0
-24 -196 191 0
-24 196 -191 0
-25 -191 196 0
-25 -190 196 0
-25 -196 191 190 0
-26 -196 191 0
-26 196 -191 0
-27 -196 191 0
-27 196 -191 0
-28 -196 191 0
-28 -196 192 0
-28 196 -191 -192 0
-29 -196 191 0
-29 -196 193 0
-29 196 -191 -193 0
-30 -196 191 0
-30 196 -191 0
-83 -196 191 0
-83 196 -191 0
-21 -197 192 0
-21 197 -192 0
-22 -197 192 0
-22 197 -192 0
-23 -192 197 0
-23 -189 197 0
-23 -197 192 189 0
-24 -197 192 0
-24 197 -192 0
-25 -197 192 0
-25 197 -192 0
-26 -192 197 0
-26 -190 197 0
-26 -197 192 190 0
-27 -197 192 0
-27 197 -192 0
-28 -192 197 0
-28 -191 197 0
-28 -197 192 191 0
-29 -197 192 0
-29 197 -192 0
-30 -197 192 0
-30 -197 193 0
-30 197 -192 -193 0
-83 -197 192 0
-83 197 -192 0
-21 -198 193 0
-21 198 -193 0
-22 -198 193 0
-22 198 -193 0
-23 -198 193 0
-23 198 -193 0
-24 -193 198 0
-24 -189 198 0
-24 -198 193 189 0
-25 -198 193 0
-25 198 -193 0
-26 -198 193 0
-26 198 -193 0
-27 -193 198 0
-27 -190 198 0
-27 -198 193 190 0
-28 -198 193 0
-28 198 -193 0
-29 -193 198 0
-29 -191 198 0
-29 -198 193 191 0
-30 -193 198 0
-30 -192 198 0
-30 -198 193 192 0
-83 -198 193 0
-83 198 -193 0
-31 -199 194 0
-31 -199 195 0
-31 199 -194 -195 0
-32 -199 194 0
-32 -199 196 0
-32 199 -194 -196 0
-33 -199 194 0
-33 -199 197 0
-33 199 -194 -197 0
-34 -199 194 0
-34 -199 198 0
-34 199 -194 -198 0
-35 -199 194 0
-35 199 -194 0
-36 -199 194 0
-36 199 -194 0
-37 -199 194 0
-37 199 -194 0
-38 -199 194 0
-38 199 -194 0
-39 -199 194 0
-39 199 -194 0
-40 -199 194 0
-40 199 -194 0
-84 -199 194 0
-84 199 -194 0
-31 -195 200 0
-31 -194 200 0
-31 -200 195 194 0
-32 -200 195 0
-32 200 -195 0
-33 -200 195 0
-33 200 -195 0
-34 -200 195 0
-34 200 -195 0
-35 -200 195 0
-35 -200 196 0
-35 200 -195 -196 0
-36 -200 195 0
-36 -200 197 0
-36 200 -195 -197 0
-37 -200 195 0
-37 -200 198 0
-37 200 -195 -198 0
-38 -200 195 0
-38 200 -195 0
-39 -200 195 0
-39 200 -195 0
-40 -200 195 0
-40 200 -195 0
-84 -200 195 0
-84 200 -195 0
-31 -201 196 0
-31 201 -196 0
-32 -196 201 0
-32 -194 201 0
-32 -201 196 194 0
-33 -201 196 0
-33 201 -196 0
-34 -201 196 0
-34 201 -196 0
-35 -196 201 0
-35 -195 201 0
-35 -201 196 195 0
-36 -201 196 0
-36 201 -196 0
-37 -201 196 0
-37 201 -196 0
-38 -201 196 0
-38 -201 197 0
-38 201 -196 -197 0
-39 -201 196 0
-39 -201 198 0
-39 201 -196 -198 0
-40 -201 196 0
-40 201 -196 0
-84 -201 196 0
-84 201 -196 0
-31 -202 197 0
-31 202 -197 0
-32 -202 197 0
-32 202 -197 0
-33 -197 202 0
-33 -194 202 0
-33 -202 197 194 0
-34 -202 197 0
-34 202 -197 0
-35 -202 197 0
-35 202 -197 0
-36 -197 202 0
-36 -195 202 0
-36 -202 197 195 0
-37 -202 197 0
-37 202 -197 0
-38 -197 202 0
-38 -196 202 0
-38 -202 197 196 0
-39 -202 197 0
-39 202 -197 0
-40 -202 197 0
-40 -202 198 0
-40 202 -197 -198 0
-84 -202 197 0
-84 202 -197 0
-31 -203 198 0
-31 203 -198 0
-32 -203 198 0
-32 203 -198 0
-33 -203 198 0
-33 203 -198 0
-34 -198 203 0
-34 -194 203 0
-34 -203 198 194 0
-35 -203 198 0
-35 203 -198 0
-36 -203 198 0
-36 203 -198 0
-37 -198 203 0
-37 -195 203 0
-37 -203 198 195 0
-38 -203 198 0
-38 203 -198 0
-39 -198 203 0
-39 -196 203 0
-39 -203 198 196 0
-40 -198 203 0
-40 -197 203 0
-40 -203 198 197 0
-84 -203 198 0
-84 203 -198 0
-41 -204 199 0
-41 -204 200 0
-41 204 -199 -200 0
-42 -204 199 0
-42 -204 201 0
-42 204 -199 -201 0
-43 -204 199 0
-43 -204 202 0
-43 204 -199 -202 0
-44 -204 199 0
-44 -204 203 0
-44 204 -199 -203 0
-45 -204 199 0
-45 204 -199 0
-46 -204 199 0
-46 204 -199 0
-47 -204 199 0
-47 204 -199 0
-48 -204 199 0
-48 204 -199 0
-49 -204 199 0
-49 204 -199 0
-50 -204 199 0
-50 204 -199 0
-85 -204 199 0
-85 204 -199 0
-41 -200 205 0
-41 -199 205 0
-41 -205 200 199 0
-42 -205 200 0
-42 205 -200 0
-43 -205 200 0
-43 205 -200 0
-44 -205 200 0
-44 205 -200 0
-45 -205 200 0
-45 -205 201 0
-45 205 -200 -201 0
-46 -205 200 0
-46 -205 202 0
-46 205 -200 -202 0
-47 -205 200 0
-47 -205 203 0
-47 205 -200 -203 0
-48 -205 200 0
-48 205 -200 0
-49 -205 200 0
-49 205 -200 0
-50 -205 200 0
-50 205 -200 0
-85 -205 200 0
-85 205 -200 0
-41 -206 201 0
-41 206 -201 0
-42 -201 206 0
-42 -199 206 0
-42 -206 201 199 0
-43 -206 201 0
-43 206 -201 0
-44 -206 201 0
-44 206 -201 0
-45 -201 206 0
-45 -200 206 0
-45 -206 201 200 0
-46 -206 201 0
-46 206 -201 0
-47 -206 201 0
-47 206 -201 0
-48 -206 201 0
-48 -206 202 0
-48 206 -201 -202 0
-49 -206 201 0
-49 -206 203 0
-49 206 -201 -203 0
-50 -206 201 0
-50 206 -201 0
-85 -206 201 0
-85 206 -201 0
-41 -207 202 0
-41 207 -202 0
-42 -207 202 0
-42 207 -202 0
-43 -202 207 0
-43 -199 207 0
-43 -207 202 199 0
-44 -207 202 0
-44 207 -202 0
-45 -207 202 0
-45 207 -202 0
-46 -202 207 0
-46 -200 207 0
-46 -207 202 200 0
-47 -207 202 0
-47 207 -202 0
-48 -202 207 0
-48 -201 207 0
-48 -207 202 201 0
-49 -207 202 0
-49 207 -202 0
-50 -207 202 0
-50 -207 203 0
-50 207 -202 -203 0
-85 -207 202 0
-85 207 -202 0
-41 -208 203 0
-41 208 -203 0
-42 -208 203 0
-42 208 -203 0
-43 -208 203 0
-43 208 -203 0
-44 -203 208 0
-44 -199 208 0
-44 -208 203 199 0
-45 -208 203 0
-45 208 -203 0
-46 -208 203 0
-46 208 -203 0
-47 -203 208 0
-47 -200 208 0
-47 -208 203 200 0
-48 -208 203 0
-48 208 -203 0
-49 -203 208 0
-49 -201 208 0
-49 -208 203 201 0
-50 -203 208 0
-50 -202 208 0
-50 -208 203 202 0
-85 -208 203 0
-85 208 -203 0
-51 -209 204 0
-51 -209 205 0
-51 209 -204 -205 0
-52 -209 204 0
-52 -209 206 0
-52 209 -204 -206 0
-53 -209 204 0
-53 -209 207 0
-53 209 -204 -207 0
-54 -209 204 0
-54 -209 208 0
-54 209 -204 -208 0
-55 -209 204 0
-55 209 -204 0
-56 -209 204 0
-56 209 -204 0
-57 -209 204 0
-57 209 -204 0
-58 -209 204 0
-58 209 -204 0
-59 -209 204 0
-59 209 -204 0
-60 -209 204 0
-60 209 -204 0
-86 -209 204 0
-86 209 -204 0
-51 -205 210 0
-51 -204 210 0
-51 -210 205 204 0
-52 -210 205 0
-52 210 -205 0
-53 -210 205 0
-53 210 -205 0
-54 -210 205 0
-54 210 -205 0
-55 -210 205 0
-55 -210 206 0
-55 210 -205 -206 0
-56 -210 205 0
-56 -210 207 0
-56 210 -205 -207 0
-57 -210 205 0
-57 -210 208 0
-57 210 -205 -208 0
-58 -210 205 0
-58 210 -205 0
-59 -210 205 0
-59 210 -205 0
-60 -210 205 0
-60 210 -205 0
-86 -210 205 0
-86 210 -205 0
-51 -211 206 0
-51 211 -206 0
-52 -206 211 0
-52 -204 211 0
-52 -211 206 204 0
-53 -211 206 0
-53 211 -206 0
-54 -211 206 0
-54 211 -206 0
-55 -206 211 0
-55 -205 211 0
-55 -211 206 205 0
-56 -211 206 0
-56 211 -206 0
-57 -211 206 0
-57 211 -206 0
-58 -211 206 0
-58 -211 207 0
-58 211 -206 -207 0
-59 -211 206 0
-59 -211 208 0
-59 211 -206 -208 0
-60 -211 206 0
-60 211 -206 0
-86 -211 206 0
-86 211 -206 0
-51 -212 207 0
-51 212 -207 0
-52 -212 207 0
-52 212 -207 0
-53 -207 212 0
-53 -204 212 0
-53 -212 207 204 0
-54 -212 207 0
-54 212 -207 0
-55 -212 207 0
-55 212 -207 0
-56 -207 212 0
-56 -205 212 0
-56 -212 207 205 0
-57 -212 207 0
-57 212 -207 0
-58 -207 212 0
-58 -206 212 0
-58 -212 207 206 0
-59 -212 207 0
-59 212 -207 0
-60 -212 207 0
-60 -212 208 0
-60 212 -207 -208 0
-86 -212 207 0
-86 212 -207 0
-51 -213 208 0
-51 213 -208 0
-52 -213 208 0
-52 213 -208 0
-53 -213 208 0
-53 213 -208 0
-54 -208 213 0
-54 -204 213 0
-54 -213 208 204 0
-55 -213 208 0
-55 213 -208 0
-56 -213 208 0
-56 213 -208 0
-57 -208 213 0
-57 -205 213 0
-57 -213 208 205 0
-58 -213 208 0
-58 213 -208 0
-59 -208 213 0
-59 -206 213 0
-59 -213 208 206 0
-60 -208 213 0
-60 -207 213 0
-60 -213 208 207 0
-86 -213 208 0
-86 213 -208 0
-61 -214 209 0
-61 -214 210 0
-61 214 -209 -210 0
-62 -214 209 0
-62 -214 211 0
-62 214 -209 -211 0
-63 -214 209 0
-63 -214 212 0
-63 214 -209 -212 0
-64 -214 209 0
-64 -214 213 0
-64 214 -209 -213 0
-65 -214 209 0
-65 214 -209 0
-66 -214 209 0
-66 214 -209 0
-67 -214 209 0
-67 214 -209 0
-68 -214 209 0
-68 214 -209 0
-69 -214 209 0
-69 214 -209 0
-70 -214 209 0
-70 214 -209 0
-87 -214 209 0
-87 214 -209 0
-61 -210 215 0
-61 -209 215 0
-61 -215 210 209 0
-62 -215 210 0
-62 215 -210 0
-63 -215 210 0
-63 215 -210 0
-64 -215 210 0
-64 215 -210 0
-65 -215 210 0
-65 -215 211 0
-65 215 -210 -211 0
-66 -215 210 0
-66 -215 212 0
-66 215 -210 -212 0
-67 -215 210 0
-67 -215 213 0
-67 215 -210 -213 0
-68 -215 210 0
-68 215 -210 0
-69 -215 210 0
-69 215 -210 0
-70 -215 210 0
-70 215 -210 0
-87 -215 210 0
-87 215 -210 0
-61 -216 211 0
-61 216 -211 0
-62 -211 216 0
-62 -209 216 0
-62 -216 211 209 0
-63 -216 211 0
-63 216 -211 0
-64 -216 211 0
-64 216 -211 0
-65 -211 216 0
-65 -210 216 0
-65 -216 211 210 0
-66 -216 211 0
-66 216 -211 0
-67 -216 211 0
-67 216 -211 0
-68 -216 211 0
-68 -216 212 0
-68 216 -211 -212 0
-69 -216 211 0
-69 -216 213 0
-69 216 -211 -213 0
-70 -216 211 0
-70 216 -211 0
-87 -216 211 0
-87 216 -211 0
-61 -217 212 0
-61 217 -212 0
-62 -217 212 0
-62 217 -212 0
-63 -212 217 0
-63 -209 217 0
-63 -217 212 209 0
-64 -217 212 0
-64 217 -212 0
-65 -217 212 0
-65 217 -212 0
-66 -212 217 0
-66 -210 217 0
-66 -217 212 210 0
-67 -217 212 0
-67 217 -212 0
-68 -212 217 0
-68 -211 217 0
-68 -217 212 211 0
-69 -217 212 0
-69 217 -212 0
-70 -217 212 0
-70 -217 213 0
-70 217 -212 -213 0
-87 -217 212 0
-87 217 -212 0
-61 -218 213 0
-61 218 -213 0
-62 -218 213 0
-62 218 -213 0
-63 -218 213 0
-63 218 -213 0
-64 -213 218 0
-64 -209 218 0
-64 -218 213 209 0
-65 -218 213 0
-65 218 -213 0
-66 -218 213 0
-66 218 -213 0
-67 -213 218 0
-67 -210 218 0
-67 -218 213 210 0
-68 -218 213 0
-68 218 -213 0
-69 -213 218 0
-69 -211 218 0
-69 -218 213 211 0
-70 -213 218 0
-70 -212 218 0
-70 -218 213 212 0
-87 -218 213 0
-87 218 -213 0
-71 -219 214 0
-71 -219 215 0
-71 219 -214 -215 0
-72 -219 214 0
-72 -219 216 0
-72 219 -214 -216 0
-73 -219 214 0
-73 -219 217 0
-73 219 -214 -217 0
-74 -219 214 0
-74 -219 218 0
-74 219 -214 -218 0
-75 -219 214 0
-75 219 -214 0
-76 -219 214 0
-76 219 -214 0
-77 -219 214 0
-77 219 -214 0
-78 -219 214 0
-78 219 -214 0
-79 -219 214 0
-79 219 -214 0
-80 -219 214 0
-80 219 -214 0
-88 -219 214 0
-88 219 -214 0
-71 -215 220 0
-71 -214 220 0
-71 -220 215 214 0
-72 -220 215 0
-72 220 -215 0
-73 -220 215 0
-73 220 -215 0
-74 -220 215 0
-74 220 -215 0
-75 -220 215 0
-75 -220 216 0
-75 220 -215 -216 0
-76 -220 215 0
-76 -220 217 0
-76 220 -215 -217 0
-77 -220 215 0
-77 -220 218 0
-77 220 -215 -218 0
-78 -220 215 0
-78 220 -215 0
-79 -220 215 0
-79 220 -215 0
-80 -220 215 0
-80 220 -215 0
-88 -220 215 0
-88 220 -215 0
-71 -221 216 0
-71 221 -216 0
-72 -216 221 0
-72 -214 221 0
-72 -221 216 214 0
-73 -221 216 0
-73 221 -216 0
-74 -221 216 0
-74 221 -216 0
-75 -216 221 0
-75 -215 221 0
-75 -221 216 215 0
-76 -221 216 0
-76 221 -216 0
-77 -221 216 0
-77 221 -216 0
-78 -221 216 0
-78 -221 217 0
-78 221 -216 -217 0
-79 -221 216 0
-79 -221 218 0
-79 221 -216 -218 0
-80 -221 216 0
-80 221 -216 0
-88 -221 216 0
-88 221 -216 0
-71 -222 217 0
-71 222 -217 0
-72 -222 217 0
-72 222 -217 0
-73 -217 222 0
-73 -214 222 0
-73 -222 217 214 0
-74 -222 217 0
-74 222 -217 0
-75 -222 217 0
-75 222 -217 0
-76 -217 222 0
-76 -215 222 0
-76 -222 217 215 0
-77 -222 217 0
-77 222 -217 0
-78 -217 222 0
-78 -216 222 0
-78 -222 217 216 0
-79 -222 217 0
-79 222 -217 0
-80 -222 217 0
-80 -222 218 0
-80 222 -217 -218 0
-88 -222 217 0
-88 222 -217 0
-71 -223 218 0
-71 223 -218 0
-72 -223 218 0
-72 223 -218 0
-73 -223 218 0
-73 223 -218 0
-74 -218 223 0
-74 -214 223 0
-74 -223 218 214 0
-75 -223 218 0
-75 223 -218 0
-76 -223 218 0
-76 223 -218 0
-77 -218 223 0
-77 -215 223 0
-77 -223 218 215 0
-78 -223 218 0
-78 223 -218 0
-79 -218 223 0
-79 -216 223 0
-79 -223 218 216 0
-80 -218 223 0
-80 -217 223 0
-80 -223 218 217 0
-88 -223 218 0
-88 223 -218 0
-224 0
-1 -229 224 0
-1 -229 225 0
-1 229 -224 -225 0
-2 -229 224 0
-2 -229 226 0
-2 229 -224 -226 0
-3 -229 224 0
-3 -229 227 0
-3 229 -224 -227 0
-4 -229 224 0
-4 -229 228 0
-4 229 -224 -228 0
-5 -229 224 0
-5 229 -224 0
-6 -229 224 0
-6 229 -224 0
-7 -229 224 0
-7 229 -224 0
-8 -229 224 0
-8 229 -224 0
-9 -229 224 0
-9 229 -224 0
-10 -229 224 0
-10 229 -224 0
-81 -229 224 0
-81 229 -224 0
-225 0
-1 -225 230 0
-1 -224 230 0
-1 -230 225 224 0
-2 -230 225 0
-2 230 -225 0
-3 -230 225 0
-3 230 -225 0
-4 -230 225 0
-4 230 -225 0
-5 -230 225 0
-5 -230 226 0
-5 230 -225 -226 0
-6 -230 225 0
-6 -230 227 0
-6 230 -225 -227 0
-7 -230 225 0
-7 -230 228 0
-7 230 -225 -228 0
-8 -230 225 0
-8 230 -225 0
-9 -230 225 0
-9 230 -225 0
-10 -230 225 0
-10 230 -225 0
-81 -230 225 0
-81 230 -225 0
226 0
-1 -231 226 0
-1 231 -226 0
-2 -226 231 0
-2 -224 231 0
-2 -231 226 224 0
-3 -231 226 0
-3 231 -226 0
-4 -231 226 0
-4 231 -226 0
-5 -226 231 0
-5 -225 231 0
-5 -231 226 225 0
-6 -231 226 0
-6 231 -226 0
-7 -231 226 0
-7 231 -226 0
-8 -231 226 0
-8 -231 227 0
-8 231 -226 -227 0
-9 -231 226 0
-9 -231 228 0
-9 231 -226 -228 0
-10 -231 226 0
-10 231 -226 0
-81 -231 226 0
-81 231 -226 0
227 0
-1 -232 227 0
-1 232 -227 0
-2 -232 227 0
-2 232 -227 0
-3 -227 232 0
-3 -224 232 0
-3 -232 227 224 0
-4 -232 227 0
-4 232 -227 0
-5 -232 227 0
-5 232 -227 0
-6 -227 232 0
-6 -225 232 0
-6 -232 227 225 0
-7 -232 227 0
-7 232 -227 0
-8 -227 232 0
-8 -226 232 0
-8 -232 227 226 0
-9 -232 227 0
-9 232 -227 0
-10 -232 227 0
-10 -232 228 0
-10 232 -227 -228 0
-81 -232 227 0
-81 232 -227 0
-228 0
-1 -233 228 0
-1 233 -228 0
-2 -233 228 0
-2 233 -228 0
-3 -233 228 0
-3 233 -228 0
-4 -228 233 0
-4 -224 233 0
-4 -233 228 224 0
-5 -233 228 0
-5 233 -228 0
-6 -233 228 0
-6 233 -228 0
-7 -228 233 0
-7 -225 233 0
-7 -233 228 225 0
-8 -233 228 0
-8 233 -228 0
-9 -228 233 0
-9 -226 233 0
-9 -233 228 226 0
-10 -228 233 0
-10 -227 233 0
-10 -233 228 227 0
-81 -233 228 0
-81 233 -228 0
-11 -234 229 0
-11 -234 230 0
-11 234 -229 -230 0
-12 -234 229 0
-12 -234 231 0
-12 234 -229 -231 0
-13 -234 229 0
-13 -234 232 0
-13 234 -229 -232 0
-14 -234 229 0
-14 -234 233 0
-14 234 -229 -233 0
-15 -234 229 0
-15 234 -229 0
-16 -234 229 0
-16 234 -229 0
-17 -234 229 0
-17 234 -229 0
-18 -234 229 0
-18 234 -229 0
-19 -234 229 0
-19 234 -229 0
-20 -234 229 0
-20 234 -229 0
-82 -234 229 0
-82 234 -229 0
-11 -230 235 0
-11 -229 235 0
-11 -235 230 229 0
-12 -235 230 0
-12 235 -230 0
-13 -235 230 0
-13 235 -230 0
-14 -235 230 0
-14 235 -230 0
-15 -235 230 0
-15 -235 231 0
-15 235 -230 -231 0
-16 -235 230 0
-16 -235 232 0
-16 235 -230 -232 0
-17 -235 230 0
-17 -235 233 0
-17 235 -230 -233 0
-18 -235 230 0
-18 235 -230 0
-19 -235 230 0
-19 235 -230 0
-20 -235 230 0
-20 235 -230 0
-82 -235 230 0
-82 235 -230 0
-11 -236 231 0
-11 236 -231 0
-12 -231 236 0
-12 -229 236 0
-12 -236 231 229 0
-13 -236 231 0
-13 236 -231 0
-14 -236 231 0
-14 236 -231 0
-15 -231 236 0
-15 -230 236 0
-15 -236 231 230 0
-16 -236 231 0
-16 236 -231 0
-17 -236 231 0
-17 236 -231 0
-18 -236 231 0
-18 -236 232 0
-18 236 -231 -232 0
-19 -236 231 0
-19 -236 233 0
-19 236 -231 -233 0
-20 -236 231 0
-20 236 -231 0
-82 -236 231 0
-82 236 -231 0
-11 -237 232 0
-11 237 -232 0
-12 -237 232 0
-12 237 -232 0
-13 -232 237 0
-13 -229 237 0
-13 -237 232 229 0
-14 -237 232 0
-14 237 -232 0
-15 -237 232 0
-15 237 -232 0
-16 -232 237 0
-16 -230 237 0
-16 -237 232 230 0
-17 -237 232 0
-17 237 -232 0
-18 -232 237 0
-18 -231 237 0
-18 -237 232 231 0
-19 -237 232 0
-19 237 -232 0
-20 -237 232 0
-20 -237 233 0
-20 237 -232 -233 0
-82 -237 232 0
-82 237 -232 0
-11 -238 233 0
-11 238 -233 0
-12 -238 233 0
-12 238 -233 0
-13 -238 233 0
-13 238 -233 0
-14 -233 238 0
-14 -229 238 0
-14 -238 233 229 0
-15 -238 233 0
-15 238 -233 0
-16 -238 233 0
-16 238 -233 0
-17 -233 238 0
-17 -230 238 0
-17 -238 233 230 0
-18 -238 233 0
-18 238 -233 0
-19 -233 238 0
-19 -231 238 0
-19 -238 233 231 0
-20 -233 238 0
-20 -232 238 0
-20 -238 233 232 0
-82 -238 233 0
-82 238 -233 0
-21 -239 234 0
-21 -239 235 0
-21 239 -234 -235 0
-22 -239 234 0
-22 -239 236 0
-22 239 -234 -236 0
-23 -239 234 0
-23 -239 237 0
-23 239 -234 -237 0
-24 -239 234 0
-24 -239 238 0
-24 239 -234 -238 0
-25 -239 234 0
-25 239 -234 0
-26 -239 234 0
-26 239 -234 0
-27 -239 234 0
-27 239 -234 0
-28 -239 234 0
-28 239 -234 0
-29 -239 234 0
-29 239 -234 0
-30 -239 234 0
-30 239 -234 0
-83 -239 234 0
-83 239 -234 0
-21 -235 240 0
-21 -234 240 0
-21 -240 235 234 0
-22 -240 235 0
-22 240 -235 0
-23 -240 235 0
-23 240 -235 0
-24 -240 235 0
-24 240 -235 0
-25 -240 235 0
-25 -240 236 0
-25 240 -235 -236 0
-26 -240 235 0
-26 -240 237 0
-26 240 -235 -237 0
-27 -240 235 0
-27 -240 238 0
-27 240 -235 -238 0
-28 -240 235 0
-28 240 -235 0
-29 -240 235 0
-29 240 -235 0
-30 -240 235 0
-30 240 -235 0
-83 -240 235 0
-83 240 -235 0
-21 -241 236 0
-21 241 -236 0
-22 -236 241 0
-22 -234 241 0
-22 -241 236 234 0
-23 -241 236 0
-23 241 -236 0
-24 -241 236 0
-24 241 -236 0
-25 -236 241 0
-25 -235 241 0
-25 -241 236 235 0
-26 -241 236 0
-26 241 -236 0
-27 -241 236 0
-27 241 -236 0
-28 -241 236 0
-28 -241 237 0
-28 241 -236 -237 0
-29 -241 236 0
-29 -241 238 0
-29 241 -236 -238 0
-30 -241 236 0
-30 241 -236 0
-83 -241 236 0
-83 241 -236 0
-21 -242 237 0
-21 242 -237 0
-22 -242 237 0
-22 242 -237 0
-23 -237 242 0
-23 -234 242 0
-23 -242 237 234 0
-24 -242 237 0
-24 242 -237 0
-25 -242 237 0
-25 242 -237 0
-26 -237 242 0
-26 -235 242 0
-26 -242 237 235 0
-27 -242 237 0
-27 242 -237 0
-28 -237 242 0
-28 -236 242 0
-28 -242 237 236 0
-29 -242 237 0
-29 242 -237 0
-30 -242 237 0
-30 -242 238 0
-30 242 -237 -238 0
-83 -242 237 0
-83 242 -237 0
-21 -243 238 0
-21 243 -238 0
-22 -243 238 0
-22 243 -238 0
-23 -243 238 0
-23 243 -238 0
-24 -238 243 0
-24 -234 243 0
-24 -243 238 234 0
-25 -243 238 0
-25 243 -238 0
-26 -243 238 0
-26 243 -238 0
-27 -238 243 0
-27 -235 243 0
-27 -243 238 235 0
-28 -243 238 0
-28 243 -238 0
-29 -238 243 0
-29 -236 243 0
-29 -243 238 236 0
-30 -238 243 0
-30 -237 243 0
-30 -243 238 237 0
-83 -243 238 0
-83 243 -238 0
-31 -244 239 0
-31 -244 240 0
-31 244 -239 -240 0
-32 -244 239 0
-32 -244 241 0
-32 244 -239 -241 0
-33 -244 239 0
-33 -244 242 0
-33 244 -239 -242 0
-34 -244 239 0
-34 -244 243 0
-34 244 -239 -243 0
-35 -244 239 0
-35 244 -239 0
-36 -244 239 0
-36 244 -239 0
-37 -244 239 0
-37 244 -239 0
-38 -244 239 0
-38 244 -239 0
-39 -244 239 0
-39 244 -239 0
-40 -244 239 0
-40 244 -239 0
-84 -244 239 0
-84 244 -239 0
-31 -240 245 0
-31 -239 245 0
-31 -245 240 239 0
-32 -245 240 0
-32 245 -240 0
-33 -245 240 0
-33 245 -240 0
-34 -245 240 0
-34 245 -240 0
-35 -245 240 0
-35 -245 241 0
-35 245 -240 -241 0
-36 -245 240 0
-36 -245 242 0
-36 245 -240 -242 0
-37 -245 240 0
-37 -245 243 0
-37 245 -240 -243 0
-38 -245 240 0
-38 245 -240 0
-39 -245 240 0
-39 245 -240 0
-40 -245 240 0
-40 245 -240 0
-84 -245 240 0
-84 245 -240 0
-31 -246 241 0
-31 246 -241 0
-32 -241 246 0
-32 -239 246 0
-32 -246 241 239 0
-33 -246 241 0
-33 246 -241 0
-34 -246 241 0
-34 246 -241 0
-35 -241 246 0
-35 -240 246 0
-35 -246 241 240 0
-36 -246 241 0
-36 246 -241 0
-37 -246 241 0
-37 246 -241 0
-38 -246 241 0
-38 -246 242 0
-38 246 -241 -242 0
-39 -246 241 0
-39 -246 243 0
-39 246 -241 -243 0
-40 -246 241 0
-40 246 -241 0
-84 -246 241 0
-84 246 -241 0
-31 -247 242 0
-31 247 -242 0
-32 -247 242 0
-32 247 -242 0
-33 -242 247 0
-33 -239 247 0
-33 -247 242 239 0
-34 -247 242 0
-34 247 -242 0
-35 -247 242 0
-35 247 -242 0
-36 -242 247 0
-36 -240 247 0
-36 -247 242 240 0
-37 -247 242 0
-37 247 -242 0
-38 -242 247 0
-38 -241 247 0
-38 -247 242 241 0
-39 -247 242 0
-39 247 -242 0
-40 -247 242 0
-40 -247 243 0
-40 247 -242 -243 0
-84 -247 242 0
-84 247 -242 0
-31 -248 243 0
-31 248 -243 0
-32 -248 243 0
-32 248 -243 0
-33 -248 243 0
-33 248 -243 0
-34 -243 248 0
-34 -239 248 0
-34 -248 243 239 0
-35 -248 243 0
-35 248 -243 0
-36 -248 243 0
-36 248 -243 0
-37 -243 248 0
-37 -240 248 0
-37 -248 243 240 0
-38 -248 243 0
-38 248 -243 0
-39 -243 248 0
-39 -241 248 0
-39 -248 243 241 0
-40 -243 248 0
-40 -242 248 0
-40 -248 243 242 0
-84 -248 243 0
-84 248 -243 0
-41 -249 244 0
-41 -249 245 0
-41 249 -244 -245 0
-42 -249 244 0
-42 -249 246 0
-42 249 -244 -246 0
-43 -249 244 0
-43 -249 247 0
-43 249 -244 -247 0
-44 -249 244 0
-44 -249 248 0
-44 249 -244 -248 0
-45 -249 244 0
-45 249 -244 0
-46 -249 244 0
-46 249 -244 0
-47 -249 244 0
-47 249 -244 0
-48 -249 244 0
-48 249 -244 0
-49 -249 244 0
-49 249 -244 0
-50 -249 244 0
-50 249 -244 0
-85 -249 244 0
-85 249 -244 0
-41 -245 250 0
-41 -244 250 0
-41 -250 245 244 0
-42 -250 245 0
-42 250 -245 0
-43 -250 245 0
-43 250 -245 0
-44 -250 245 0
-44 250 -245 0
-45 -250 245 0
-45 -250 246 0
-45 250 -245 -246 0
-46 -250 245 0
-46 -250 247 0
-46 250 -245 -247 0
-47 -250 245 0
-47 -250 248 0
-47 250 -245 -248 0
-48 -250 245 0
-48 250 -245 0
-49 -250 245 0
-49 250 -245 0
-50 -250 245 0
-50 250 -245 0
-85 -250 245 0
-85 250 -245 0
-41 -251 246 0
-41 251 -246 0
-42 -246 251 0
-42 -244 251 0
-42 -251 246 244 0
-43 -251 246 0
-43 251 -246 0
-44 -251 246 0
-44 251 -246 0
-45 -246 251 0
-45 -245 251 0
-45 -251 246 245 0
-46 -251 246 0
-46 251 -246 0
-47 -251 246 0
-47 251 -246 0
-48 -251 246 0
-48 -251 247 0
-48 251 -246 -247 0
-49 -251 246 0
-49 -251 248 0
-49 251 -246 -248 0
-50 -251 246 0
-50 251 -246 0
-85 -251 246 0
-85 251 -246 0
-41 -252 247 0
-41 252 -247 0
-42 -252 247 0
-42 252 -247 0
-43 -247 252 0
-43 -244 252 0
-43 -252 247 244 0
-44 -252 247 0
-44 252 -247 0
-45 -252 247 0
-45 252 -247 0
-46 -247 252 0
-46 -245 252 0
-46 -252 247 245 0
-47 -252 247 0
-47 252 -247 0
-48 -247 252 0
-48 -246 252 0
-48 -252 247 246 0
-49 -252 247 0
-49 252 -247 0
-50 -252 247 0
-50 -252 248 0
-50 252 -247 -248 0
-85 -252 247 0
-85 252 -247 0
-41 -253 248 0
-41 253 -248 0
-42 -253 248 0
-42 253 -248 0
-43 -253 248 0
-43 253 -248 0
-44 -248 253 0
-44 -244 253 0
-44 -253 248 244 0
-45 -253 248 0
-45 253 -248 0
-46 -253 248 0
-46 253 -248 0
-47 -248 253 0
-47 -245 253 0
-47 -253 248 245 0
-48 -253 248 0
-48 253 -248 0
-49 -248 253 0
-49 -246 253 0
-49 -253 248 246 0
-50 -248 253 0
-50 -247 253 0
-50 -253 248 247 0
-85 -253 248 0
-85 253 -248 0
-51 -254 249 0
-51 -254 250 0
-51 254 -249 -250 0
-52 -254 249 0
-52 -254 251 0
-52 254 -249 -251 0
-53 -254 249 0
-53 -254 252 0
-53 254 -249 -252 0
-54 -254 249 0
-54 -254 253 0
-54 254 -249 -253 0
-55 -254 249 0
-55 254 -249 0
-56 -254 249 0
-56 254 -249 0
-57 -254 249 0
-57 254 -249 0
-58 -254 249 0
-58 254 -249 0
-59 -254 249 0
-59 254 -249 0
-60 -254 249 0
-60 254 -249 0
-86 -254 249 0
-86 254 -249 0
-51 -250 255 0
-51 -249 255 0
-51 -255 250 249 0
-52 -255 250 0
-52 255 -250 0
-53 -255 250 0
-53 255 -250 0
-54 -255 250 0
-54 255 -250 0
-55 -255 250 0
-55 -255 251 0
-55 255 -250 -251 0
-56 -255 250 0
-56 -255 252 0
-56 255 -250 -252 0
-57 -255 250 0
-57 -255 253 0
-57 255 -250 -253 0
-58 -255 250 0
-58 255 -250 0
-59 -255 250 0
-59 255 -250 0
-60 -255 250 0
-60 255 -250 0
-86 -255 250 0
-86 255 -250 0
-51 -256 251 0
-51 256 -251 0
-52 -251 256 0
-52 -249 256 0
-52 -256 251 249 0
-53 -256 251 0
-53 256 -251 0
-54 -256 251 0
-54 256 -251 0
-55 -251 256 0
-55 -250 256 0
-55 -256 251 250 0
-56 -256 251 0
-56 256 -251 0
-57 -256 251 0
-57 256 -251 0
-58 -256 251 0
-58 -256 252 0
-58 256 -251 -252 0
-59 -256 251 0
-59 -256 253 0
-59 256 -251 -253 0
-60 -256 251 0
-60 256 -251 0
-86 -256 251 0
-86 256 -251 0
-51 -257 252 0
-51 257 -252 0
-52 -257 252 0
-52 257 -252 0
-53 -252 257 0
-53 -249 257 0
-53 -257 252 249 0
-54 -257 252 0
-54 257 -252 0
-55 -257 252 0
-55 257 -252 0
-56 -252 257 0
-56 -250 257 0
-56 -257 252 250 0
-57 -257 252 0
-57 257 -252 0
-58 -252 257 0
-58 -251 257 0
-58 -257 252 251 0
-59 -257 252 0
-59 257 -252 0
-60 -257 252 0
-60 -257 253 0
-60 257 -252 -253 0
-86 -257 252 0
-86 257 -252 0
-51 -258 253 0
-51 258 -253 0
-52 -258 253 0
-52 258 -253 0
-53 -258 253 0
-53 258 -253 0
-54 -253 258 0
-54 -249 258 0
-54 -258 253 249 0
-55 -258 253 0
-55 258 -253 0
-56 -258 253 0
-56 258 -253 0
-57 -253 258 0
-57 -250 258 0
-57 -258 253 250 0
-58 -258 253 0
-58 258 -253 0
-59 -253 258 0
-59 -251 258 0
-59 -258 253 251 0
-60 -253 258 0
-60 -252 258 0
-60 -258 253 252 0
-86 -258 253 0
-86 258 -253 0
-61 -259 254 0
-61 -259 255 0
-61 259 -254 -255 0
-62 -259 254 0
-62 -259 256 0
-62 259 -254 -256 0
-63 -259 254 0
-63 -259 257 0
-63 259 -254 -257 0
-64 -259 254 0
-64 -259 258 0
-64 259 -254 -258 0
-65 -259 254 0
-65 259 -254 0
-66 -259 254 0
-66 259 -254 0
-67 -259 254 0
-67 259 -254 0
-68 -259 254 0
-68 259 -254 0
-69 -259 254 0
-69 259 -254 0
-70 -259 254 0
-70 259 -254 0
-87 -259 254 0
-87 259 -254 0
-61 -255 260 0
-61 -254 260 0
-61 -260 255 254 0
-62 -260 255 0
-62 260 -255 0
-63 -260 255 0
-63 260 -255 0
-64 -260 255 0
-64 260 -255 0
-65 -260 255 0
-65 -260 256 0
-65 260 -255 -256 0
-66 -260 255 0
-66 -260 257 0
-66 260 -255 -257 0
-67 -260 255 0
-67 -260 258 0
-67 260 -255 -258 0
-68 -260 255 0
-68 260 -255 0
-69 -260 255 0
-69 260 -255 0
-70 -260 255 0
-70 260 -255 0
-87 -260 255 0
-87 260 -255 0
-61 -261 256 0
-61 261 -256 0
-62 -256 261 0
-62 -254 261 0
-62 -261 256 254 0
-63 -261 256 0
-63 261 -256 0
-64 -261 256 0
-64 261 -256 0
-65 -256 261 0
-65 -255 261 0
-65 -261 256 255 0
-66 -261 256 0
-66 261 -256 0
-67 -261 256 0
-67 261 -256 0
-68 -261 256 0
-68 -261 257 0
-68 261 -256 -257 0
-69 -261 256 0
-69 -261 258 0
-69 261 -256 -258 0
-70 -261 256 0
-70 261 -256 0
-87 -261 256 0
-87 261 -256 0
-61 -262 257 0
-61 262 -257 0
-62 -262 257 0
-62 262 -257 0
-63 -257 262 0
-63 -254 262 0
-63 -262 257 254 0
-64 -262 257 0
-64 262 -257 0
-65 -262 257 0
-65 262 -257 0
-66 -257 262 0
-66 -255 262 0
-66 -262 257 255 0
-67 -262 257 0
-67 262 -257 0
-68 -257 262 0
-68 -256 262 0
-68 -262 257 256 0
-69 -262 257 0
-69 262 -257 0
-70 -262 257 0
-70 -262 258 0
-70 262 -257 -258 0
-87 -262 257 0
-87 262 -257 0
-61 -263 258 0
-61 263 -258 0
-62 -263 258 0
-62 263 -258 0
-63 -263 258 0
-63 263 -258 0
-64 -258 263 0
-64 -254 263 0
-64 -263 258 254 0
-65 -263 258 0
-65 263 -258 0
-66 -263 258 0
-66 263 -258 0
-67 -258 263 0
-67 -255 263 0
-67 -263 258 255 0
-68 -263 258 0
-68 263 -258 0
-69 -258 263 0
-69 -256 263 0
-69 -263 258 256 0
-70 -258 263 0
-70 -257 263 0
-70 -263 258 257 0
-87 -263 258 0
-87 263 -258 0
-71 -264 259 0
-71 -264 260 0
-71 264 -259 -260 0
-72 -264 259 0
-72 -264 261 0
-72 264 -259 -261 0
-73 -264 259 0
-73 -264 262 0
-73 264 -259 -262 0
-74 -264 259 0
-74 -264 263 0
-74 264 -259 -263 0
-75 -264 259 0
-75 264 -259 0
-76 -264 259 0
-76 264 -259 0
-77 -264 259 0
-77 264 -259 0
-78 -264 259 0
-78 264 -259 0
-79 -264 259 0
-79 264 -259 0
-80 -264 259 0
-80 264 -259 0
-88 -264 259 0
-88 264 -259 0
-71 -260 265 0
-71 -259 265 0
-71 -265 260 259 0
-72 -265 260 0
-72 265 -260 0
-73 -265 260 0
-73 265 -260 0
-74 -265 260 0
-74 265 -260 0
-75 -265 260 0
-75 -265 261 0
-75 265 -260 -261 0
-76 -265 260 0
-76 -265 262 0
-76 265 -260 -262 0
-77 -265 260 0
-77 -265 263 0
-77 265 -260 -263 0
-78 -265 260 0
-78 265 -260 0
-79 -265 260 0
-79 265 -260 0
-80 -265 260 0
-80 265 -260 0
-88 -265 260 0
-88 265 -260 0
-71 -266 261 0
-71 266 -261 0
-72 -261 266 0
-72 -259 266 0
-72 -266 261 259 0
-73 -266 261 0
-73 266 -261 0
-74 -266 261 0
-74 266 -261 0
-75 -261 266 0
-75 -260 266 0
-75 -266 261 260 0
-76 -266 261 0
-76 266 -261 0
-77 -266 261 0
-77 266 -261 0
-78 -266 261 0
-78 -266 262 0
-78 266 -261 -262 0
-79 -266 261 0
-79 -266 263 0
-79 266 -261 -263 0
-80 -266 261 0
-80 266 -261 0
-88 -266 261 0
-88 266 -261 0
-71 -267 262 0
-71 267 -262 0
-72 -267 262 0
-72 267 -262 0
-73 -262 267 0
-73 -259 267 0
-73 -267 262 259 0
-74 -267 262 0
-74 267 -262 0
-75 -267 262 0
-75 267 -262 0
-76 -262 267 0
-76 -260 267 0
-76 -267 262 260 0
-77 -267 262 0
-77 267 -262 0
-78 -262 267 0
-78 -261 267 0
-78 -267 262 261 0
-79 -267 262 0
-79 267 -262 0
-80 -267 262 0
-80 -267 263 0
-80 267 -262 -263 0
-88 -267 262 0
-88 267 -262 0
-71 -268 263 0
-71 268 -263 0
-72 -268 263 0
-72 268 -263 0
-73 -268 263 0
-73 268 -263 0
-74 -263 268 0
-74 -259 268 0
-74 -268 263 259 0
-75 -268 263 0
-75 268 -263 0
-76 -268 263 0
-76 268 -263 0
-77 -263 268 0
-77 -260 268 0
-77 -268 263 260 0
-78 -268 263 0
-78 268 -263 0
-79 -263 268 0
-79 -261 268 0
-79 -268 263 261 0
-80 -263 268 0
-80 -262 268 0
-80 -268 263 262 0
-88 -268 263 0
-88 268 -263 0
-269 0
-1 -274 269 0
-1 -274 270 0
-1 274 -269 -270 0
-2 -274 269 0
-2 -274 271 0
-2 274 -269 -271 0
-3 -274 269 0
-3 -274 272 0
-3 274 -269 -272 0
-4 -274 269 0
-4 -274 273 0
-4 274 -269 -273 0
-5 -274 269 0
-5 274 -269 0
-6 -274 269 0
-6 274 -269 0
-7 -274 269 0
-7 274 -269 0
-8 -274 269 0
-8 274 -269 0
-9 -274 269 0
-9 274 -269 0
-10 -274 269 0
-10 274 -269 0
-81 -274 269 0
-81 274 -269 0
270 0
-1 -270 275 0
-1 -269 275 0
-1 -275 270 269 0
-2 -275 270 0
-2 275 -270 0
-3 -275 270 0
-3 275 -270 0
-4 -275 270 0
-4 275 -270 0
-5 -275 270 0
-5 -275 271 0
-5 275 -270 -271 0
-6 -275 270 0
-6 -275 272 0
-6 275 -270 -272 0
-7 -275 270 0
-7 -275 273 0
-7 275 -270 -273 0
-8 -275 270 0
-8 275 -270 0
-9 -275 270 0
-9 275 -270 0
-10 -275 270 0
-10 275 -270 0
-81 -275 270 0
-81 275 -270 0
-271 0
-1 -276 271 0
-1 276 -271 0
-2 -271 276 0
-2 -269 276 0
-2 -276 271 269 0
-3 -276 271 0
-3 276 -271 0
-4 -276 271 0
-4 276 -271 0
-5 -271 276 0
-5 -270 276 0
-5 -276 271 270 0
-6 -276 271 0
-6 276 -271 0
-7 -276 271 0
-7 276 -271 0
-8 -276 271 0
-8 -276 272 0
-8 276 -271 -272 0
-9 -276 271 0
-9 -276 273 0
-9 276 -271 -273 0
-10 -276 271 0
-10 276 -271 0
-81 -276 271 0
-81 276 -271 0
-272 0
-1 -277 272 0
-1 277 -272 0
-2 -277 272 0
-2 277 -272 0
-3 -272 277 0
-3 -269 277 0
-3 -277 272 269 0
-4 -277 272 0
-4 277 -272 0
-5 -277 272 0
-5 277 -272 0
-6 -272 277 0
-6 -270 277 0
-6 -277 272 270 0
-7 -277 272 0
-7 277 -272 0
-8 -272 277 0
-8 -271 277 0
-8 -277 272 271 0
-9 -277 272 0
-9 277 -272 0
-10 -277 272 0
-10 -277 273 0
-10 277 -272 -273 0
-81 -277 272 0
-81 277 -272 0
-273 0
-1 -278 273 0
-1 278 -273 0
-2 -278 273 0
-2 278 -273 0
-3 -278 273 0
-3 278 -273 0
-4 -273 278 0
-4 -269 278 0
-4 -278 273 269 0
-5 -278 273 0
-5 278 -273 0
-6 -278 273 0
-6 278 -273 0
-7 -273 278 0
-7 -270 278 0
-7 -278 273 270 0
-8 -278 273 0
-8 278 -273 0
-9 -273 278 0
-9 -271 278 0
-9 -278 273 271 0
-10 -273 278 0
-10 -272 278 0
-10 -278 273 272 0
-81 -278 273 0
-81 278 -273 0
-11 -279 274 0
-11 -279 275 0
-11 279 -274 -275 0
-12 -279 274 0
-12 -279 276 0
-12 279 -274 -276 0
-13 -279 274 0
-13 -279 277 0
-13 279 -274 -277 0
-14 -279 274 0
-14 -279 278 0
-14 279 -274 -278 0
-15 -279 274 0
-15 279 -274 0
-16 -279 274 0
-16 279 -274 0
-17 -279 274 0
-17 279 -274 0
-18 -279 274 0
-18 279 -274 0
-19 -279 274 0
-19 279 -274 0
-20 -279 274 0
-20 279 -274 0
-82 -279 274 0
-82 279 -274 0
-11 -275 280 0
-11 -274 280 0
-11 -280 275 274 0
-12 -280 275 0
-12 280 -275 0
-13 -280 275 0
-13 280 -275 0
-14 -280 275 0
-14 280 -275 0
-15 -280 275 0
-15 -280 276 0
-15 280 -275 -276 0
-16 -280 275 0
-16 -280 277 0
-16 280 -275 -277 0
-17 -280 275 0
-17 -280 278 0
-17 280 -275 -278 0
-18 -280 275 0
-18 280 -275 0
-19 -280 275 0
-19 280 -275 0
-20 -280 275 0
-20 280 -275 0
-82 -280 275 0
-82 280 -275 0
-11 -281 276 0
-11 281 -276 0
-12 -276 281 0
-12 -274 281 0
-12 -281 276 274 0
-13 -281 276 0
-13 281 -276 0
-14 -281 276 0
-14 281 -276 0
-15 -276 281 0
-15 -275 281 0
-15 -281 276 275 0
-16 -281 276 0
-16 281 -276 0
-17 -281 276 0
-17 281 -276 0
-18 -281 276 0
-18 -281 277 0
-18 281 -276 -277 0
-19 -281 276 0
-19 -281 278 0
-19 281 -276 -278 0
-20 -281 276 0
-20 281 -276 0
-82 -281 276 0
-82 281 -276 0
-11 -282 277 0
-11 282 -277 0
-12 -282 277 0
-12 282 -277 0
-13 -277 282 0
-13 -274 282 0
-13 -282 277 274 0
-14 -282 277 0
-14 282 -277 0
-15 -282 277 0
-15 282 -277 0
-16 -277 282 0
-16 -275 282 0
-16 -282 277 275 0
-17 -282 277 0
-17 282 -277 0
-18 -277 282 0
-18 -276 282 0
-18 -282 277 276 0
-19 -282 277 0
-19 282 -277 0
-20 -282 277 0
-20 -282 278 0
-20 282 -277 -278 0
-82 -282 277 0
-82 282 -277 0
-11 -283 278 0
-11 283 -278 0
-12 -283 278 0
-12 283 -278 0
-13 -283 278 0
-13 283 -278 0
-14 -278 283 0
-14 -274 283 0
-14 -283 278 274 0
-15 -283 278 0
-15 283 -278 0
-16 -283 278 0
-16 283 -278 0
-17 -278 283 0
-17 -275 283 0
-17 -283 278 275 0
-18 -283 278 0
-18 283 -278 0
-19 -278 283 0
-19 -276 283 0
-19 -283 278 276 0
-20 -278 283 0
-20 -277 283 0
-20 -283 278 277 0
-82 -283 278 0
-82 283 -278 0
-21 -284 279 0
-21 -284 280 0
-21 284 -279 -280 0
-22 -284 279 0
-22 -284 281 0
-22 284 -279 -281 0
-23 -284 279 0
-23 -284 282 0
-23 284 -279 -282 0
-24 -284 279 0
-24 -284 283 0
-24 284 -279 -283 0
-25 -284 279 0
-25 284 -279 0
-26 -284 279 0
-26 284 -279 0
-27 -284 279 0
-27 284 -279 0
-28 -284 279 0
-28 284 -279 0
-29 -284 279 0
-29 284 -279 0
-30 -284 279 0
-30 284 -279 0
-83 -284 279 0
-83 284 -279 0
-21 -280 285 0
-21 -279 285 0
-21 -285 280 279 0
-22 -285 280 0
-22 285 -280 0
-23 -285 280 0
-23 285 -280 0
-24 -285 280 0
-24 285 -280 0
-25 -285 280 0
-25 -285 281 0
-25 285 -280 -281 0
-26 -285 280 0
-26 -285 282 0
-26 285 -280 -282 0
-27 -285 280 0
-27 -285 283 0
-27 285 -280 -283 0
-28 -285 280 0
-28 285 -280 0
-29 -285 280 0
-29 285 -280 0
-30 -285 280 0
-30 285 -280 0
-83 -285 280 0
-83 285 -280 0
-21 -286 281 0
-21 286 -281 0
-22 -281 286 0
-22 -279 286 0
-22 -286 281 279 0
-23 -286 281 0
-23 286 -281 0
-24 -286 281 0
-24 286 -281 0
-25 -281 286 0
-25 -280 286 0
-25 -286 281 280 0
-26 -286 281 0
-26 286 -281 0
-27 -286 281 0
-27 286 -281 0
-28 -286 281 0
-28 -286 282 0
-28 286 -281 -282 0
-29 -286 281 0
-29 -286 283 0
-29 286 -281 -283 0
-30 -286 281 0
-30 286 -281 0
-83 -286 281 0
-83 286 -281 0
-21 -287 282 0
-21 287 -282 0
-22 -287 282 0
-22 287 -282 0
-23 -282 287 0
-23 -279 287 0
-23 -287 282 279 0
-24 -287 282 0
-24 287 -282 0
-25 -287 282 0
-25 287 -282 0
-26 -282 287 0
-26 -280 287 0
-26 -287 282 280 0
-27 -287 282 0
-27 287 -282 0
-28 -282 287 0
-28 -281 287 0
-28 -287 282 281 0
-29 -287 282 0
-29 287 -282 0
-30 -287 282 0
-30 -287 283 0
-30 287 -282 -283 0
-83 -287 282 0
-83 287 -282 0
-21 -288 283 0
-21 288 -283 0
-22 -288 283 0
-22 288 -283 0
-23 -288 283 0
-23 288 -283 0
-24 -283 288 0
-24 -279 288 0
-24 -288 283 279 0
-25 -288 283 0
-25 288 -283 0
-26 -288 283 0
-26 288 -283 0
-27 -283 288 0
-27 -280 288 0
-27 -288 283 280 0
-28 -288 283 0
-28 288 -283 0
-29 -283 288 0
-29 -281 288 0
-29 -288 283 281 0
-30 -283 288 0
-30 -282 288 0
-30 -288 283 282 0
-83 -288 283 0
-83 288 -283 0
-31 -289 284 0
-31 -289 285 0
-31 289 -284 -285 0
-32 -289 284 0
-32 -289 286 0
-32 289 -284 -286 0
-33 -289 284 0
-33 -289 287 0
-33 289 -284 -287 0
-34 -289 284 0
-34 -289 288 0
-34 289 -284 -288 0
-35 -289 284 0
-35 289 -284 0
-36 -289 284 0
-36 289 -284 0
-37 -289 284 0
-37 289 -284 0
-38 -289 284 0
-38 289 -284 0
-39 -289 284 0
-39 289 -284 0
-40 -289 284 0
-40 289 -284 0
-84 -289 284 0
-84 289 -284 0
-31 -285 290 0
-31 -284 290 0
-31 -290 285 284 0
-32 -290 285 0
-32 290 -285 0
-33 -290 285 0
-33 290 -285 0
-34 -290 285 0
-34 290 -285 0
-35 -290 285 0
-35 -290 286 0
-35 290 -285 -286 0
-36 -290 285 0
-36 -290 287 0
-36 290 -285 -287 0
-37 -290 285 0
-37 -290 288 0
-37 290 -285 -288 0
-38 -290 285 0
-38 290 -285 0
-39 -290 285 0
-39 290 -285 0
-40 -290 285 0
-40 290 -285 0
-84 -290 285 0
-84 290 -285 0
-31 -291 286 0
-31 291 -286 0
-32 -286 291 0
-32 -284 291 0
-32 -291 286 284 0
-33 -291 286 0
-33 291 -286 0
-34 -291 286 0
-34 291 -286 0
-35 -286 291 0
-35 -285 291 0
-35 -291 286 285 0
-36 -291 286 0
-36 291 -286 0
-37 -291 286 0
-37 291 -286 0
-38 -291 286 0
-38 -291 287 0
-38 291 -286 -287 0
-39 -291 286 0
-39 -291 288 0
-39 291 -286 -288 0
-40 -291 286 0
-40 291 -286 0
-84 -291 286 0
-84 291 -286 0
-31 -292 287 0
-31 292 -287 0
-32 -292 287 0
-32 292 -287 0
-33 -287 292 0
-33 -284 292 0
-33 -292 287 284 0
-34 -292 287 0
-34 292 -287 0
-35 -292 287 0
-35 292 -287 0
-36 -287 292 0
-36 -285 292 0
-36 -292 287 285 0
-37 -292 287 0
-37 292 -287 0
-38 -287 292 0
-38 -286 292 0
-38 -292 287 286 0
-39 -292 287 0
-39 292 -287 0
-40 -292 287 0
-40 -292 288 0
-40 292 -287 -288 0
-84 -292 287 0
-84 292 -287 0
-31 -293 288 0
-31 293 -288 0
-32 -293 288 0
-32 293 -288 0
-33 -293 288 0
-33 293 -288 0
-34 -288 293 0
-34 -284 293 0
-34 -293 288 284 0
-35 -293 288 0
-35 293 -288 0
-36 -293 288 0
-36 293 -288 0
-37 -288 293 0
-37 -285 293 0
-37 -293 288 285 0
-38 -293 288 0
-38 293 -288 0
-39 -288 293 0
-39 -286 293 0
-39 -293 288 286 0
-40 -288 293 0
-40 -287 293 0
-40 -293 288 287 0
-84 -293 288 0
-84 293 -288 0
-41 -294 289 0
-41 -294 290 0
-41 294 -289 -290 0
-42 -294 289 0
-42 -294 291 0
-42 294 -289 -291 0
-43 -294 289 0
-43 -294 292 0
-43 294 -289 -292 0
-44 -294 289 0
-44 -294 293 0
-44 294 -289 -293 0
-45 -294 289 0
-45 294 -289 0
-46 -294 289 0
-46 294 -289 0
-47 -294 289 0
-47 294 -289 0
-48 -294 289 0
-48 294 -289 0
-49 -294 289 0
-49 294 -289 0
-50 -294 289 0
-50 294 -289 0
-85 -294 289 0
-85 294 -289 0
-41 -290 295 0
-41 -289 295 0
-41 -295 290 289 0
-42 -295 290 0
-42 295 -290 0
-43 -295 290 0
-43 295 -290 0
-44 -295 290 0
-44 295 -290 0
-45 -295 290 0
-45 -295 291 0
-45 295 -290 -291 0
-46 -295 290 0
-46 -295 292 0
-46 295 -290 -292 0
-47 -295 290 0
-47 -295 293 0
-47 295 -290 -293 0
-48 -295 290 0
-48 295 -290 0
-49 -295 290 0
-49 295 -290 0
-50 -295 290 0
-50 295 -290 0
-85 -295 290 0
-85 295 -290 0
-41 -296 291 0
-41 296 -291 0
-42 -291 296 0
-42 -289 296 0
-42 -296 291 289 0
-43 -296 291 0
-43 296 -291 0
-44 -296 291 0
-44 296 -291 0
-45 -291 296 0
-45 -290 296 0
-45 -296 291 290 0
-46 -296 291 0
-46 296 -291 0
-47 -296 291 0
-47 296 -291 0
-48 -296 291 0
-48 -296 292 0
-48 296 -291 -292 0
-49 -296 291 0
-49 -296 293 0
-49 296 -291 -293 0
-50 -296 291 0
-50 296 -291 0
-85 -296 291 0
-85 296 -291 0
-41 -297 292 0
-41 297 -292 0
-42 -297 292 0
-42 297 -292 0
-43 -292 297 0
-43 -289 297 0
-43 -297 292 289 0
-44 -297 292 0
-44 297 -292 0
-45 -297 292 0
-45 297 -292 0
-46 -292 297 0
-46 -290 297 0
-46 -297 292 290 0
-47 -297 292 0
-47 297 -292 0
-48 -292 297 0
-48 -291 297 0
-48 -297 292 291 0
-49 -297 292 0
-49 297 -292 0
-50 -297 292 0
-50 -297 293 0
-50 297 -292 -293 0
-85 -297 292 0
-85 297 -292 0
-41 -298 293 0
-41 298 -293 0
-42 -298 293 0
-42 298 -293 0
-43 -298 293 0
-43 298 -293 0
-44 -293 298 0
-44 -289 298 0
-44 -298 293 289 0
-45 -298 293 0
-45 298 -293 0
-46 -298 293 0
-46 298 -293 0
-47 -293 298 0
-47 -290 298 0
-47 -298 293 290 0
-48 -298 293 0
-48 298 -293 0
-49 -293 298 0
-49 -291 298 0
-49 -298 293 291 0
-50 -293 298 0
-50 -292 298 0
-50 -298 293 292 0
-85 -298 293 0
-85 298 -293 0
-51 -299 294 0
-51 -299 295 0
-51 299 -294 -295 0
-52 -299 294 0
-52 -299 296 0
-52 299 -294 -296 0
-53 -299 294 0
-53 -299 297 0
-53 299 -294 -297 0
-54 -299 294 0
-54 -299 298 0
-54 299 -294 -298 0
-55 -299 294 0
-55 299 -294 0
-56 -299 294 0
-56 299 -294 0
-57 -299 294 0
-57 299 -294 0
-58 -299 294 0
-58 299 -294 0
-59 -299 294 0
-59 299 -294 0
-60 -299 294 0
-60 299 -294 0
-86 -299 294 0
-86 299 -294 0
-51 -295 300 0
-51 -294 300 0
-51 -300 295 294 0
-52 -300 295 0
-52 300 -295 0
-53 -300 295 0
-53 300 -295 0
-54 -300 295 0
-54 300 -295 0
-55 -300 295 0
-55 -300 296 0
-55 300 -295 -296 0
-56 -300 295 0
-56 -300 297 0
-56 300 -295 -297 0
-57 -300 295 0
-57 -300 298 0
-57 300 -295 -298 0
-58 -300 295 0
-58 300 -295 0
-59 -300 295 0
-59 300 -295 0
-60 -300 295 0
-60 300 -295 0
-86 -300 295 0
-86 300 -295 0
-51 -301 296 0
-51 301 -296 0
-52 -296 301 0
-52 -294 301 0
-52 -301 296 294 0
-53 -301 296 0
-53 301 -296 0
-54 -301 296 0
-54 301 -296 0
-55 -296 301 0
-55 -295 301 0
-55 -301 296 295 0
-56 -301 296 0
-56 301 -296 0
-57 -301 296 0
-57 301 -296 0
-58 -301 296 0
-58 -301 297 0
-58 301 -296 -297 0
-59 -301 296 0
-59 -301 298 0
-59 301 -296 -298 0
-60 -301 296 0
-60 301 -296 0
-86 -301 296 0
-86 301 -296 0
-51 -302 297 0
-51 302 -297 0
-52 -302 297 0
-52 302 -297 0
-53 -297 302 0
-53 -294 302 0
-53 -302 297 294 0
-54 -302 297 0
-54 302 -297 0
-55 -302 297 0
-55 302 -297 0
-56 -297 302 0
-56 -295 302 0
-56 -302 297 295 0
-57 -302 297 0
-57 302 -297 0
-58 -297 302 0
-58 -296 302 0
-58 -302 297 296 0
-59 -302 297 0
-59 302 -297 0
-60 -302 297 0
-60 -302 298 0
-60 302 -297 -298 0
-86 -302 297 0
-86 302 -297 0
-51 -303 298 0
-51 303 -298 0
-52 -303 298 0
-52 303 -298 0
-53 -303 298 0
-53 303 -298 0
-54 -298 303 0
-54 -294 303 0
-54 -303 298 294 0
-55 -303 298 0
-55 303 -298 0
-56 -303 298 0
-56 303 -298 0
-57 -298 303 0
-57 -295 303 0
-57 -303 298 295 0
-58 -303 298 0
-58 303 -298 0
-59 -298 303 0
-59 -296 303 0
-59 -303 298 296 0
-60 -298 303 0
-60 -297 303 0
-60 -303 298 297 0
-86 -303 298 0
-86 303 -298 0
-61 -304 299 0
-61 -304 300 0
-61 304 -299 -300 0
-62 -304 299 0
-62 -304 301 0
-62 304 -299 -301 0
-63 -304 299 0
-63 -304 302 0
-63 304 -299 -302 0
-64 -304 299 0
-64 -304 303 0
-64 304 -299 -303 0
-65 -304 299 0
-65 304 -299 0
-66 -304 299 0
-66 304 -299 0
-67 -304 299 0
-67 304 -299 0
-68 -304 299 0
-68 304 -299 0
-69 -304 299 0
-69 304 -299 0
-70 -304 299 0
-70 304 -299 0
-87 -304 299 0
-87 304 -299 0
-61 -300 305 0
-61 -299 305 0
-61 -305 300 299 0
-62 -305 300 0
-62 305 -300 0
-63 -305 300 0
-63 305 -300 0
-64 -305 300 0
-64 305 -300 0
-65 -305 300 0
-65 -305 301 0
-65 305 -300 -301 0
-66 -305 300 0
-66 -305 302 0
-66 305 -300 -302 0
-67 -305 300 0
-67 -305 303 0
-67 305 -300 -303 0
-68 -305 300 0
-68 305 -300 0
-69 -305 300 0
-69 305 -300 0
-70 -305 300 0
-70 305 -300 0
-87 -305 300 0
-87 305 -300 0
-61 -306 301 0
-61 306 -301 0
-62 -301 306 0
-62 -299 306 0
-62 -306 301 299 0
-63 -306 301 0
-63 306 -301 0
-64 -306 301 0
-64 306 -301 0
-65 -301 306 0
-65 -300 306 0
-65 -306 301 300 0
-66 -306 301 0
-66 306 -301 0
-67 -306 301 0
-67 306 -301 0
-68 -306 301 0
-68 -306 302 0
-68 306 -301 -302 0
-69 -306 301 0
-69 -306 303 0
-69 306 -301 -303 0
-70 -306 301 0
-70 306 -301 0
-87 -306 301 0
-87 306 -301 0
-61 -307 302 0
-61 307 -302 0
-62 -307 302 0
-62 307 -302 0
-63 -302 307 0
-63 -299 307 0
-63 -307 302 299 0
-64 -307 302 0
-64 307 -302 0
-65 -307 302 0
-65 307 -302 0
-66 -302 307 0
-66 -300 307 0
-66 -307 302 300 0
-67 -307 302 0
-67 307 -302 0
-68 -302 307 0
-68 -301 307 0
-68 -307 302 301 0
-69 -307 302 0
-69 307 -302 0
-70 -307 302 0
-70 -307 303 0
-70 307 -302 -303 0
-87 -307 302 0
-87 307 -302 0
-61 -308 303 0
-61 308 -303 0
-62 -308 303 0
-62 308 -303 0
-63 -308 303 0
-63 308 -303 0
-64 -303 308 0
-64 -299 308 0
-64 -308 303 299 0
-65 -308 303 0
-65 308 -303 0
-66 -308 303 0
-66 308 -303 0
-67 -303 308 0
-67 -300 308 0
-67 -308 303 300 0
-68 -308 303 0
-68 308 -303 0
-69 -303 308 0
-69 -301 308 0
-69 -308 303 301 0
-70 -303 308 0
-70 -302 308 0
-70 -308 303 302 0
-87 -308 303 0
-87 308 -303 0
-71 -309 304 0
-71 -309 305 0
-71 309 -304 -305 0
-72 -309 304 0
-72 -309 306 0
-72 309 -304 -306 0
-73 -309 304 0
-73 -309 307 0
-73 309 -304 -307 0
-74 -309 304 0
-74 -309 308 0
-74 309 -304 -308 0
-75 -309 304 0
-75 309 -304 0
-76 -309 304 0
-76 309 -304 0
-77 -309 304 0
-77 309 -304 0
-78 -309 304 0
-78 309 -304 0
-79 -309 304 0
-79 309 -304 0
-80 -309 304 0
-80 309 -304 0
-88 -309 304 0
-88 309 -304 0
-71 -305 310 0
-71 -304 310 0
-71 -310 305 304 0
-72 -310 305 0
-72 310 -305 0
-73 -310 305 0
-73 310 -305 0
-74 -310 305 0
-74 310 -305 0
-75 -310 305 0
-75 -310 306 0
-75 310 -305 -306 0
-76 -310 305 0
-76 -310 307 0
-76 310 -305 -307 0
-77 -310 305 0
-77 -310 308 0
-77 310 -305 -308 0
-78 -310 305 0
-78 310 -305 0
-79 -310 305 0
-79 310 -305 0
-80 -310 305 0
-80 310 -305 0
-88 -310 305 0
-88 310 -305 0
-71 -311 306 0
-71 311 -306 0
-72 -306 311 0
-72 -304 311 0
-72 -311 306 304 0
-73 -311 306 0
-73 311 -306 0
-74 -311 306 0
-74 311 -306 0
-75 -306 311 0
-75 -305 311 0
-75 -311 306 305 0
-76 -311 306 0
-76 311 -306 0
-77 -311 306 0
-77 311 -306 0
-78 -311 306 0
-78 -311 307 0
-78 311 -306 -307 0
-79 -311 306 0
-79 -311 308 0
-79 311 -306 -308 0
-80 -311 306 0
-80 311 -306 0
-88 -311 306 0
-88 311 -306 0
-71 -312 307 0
-71 312 -307 0
-72 -312 307 0
-72 312 -307 0
-73 -307 312 0
-73 -304 312 0
-73 -312 307 304 0
-74 -312 307 0
-74 312 -307 0
-75 -312 307 0
-75 312 -307 0
-76 -307 312 0
-76 -305 312 0
-76 -312 307 305 0
-77 -312 307 0
-77 312 -307 0
-78 -307 312 0
-78 -306 312 0
-78 -312 307 306 0
-79 -312 307 0
-79 312 -307 0
-80 -312 307 0
-80 -312 308 0
-80 312 -307 -308 0
-88 -312 307 0
-88 312 -307 0
-71 -313 308 0
-71 313 -308 0
-72 -313 308 0
-72 313 -308 0
-73 -313 308 0
-73 313 -308 0
-74 -308 313 0
-74 -304 313 0
-74 -313 308 304 0
-75 -313 308 0
-75 313 -308 0
-76 -313 308 0
-76 313 -308 0
-77 -308 313 0
-77 -305 313 0
-77 -313 308 305 0
-78 -313 308 0
-78 313 -308 0
-79 -308 313 0
-79 -306 313 0
-79 -313 308 306 0
-80 -308 313 0
-80 -307 313 0
-80 -313 308 307 0
-88 -313 308 0
-88 313 -308 0
-314 0
-1 -319 314 0
-1 -319 315 0
-1 319 -314 -315 0
-2 -319 314 0
-2 -319 316 0
-2 319 -314 -316 0
-3 -319 314 0
-3 -319 317 0
-3 319 -314 -317 0
-4 -319 314 0
-4 -319 318 0
-4 319 -314 -318 0
-5 -319 314 0
-5 319 -314 0
-6 -319 314 0
-6 319 -314 0
-7 -319 314 0
-7 319 -314 0
-8 -319 314 0
-8 319 -314 0
-9 -319 314 0
-9 319 -314 0
-10 -319 314 0
-10 319 -314 0
-81 -319 314 0
-81 319 -314 0
315 0
-1 -315 320 0
-1 -314 320 0
-1 -320 315 314 0
-2 -320 315 0
-2 320 -315 0
-3 -320 315 0
-3 320 -315 0
-4 -320 315 0
-4 320 -315 0
-5 -320 315 0
-5 -320 316 0
-5 320 -315 -316 0
-6 -320 315 0
-6 -320 317 0
-6 320 -315 -317 0
-7 -320 315 0
-7 -320 318 0
-7 320 -315 -318 0
-8 -320 315 0
-8 320 -315 0
-9 -320 315 0
-9 320 -315 0
-10 -320 315 0
-10 320 -315 0
-81 -320 315 0
-81 320 -315 0
-316 0
-1 -321 316 0
-1 321 -316 0
-2 -316 321 0
-2 -314 321 0
-2 -321 316 314 0
-3 -321 316 0
-3 321 -316 0
-4 -321 316 0
-4 321 -316 0
-5 -316 321 0
-5 -315 321 0
-5 -321 316 315 0
-6 -321 316 0
-6 321 -316 0
-7 -321 316 0
-7 321 -316 0
-8 -321 316 0
-8 -321 317 0
-8 321 -316 -317 0
-9 -321 316 0
-9 -321 318 0
-9 321 -316 -318 0
-10 -321 316 0
-10 321 -316 0
-81 -321 316 0
-81 321 -316 0
-317 0
-1 -322 317 0
-1 322 -317 0
-2 -322 317 0
-2 322 -317 0
-3 -317 322 0
-3 -314 322 0
-3 -322 317 314 0
-4 -322 317 0
-4 322 -317 0
-5 -322 317 0
-5 322 -317 0
-6 -317 322 0
-6 -315 322 0
-6 -322 317 315 0
-7 -322 317 0
-7 322 -317 0
-8 -317 322 0
-8 -316 322 0
-8 -322 317 316 0
-9 -322 317 0
-9 322 -317 0
-10 -322 317 0
-10 -322 318 0
-10 322 -317 -318 0
-81 -322 317 0
-81 322 -317 0
318 0
-1 -323 318 0
-1 323 -318 0
-2 -323 318 0
-2 323 -318 0
-3 -323 318 0
-3 323 -318 0
-4 -318 323 0
-4 -314 323 0
-4 -323 318 314 0
-5 -323 318 0
-5 323 -318 0
-6 -323 318 0
-6 323 -318 0
-7 -318 323 0
-7 -315 323 0
-7 -323 318 315 0
-8 -323 318 0
-8 323 -318 0
-9 -318 323 0
-9 -316 323 0
-9 -323 318 316 0
-10 -318 323 0
-10 -317 323 0
-10 -323 318 317 0
-81 -323 318 0
-81 323 -318 0
-11 -324 319 0
-11 -324 320 0
-11 324 -319 -320 0
-12 -324 319 0
-12 -324 321 0
-12 324 -319 -321 0
-13 -324 319 0
-13 -324 322 0
-13 324 -319 -322 0
-14 -324 319 0
-14 -324 323 0
-14 324 -319 -323 0
-15 -324 319 0
-15 324 -319 0
-16 -324 319 0
-16 324 -319 0
-17 -324 319 0
-17 324 -319 0
-18 -324 319 0
-18 324 -319 0
-19 -324 319 0
-19 324 -319 0
-20 -324 319 0
-20 324 -319 0
-82 -324 319 0
-82 324 -319 0
-11 -320 325 0
-11 -319 325 0
-11 -325 320 319 0
-12 -325 320 0
-12 325 -320 0
-13 -325 320 0
-13 325 -320 0
-14 -325 320 0
-14 325 -320 0
-15 -325 320 0
-15 -325 321 0
-15 325 -320 -321 0
-16 -325 320 0
-16 -325 322 0
-16 325 -320 -322 0
-17 -325 320 0
-17 -325 323 0
-17 325 -320 -323 0
-18 -325 320 0
-18 325 -320 0
-19 -325 320 0
-19 325 -320 0
-20 -325 320 0
-20 325 -320 0
-82 -325 320 0
-82 325 -320 0
-11 -326 321 0
-11 326 -321 0
-12 -321 326 0
-12 -319 326 0
-12 -326 321 319 0
-13 -326 321 0
-13 326 -321 0
-14 -326 321 0
-14 326 -321 0
-15 -321 326 0
-15 -320 326 0
-15 -326 321 320 0
-16 -326 321 0
-16 326 -321 0
-17 -326 321 0
-17 326 -321 0
-18 -326 321 0
-18 -326 322 0
-18 326 -321 -322 0
-19 -326 321 0
-19 -326 323 0
-19 326 -321 -323 0
-20 -326 321 0
-20 326 -321 0
-82 -326 321 0
-82 326 -321 0
-11 -327 322 0
-11 327 -322 0
-12 -327 322 0
-12 327 -322 0
-13 -322 327 0
-13 -319 327 0
-13 -327 322 319 0
-14 -327 322 0
-14 327 -322 0
-15 -327 322 0
-15 327 -322 0
-16 -322 327 0
-16 -320 327 0
-16 -327 322 320 0
-17 -327 322 0
-17 327 -322 0
-18 -322 327 0
-18 -321 327 0
-18 -327 322 321 0
-19 -327 322 0
-19 327 -322 0
-20 -327 322 0
-20 -327 323 0
-20 327 -322 -323 0
-82 -327 322 0
-82 327 -322 0
-11 -328 323 0
-11 328 -323 0
-12 -328 323 0
-12 328 -323 0
-13 -328 323 0
-13 328 -323 0
-14 -323 328 0
-14 -319 328 0
-14 -328 323 319 0
-15 -328 323 0
-15 328 -323 0
-16 -328 323 0
-16 328 -323 0
-17 -323 328 0
-17 -320 328 0
-17 -328 323 320 0
-18 -328 323 0
-18 328 -323 0
-19 -323 328 0
-19 -321 328 0
-19 -328 323 321 0
-20 -323 328 0
-20 -322 328 0
-20 -328 323 322 0
-82 -328 323 0
-82 328 -323 0
-21 -329 324 0
-21 -329 325 0
-21 329 -324 -325 0
-22 -329 324 0
-22 -329 326 0
-22 329 -324 -326 0
-23 -329 324 0
-23 -329 327 0
-23 329 -324 -327 0
-24 -329 324 0
-24 -329 328 0
-24 329 -324 -328 0
-25 -329 324 0
-25 329 -324 0
-26 -329 324 0
-26 329 -324 0
-27 -329 324 0
-27 329 -324 0
-28 -329 324 0
-28 329 -324 0
-29 -329 324 0
-29 329 -324 0
-30 -329 324 0
-30 329 -324 0
-83 -329 324 0
-83 329 -324 0
-21 -325 330 0
-21 -324 330 0
-21 -330 325 324 0
-22 -330 325 0
-22 330 -325 0
-23 -330 325 0
-23 330 -325 0
-24 -330 325 0
-24 330 -325 0
-25 -330 325 0
-25 -330 326 0
-25 330 -325 -326 0
-26 -330 325 0
-26 -330 327 0
-26 330 -325 -327 0
-27 -330 325 0
-27 -330 328 0
-27 330 -325 -328 0
-28 -330 325 0
-28 330 -325 0
-29 -330 325 0
-29 330 -325 0
-30 -330 325 0
-30 330 -325 0
-83 -330 325 0
-83 330 -325 0
-21 -331 326 0
-21 331 -326 0
-22 -326 331 0
-22 -324 331 0
-22 -331 326 324 0
-23 -331 326 0
-23 331 -326 0
-24 -331 326 0
-24 331 -326 0
-25 -326 331 0
-25 -325 331 0
-25 -331 326 325 0
-26 -331 326 0
-26 331 -326 0
-27 -331 326 0
-27 331 -326 0
-28 -331 326 0
-28 -331 327 0
-28 331 -326 -327 0
-29 -331 326 0
-29 -331 328 0
-29 331 -326 -328 0
-30 -331 326 0
-30 331 -326 0
-83 -331 326 0
-83 331 -326 0
-21 -332 327 0
-21 332 -327 0
-22 -332 327 0
-22 332 -327 0
-23 -327 332 0
-23 -324 332 0
-23 -332 327 324 0
-24 -332 327 0
-24 332 -327 0
-25 -332 327 0
-25 332 -327 0
-26 -327 332 0
-26 -325 332 0
-26 -332 327 325 0
-27 -332 327 0
-27 332 -327 0
-28 -327 332 0
-28 -326 332 0
-28 -332 327 326 0
-29 -332 327 0
-29 332 -327 0
-30 -332 327 0
-30 -332 328 0
-30 332 -327 -328 0
-83 -332 327 0
-83 332 -327 0
-21 -333 328 0
-21 333 -328 0
-22 -333 328 0
-22 333 -328 0
-23 -333 328 0
-23 333 -328 0
-24 -328 333 0
-24 -324 333 0
-24 -333 328 324 0
-25 -333 328 0
-25 333 -328 0
-26 -333 328 0
-26 333 -328 0
-27 -328 333 0
-27 -325 333 0
-27 -333 328 325 0
-28 -333 328 0
-28 333 -328 0
-29 -328 333 0
-29 -326 333 0
-29 -333 328 326 0
-30 -328 333 0
-30 -327 333 0
-30 -333 328 327 0
-83 -333 328 0
-83 333 -328 0
-31 -334 329 0
-31 -334 330 0
-31 334 -329 -330 0
-32 -334 329 0
-32 -334 331 0
-32 334 -329 -331 0
-33 -334 329 0
-33 -334 332 0
-33 334 -329 -332 0
-34 -334 329 0
-34 -334 333 0
-34 334 -329 -333 0
-35 -334 329 0
-35 334 -329 0
-36 -334 329 0
-36 334 -329 0
-37 -334 329 0
-37 334 -329 0
-38 -334 329 0
-38 334 -329 0
-39 -334 329 0
-39 334 -329 0
-40 -334 329 0
-40 334 -329 0
-84 -334 329 0
-84 334 -329 0
-31 -330 335 0
-31 -329 335 0
-31 -335 330 329 0
-32 -335 330 0
-32 335 -330 0
-33 -335 330 0
-33 335 -330 0
-34 -335 330 0
-34 335 -330 0
-35 -335 330 0
-35 -335 331 0
-35 335 -330 -331 0
-36 -335 330 0
-36 -335 332 0
-36 335 -330 -332 0
-37 -335 330 0
-37 -335 333 0
-37 335 -330 -333 0
-38 -335 330 0
-38 335 -330 0
-39 -335 330 0
-39 335 -330 0
-40 -335 330 0
-40 335 -330 0
-84 -335 330 0
-84 335 -330 0
-31 -336 331 0
-31 336 -331 0
-32 -331 336 0
-32 -329 336 0
-32 -336 331 329 0
-33 -336 331 0
-33 336 -331 0
-34 -336 331 0
-34 336 -331 0
-35 -331 336 0
-35 -330 336 0
-35 -336 331 330 0
-36 -336 331 0
-36 336 -331 0
-37 -336 331 0
-37 336 -331 0
-38 -336 331 0
-38 -336 332 0
-38 336 -331 -332 0
-39 -336 331 0
-39 -336 333 0
-39 336 -331 -333 0
-40 -336 331 0
-40 336 -331 0
-84 -336 331 0
-84 336 -331 0
-31 -337 332 0
-31 337 -332 0
-32 -337 332 0
-32 337 -332 0
-33 -332 337 0
-33 -329 337 0
-33 -337 332 329 0
-34 -337 332 0
-34 337 -332 0
-35 -337 332 0
-35 337 -332 0
-36 -332 337 0
-36 -330 337 0
-36 -337 332 330 0
-37 -337 332 0
-37 337 -332 0
-38 -332 337 0
-38 -331 337 0
-38 -337 332 331 0
-39 -337 332 0
-39 337 -332 0
-40 -337 332 0
-40 -337 333 0
-40 337 -332 -333 0
-84 -337 332 0
-84 337 -332 0
-31 -338 333 0
-31 338 -333 0
-32 -338 333 0
-32 338 -333 0
-33 -338 333 0
-33 338 -333 0
-34 -333 338 0
-34 -329 338 0
-34 -338 333 329 0
-35 -338 333 0
-35 338 -333 0
-36 -338 333 0
-36 338 -333 0
-37 -333 338 0
-37 -330 338 0
-37 -338 333 330 0
-38 -338 333 0
-38 338 -333 0
-39 -333 338 0
-39 -331 338 0
-39 -338 333 331 0
-40 -333 338 0
-40 -332 338 0
-40 -338 333 332 0
-84 -338 333 0
-84 338 -333 0
-41 -339 334 0
-41 -339 335 0
-41 339 -334 -335 0
-42 -339 334 0
-42 -339 336 0
-42 339 -334 -336 0
-43 -339 334 0
-43 -339 337 0
-43 339 -334 -337 0
-44 -339 334 0
-44 -339 338 0
-44 339 -334 -338 0
-45 -339 334 0
-45 339 -334 0
-46 -339 334 0
-46 339 -334 0
-47 -339 334 0
-47 339 -334 0
-48 -339 334 0
-48 339 -334 0
-49 -339 334 0
-49 339 -334 0
-50 -339 334 0
-50 339 -334 0
-85 -339 334 0
-85 339 -334 0
-41 -335 340 0
-41 -334 340 0
-41 -340 335 334 0
-42 -340 335 0
-42 340 -335 0
-43 -340 335 0
-43 340 -335 0
-44 -340 335 0
-44 340 -335 0
-45 -340 335 0
-45 -340 336 0
-45 340 -335 -336 0
-46 -340 335 0
-46 -340 337 0
-46 340 -335 -337 0
-47 -340 335 0
-47 -340 338 0
-47 340 -335 -338 0
-48 -340 335 0
-48 340 -335 0
-49 -340 335 0
-49 340 -335 0
-50 -340 335 0
-50 340 -335 0
-85 -340 335 0
-85 340 -335 0
-41 -341 336 0
-41 341 -336 0
-42 -336 341 0
-42 -334 341 0
-42 -341 336 334 0
-43 -341 336 0
-43 341 -336 0
-44 -341 336 0
-44 341 -336 0
-45 -336 341 0
-45 -335 341 0
-45 -341 336 335 0
-46 -341 336 0
-46 341 -336 0
-47 -341 336 0
-47 341 -336 0
-48 -341 336 0
-48 -341 337 0
-48 341 -336 -337 0
-49 -341 336 0
-49 -341 338 0
-49 341 -336 -338 0
-50 -341 336 0
-50 341 -336 0
-85 -341 336 0
-85 341 -336 0
-41 -342 337 0
-41 342 -337 0
-42 -342 337 0
-42 342 -337 0
-43 -337 342 0
-43 -334 342 0
-43 -342 337 334 0
-44 -342 337 0
-44 342 -337 0
-45 -342 337 0
-45 342 -337 0
-46 -337 342 0
-46 -335 342 0
-46 -342 337 335 0
-47 -342 337 0
-47 342 -337 0
-48 -337 342 0
-48 -336 342 0
-48 -342 337 336 0
-49 -342 337 0
-49 342 -337 0
-50 -342 337 0
-50 -342 338 0
-50 342 -337 -338 0
-85 -342 337 0
-85 342 -337 0
-41 -343 338 0
-41 343 -338 0
-42 -343 338 0
-42 343 -338 0
-43 -343 338 0
-43 343 -338 0
-44 -338 343 0
-44 -334 343 0
-44 -343 338 334 0
-45 -343 338 0
-45 343 -338 0
-46 -343 338 0
-46 343 -338 0
-47 -338 343 0
-47 -335 343 0
-47 -343 338 335 0
-48 -343 338 0
-48 343 -338 0
-49 -338 343 0
-49 -336 343 0
-49 -343 338 336 0
-50 -338 343 0
-50 -337 343 0
-50 -343 338 337 0
-85 -343 338 0
-85 343 -338 0
-51 -344 339 0
-51 -344 340 0
-51 344 -339 -340 0
-52 -344 339 0
-52 -344 341 0
-52 344 -339 -341 0
-53 -344 339 0
-53 -344 342 0
-53 344 -339 -342 0
-54 -344 339 0
-54 -344 343 0
-54 344 -339 -343 0
-55 -344 339 0
-55 344 -339 0
-56 -344 339 0
-56 344 -339 0
-57 -344 339 0
-57 344 -339 0
-58 -344 339 0
-58 344 -339 0
-59 -344 339 0
-59 344 -339 0
-60 -344 339 0
-60 344 -339 0
-86 -344 339 0
-86 344 -339 0
-51 -340 345 0
-51 -339 345 0
-51 -345 340 339 0
-52 -345 340 0
-52 345 -340 0
-53 -345 340 0
-53 345 -340 0
-54 -345 340 0
-54 345 -340 0
-55 -345 340 0
-55 -345 341 0
-55 345 -340 -341 0
-56 -345 340 0
-56 -345 342 0
-56 345 -340 -342 0
-57 -345 340 0
-57 -345 343 0
-57 345 -340 -343 0
-58 -345 340 0
-58 345 -340 0
-59 -345 340 0
-59 345 -340 0
-60 -345 340 0
-60 345 -340 0
-86 -345 340 0
-86 345 -340 0
-51 -346 341 0
-51 346 -341 0
-52 -341 346 0
-52 -339 346 0
-52 -346 341 339 0
-53 -346 341 0
-53 346 -341 0
-54 -346 341 0
-54 346 -341 0
-55 -341 346 0
-55 -340 346 0
-55 -346 341 340 0
-56 -346 341 0
-56 346 -341 0
-57 -346 341 0
-57 346 -341 0
-58 -346 341 0
-58 -346 342 0
-58 346 -341 -342 0
-59 -346 341 0
-59 -346 343 0
-59 346 -341 -343 0
-60 -346 341 0
-60 346 -341 0
-86 -346 341 0
-86 346 -341 0
-51 -347 342 0
-51 347 -342 0
-52 -347 342 0
-52 347 -342 0
-53 -342 347 0
-53 -339 347 0
-53 -347 342 339 0
-54 -347 342 0
-54 347 -342 0
-55 -347 342 0
-55 347 -342 0
-56 -342 347 0
-56 -340 347 0
-56 -347 342 340 0
-57 -347 342 0
-57 347 -342 0
-58 -342 347 0
-58 -341 347 0
-58 -347 342 341 0
-59 -347 342 0
-59 347 -342 0
-60 -347 342 0
-60 -347 343 0
-60 347 -342 -343 0
-86 -347 342 0
-86 347 -342 0
-51 -348 343 0
-51 348 -343 0
-52 -348 343 0
-52 348 -343 0
-53 -348 343 0
-53 348 -343 0
-54 -343 348 0
-54 -339 348 0
-54 -348 343 339 0
-55 -348 343 0
-55 348 -343 0
-56 -348 343 0
-56 348 -343 0
-57 -343 348 0
-57 -340 348 0
-57 -348 343 340 0
-58 -348 343 0
-58 348 -343 0
-59 -343 348 0
-59 -341 348 0
-59 -348 343 341 0
-60 -343 348 0
-60 -342 348 0
-60 -348 343 342 0
-86 -348 343 0
-86 348 -343 0
-61 -349 344 0
-61 -349 345 0
-61 349 -344 -345 0
-62 -349 344 0
-62 -349 346 0
-62 349 -344 -346 0
-63 -349 344 0
-63 -349 347 0
-63 349 -344 -347 0
-64 -349 344 0
-64 -349 348 0
-64 349 -344 -348 0
-65 -349 344 0
-65 349 -344 0
-66 -349 344 0
-66 349 -344 0
-67 -349 344 0
-67 349 -344 0
-68 -349 344 0
-68 349 -344 0
-69 -349 344 0
-69 349 -344 0
-70 -349 344 0
-70 349 -344 0
-87 -349 344 0
-87 349 -344 0
-61 -345 350 0
-61 -344 350 0
-61 -350 345 344 0
-62 -350 345 0
-62 350 -345 0
-63 -350 345 0
-63 350 -345 0
-64 -350 345 0
-64 350 -345 0
-65 -350 345 0
-65 -350 346 0
-65 350 -345 -346 0
-66 -350 345 0
-66 -350 347 0
-66 350 -345 -347 0
-67 -350 345 0
-67 -350 348 0
-67 350 -345 -348 0
-68 -350 345 0
-68 350 -345 0
-69 -350 345 0
-69 350 -345 0
-70 -350 345 0
-70 350 -345 0
-87 -350 345 0
-87 350 -345 0
-61 -351 346 0
-61 351 -346 0
-62 -346 351 0
-62 -344 351 0
-62 -351 346 344 0
-63 -351 346 0
-63 351 -346 0
-64 -351 346 0
-64 351 -346 0
-65 -346 351 0
-65 -345 351 0
-65 -351 346 345 0
-66 -351 346 0
-66 351 -346 0
-67 -351 346 0
-67 351 -346 0
-68 -351 346 0
-68 -351 347 0
-68 351 -346 -347 0
-69 -351 346 0
-69 -351 348 0
-69 351 -346 -348 0
-70 -351 346 0
-70 351 -346 0
-87 -351 346 0
-87 351 -346 0
-61 -352 347 0
-61 352 -347 0
-62 -352 347 0
-62 352 -347 0
-63 -347 352 0
-63 -344 352 0
-63 -352 347 344 0
-64 -352 347 0
-64 352 -347 0
-65 -352 347 0
-65 352 -347 0
-66 -347 352 0
-66 -345 352 0
-66 -352 347 345 0
-67 -352 347 0
-67 352 -347 0
-68 -347 352 0
-68 -346 352 0
-68 -352 347 346 0
-69 -352 347 0
-69 352 -347 0
-70 -352 347 0
-70 -352 348 0
-70 352 -347 -348 0
-87 -352 347 0
-87 352 -347 0
-61 -353 348 0
-61 353 -348 0
-62 -353 348 0
-62 353 -348 0
-63 -353 348 0
-63 353 -348 0
-64 -348 353 0
-64 -344 353 0
-64 -353 348 344 0
-65 -353 348 0
-65 353 -348 0
-66 -353 348 0
-66 353 -348 0
-67 -348 353 0
-67 -345 353 0
-67 -353 348 345 0
-68 -353 348 0
-68 353 -348 0
-69 -348 353 0
-69 -346 353 0
-69 -353 348 346 0
-70 -348 353 0
-70 -347 353 0
-70 -353 348 347 0
-87 -353 348 0
-87 353 -348 0
-71 -354 349 0
-71 -354 350 0
-71 354 -349 -350 0
-72 -354 349 0
-72 -354 351 0
-72 354 -349 -351 0
-73 -354 349 0
-73 -354 352 0
-73 354 -349 -352 0
-74 -354 349 0
-74 -354 353 0
-74 354 -349 -353 0
-75 -354 349 0
-75 354 -349 0
-76 -354 349 0
-76 354 -349 0
-77 -354 349 0
-77 354 -349 0
-78 -354 349 0
-78 354 -349 0
-79 -354 349 0
-79 354 -349 0
-80 -354 349 0
-80 354 -349 0
-88 -354 349 0
-88 354 -349 0
-71 -350 355 0
-71 -349 355 0
-71 -355 350 349 0
-72 -355 350 0
-72 355 -350 0
-73 -355 350 0
-73 355 -350 0
-74 -355 350 0
-74 355 -350 0
-75 -355 350 0
-75 -355 351 0
-75 355 -350 -351 0
-76 -355 350 0
-76 -355 352 0
-76 355 -350 -352 0
-77 -355 350 0
-77 -355 353 0
-77 355 -350 -353 0
-78 -355 350 0
-78 355 -350 0
-79 -355 350 0
-79 355 -350 0
-80 -355 350 0
-80 355 -350 0
-88 -355 350 0
-88 355 -350 0
-71 -356 351 0
-71 356 -351 0
-72 -351 356 0
-72 -349 356 0
-72 -356 351 349 0
-73 -356 351 0
-73 356 -351 0
-74 -356 351 0
-74 356 -351 0
-75 -351 356 0
-75 -350 356 0
-75 -356 351 350 0
-76 -356 351 0
-76 356 -351 0
-77 -356 351 0
-77 356 -351 0
-78 -356 351 0
-78 -356 352 0
-78 356 -351 -352 0
-79 -356 351 0
-79 -356 353 0
-79 356 -351 -353 0
-80 -356 351 0
-80 356 -351 0
-88 -356 351 0
-88 356 -351 0
-71 -357 352 0
-71 357 -352 0
-72 -357 352 0
-72 357 -352 0
-73 -352 357 0
-73 -349 357 0
-73 -357 352 349 0
-74 -357 352 0
-74 357 -352 0
-75 -357 352 0
-75 357 -352 0
-76 -352 357 0
-76 -350 357 0
-76 -357 352 350 0
-77 -357 352 0
-77 357 -352 0
-78 -352 357 0
-78 -351 357 0
-78 -357 352 351 0
-79 -357 352 0
-79 357 -352 0
-80 -357 352 0
-80 -357 353 0
-80 357 -352 -353 0
-88 -357 352 0
-88 357 -352 0
-71 -358 353 0
-71 358 -353 0
-72 -358 353 0
-72 358 -353 0
-73 -358 353 0
-73 358 -353 0
-74 -353 358 0
-74 -349 358 0
-74 -358 353 349 0
-75 -358 353 0
-75 358 -353 0
-76 -358 353 0
-76 358 -353 0
-77 -353 358 0
-77 -350 358 0
-77 -358 353 350 0
-78 -358 353 0
-78 358 -353 0
-79 -353 358 0
-79 -351 358 0
-79 -358 353 351 0
-80 -353 358 0
-80 -352 358 0
-80 -358 353 352 0
-88 -358 353 0
-88 358 -353 0
-359 0
-1 -364 359 0
-1 -364 360 0
-1 364 -359 -360 0
-2 -364 359 0
-2 -364 361 0
-2 364 -359 -361 0
-3 -364 359 0
-3 -364 362 0
-3 364 -359 -362 0
-4 -364 359 0
-4 -364 363 0
-4 364 -359 -363 0
-5 -364 359 0
-5 364 -359 0
-6 -364 359 0
-6 364 -359 0
-7 -364 359 0
-7 364 -359 0
-8 -364 359 0
-8 364 -359 0
-9 -364 359 0
-9 364 -359 0
-10 -364 359 0
-10 364 -359 0
-81 -364 359 0
-81 364 -359 0
360 0
-1 -360 365 0
-1 -359 365 0
-1 -365 360 359 0
-2 -365 360 0
-2 365 -360 0
-3 -365 360 0
-3 365 -360 0
-4 -365 360 0
-4 365 -360 0
-5 -365 360 0
-5 -365 361 0
-5 365 -360 -361 0
-6 -365 360 0
-6 -365 362 0
-6 365 -360 -362 0
-7 -365 360 0
-7 -365 363 0
-7 365 -360 -363 0
-8 -365 360 0
-8 365 -360 0
-9 -365 360 0
-9 365 -360 0
-10 -365 360 0
-10 365 -360 0
-81 -365 360 0
-81 365 -360 0
-361 0
-1 -366 361 0
-1 366 -361 0
-2 -361 366 0
-2 -359 366 0
-2 -366 361 359 0
-3 -366 361 0
-3 366 -361 0
-4 -366 361 0
-4 366 -361 0
-5 -361 366 0
-5 -360 366 0
-5 -366 361 360 0
-6 -366 361 0
-6 366 -361 0
-7 -366 361 0
-7 366 -361 0
-8 -366 361 0
-8 -366 362 0
-8 366 -361 -362 0
-9 -366 361 0
-9 -366 363 0
-9 366 -361 -363 0
-10 -366 361 0
-10 366 -361 0
-81 -366 361 0
-81 366 -361 0
362 0
-1 -367 362 0
-1 367 -362 0
-2 -367 362 0
-2 367 -362 0
-3 -362 367 0
-3 -359 367 0
-3 -367 362 359 0
-4 -367 362 0
-4 367 -362 0
-5 -367 362 0
-5 367 -362 0
-6 -362 367 0
-6 -360 367 0
-6 -367 362 360 0
-7 -367 362 0
-7 367 -362 0
-8 -362 367 0
-8 -361 367 0
-8 -367 362 361 0
-9 -367 362 0
-9 367 -362 0
-10 -367 362 0
-10 -367 363 0
-10 367 -362 -363 0
-81 -367 362 0
-81 367 -362 0
-363 0
-1 -368 363 0
-1 368 -363 0
-2 -368 363 0
-2 368 -363 0
-3 -368 363 0
-3 368 -363 0
-4 -363 368 0
-4 -359 368 0
-4 -368 363 359 0
-5 -368 363 0
-5 368 -363 0
-6 -368 363 0
-6 368 -363 0
-7 -363 368 0
-7 -360 368 0
-7 -368 363 360 0
-8 -368 363 0
-8 368 -363 0
-9 -363 368 0
-9 -361 368 0
-9 -368 363 361 0
-10 -363 368 0
-10 -362 368 0
-10 -368 363 362 0
-81 -368 363 0
-81 368 -363 0
-11 -369 364 0
-11 -369 365 0
-11 369 -364 -365 0
-12 -369 364 0
-12 -369 366 0
-12 369 -364 -366 0
-13 -369 364 0
-13 -369 367 0
-13 369 -364 -367 0
-14 -369 364 0
-14 -369 368 0
-14 369 -364 -368 0
-15 -369 364 0
-15 369 -364 0
-16 -369 364 0
-16 369 -364 0
-17 -369 364 0
-17 369 -364 0
-18 -369 364 0
-18 369 -364 0
-19 -369 364 0
-19 369 -364 0
-20 -369 364 0
-20 369 -364 0
-82 -369 364 0
-82 369 -364 0
-11 -365 370 0
-11 -364 370 0
-11 -370 365 364 0
-12 -370 365 0
-12 370 -365 0
-13 -370 365 0
-13 370 -365 0
-14 -370 365 0
-14 370 -365 0
-15 -370 365 0
-15 -370 366 0
-15 370 -365 -366 0
-16 -370 365 0
-16 -370 367 0
-16 370 -365 -367 0
-17 -370 365 0
-17 -370 368 0
-17 370 -365 -368 0
-18 -370 365 0
-18 370 -365 0
-19 -370 365 0
-19 370 -365 0
-20 -370 365 0
-20 370 -365 0
-82 -370 365 0
-82 370 -365 0
-11 -371 366 0
-11 371 -366 0
-12 -366 371 0
-12 -364 371 0
-12 -371 366 364 0
-13 -371 366 0
-13 371 -366 0
-14 -371 366 0
-14 371 -366 0
-15 -366 371 0
-15 -365 371 0
-15 -371 366 365 0
-16 -371 366 0
-16 371 -366 0
-17 -371 366 0
-17 371 -366 0
-18 -371 366 0
-18 -371 367 0
-18 371 -366 -367 0
-19 -371 366 0
-19 -371 368 0
-19 371 -366 -368 0
-20 -371 366 0
-20 371 -366 0
-82 -371 366 0
-82 371 -366 0
-11 -372 367 0
-11 372 -367 0
-12 -372 367 0
-12 372 -367 0
-13 -367 372 0
-13 -364 372 0
-13 -372 367 364 0
-14 -372 367 0
-14 372 -367 0
-15 -372 367 0
-15 372 -367 0
-16 -367 372 0
-16 -365 372 0
-16 -372 367 365 0
-17 -372 367 0
-17 372 -367 0
-18 -367 372 0
-18 -366 372 0
-18 -372 367 366 0
-19 -372 367 0
-19 372 -367 0
-20 -372 367 0
-20 -372 368 0
-20 372 -367 -368 0
-82 -372 367 0
-82 372 -367 0
-11 -373 368 0
-11 373 -368 0
-12 -373 368 0
-12 373 -368 0
-13 -373 368 0
-13 373 -368 0
-14 -368 373 0
-14 -364 373 0
-14 -373 368 364 0
-15 -373 368 0
-15 373 -368 0
-16 -373 368 0
-16 373 -368 0
-17 -368 373 0
-17 -365 373 0
-17 -373 368 365 0
-18 -373 368 0
-18 373 -368 0
-19 -368 373 0
-19 -366 373 0
-19 -373 368 366 0
-20 -368 373 0
-20 -367 373 0
-20 -373 368 367 0
-82 -373 368 0
-82 373 -368 0
-21 -374 369 0
-21 -374 370 0
-21 374 -369 -370 0
-22 -374 369 0
-22 -374 371 0
-22 374 -369 -371 0
-23 -374 369 0
-23 -374 372 0
-23 374 -369 -372 0
-24 -374 369 0
-24 -374 373 0
-24 374 -369 -373 0
-25 -374 369 0
-25 374 -369 0
-26 -374 369 0
-26 374 -369 0
-27 -374 369 0
-27 374 -369 0
-28 -374 369 0
-28 374 -369 0
-29 -374 369 0
-29 374 -369 0
-30 -374 369 0
-30 374 -369 0
-83 -374 369 0
-83 374 -369 0
-21 -370 375 0
-21 -369 375 0
-21 -375 370 369 0
-22 -375 370 0
-22 375 -370 0
-23 -375 370 0
-23 375 -370 0
-24 -375 370 0
-24 375 -370 0
-25 -375 370 0
-25 -375 371 0
-25 375 -370 -371 0
-26 -375 370 0
-26 -375 372 0
-26 375 -370 -372 0
-27 -375 370 0
-27 -375 373 0
-27 375 -370 -373 0
-28 -375 370 0
-28 375 -370 0
-29 -375 370 0
-29 375 -370 0
-30 -375 370 0
-30 375 -370 0
-83 -375 370 0
-83 375 -370 0
-21 -376 371 0
-21 376 -371 0
-22 -371 376 0
-22 -369 376 0
-22 -376 371 369 0
-23 -376 371 0
-23 376 -371 0
-24 -376 371 0
-24 376 -371 0
-25 -371 376 0
-25 -370 376 0
-25 -376 371 370 0
-26 -376 371 0
-26 376 -371 0
-27 -376 371 0
-27 376 -371 0
-28 -376 371 0
-28 -376 372 0
-28 376 -371 -372 0
-29 -376 371 0
-29 -376 373 0
-29 376 -371 -373 0
-30 -376 371 0
-30 376 -371 0
-83 -376 371 0
-83 376 -371 0
-21 -377 372 0
-21 377 -372 0
-22 -377 372 0
-22 377 -372 0
-23 -372 377 0
-23 -369 377 0
-23 -377 372 369 0
-24 -377 372 0
-24 377 -372 0
-25 -377 372 0
-25 377 -372 0
-26 -372 377 0
-26 -370 377 0
-26 -377 372 370 0
-27 -377 372 0
-27 377 -372 0
-28 -372 377 0
-28 -371 377 0
-28 -377 372 371 0
-29 -377 372 0
-29 377 -372 0
-30 -377 372 0
-30 -377 373 0
-30 377 -372 -373 0
-83 -377 372 0
-83 377 -372 0
-21 -378 373 0
-21 378 -373 0
-22 -378 373 0
-22 378 -373 0
-23 -378 373 0
-23 378 -373 0
-24 -373 378 0
-24 -369 378 0
-24 -378 373 369 0
-25 -378 373 0
-25 378 -373 0
-26 -378 373 0
-26 378 -373 0
-27 -373 378 0
-27 -370 378 0
-27 -378 373 370 0
-28 -378 373 0
-28 378 -373 0
-29 -373 378 0
-29 -371 378 0
-29 -378 373 371 0
-30 -373 378 0
-30 -372 378 0
-30 -378 373 372 0
-83 -378 373 0
-83 378 -373 0
-31 -379 374 0
-31 -379 375 0
-31 379 -374 -375 0
-32 -379 374 0
-32 -379 376 0
-32 379 -374 -376 0
-33 -379 374 0
-33 -379 377 0
-33 379 -374 -377 0
-34 -379 374 0
-34 -379 378 0
-34 379 -374 -378 0
-35 -379 374 0
-35 379 -374 0
-36 -379 374 0
-36 379 -374 0
-37 -379 374 0
-37 379 -374 0
-38 -379 374 0
-38 379 -374 0
-39 -379 374 0
-39 379 -374 0
-40 -379 374 0
-40 379 -374 0
-84 -379 374 0
-84 379 -374 0
-31 -375 380 0
-31 -374 380 0
-31 -380 375 374 0
-32 -380 375 0
-32 380 -375 0
-33 -380 375 0
-33 380 -375 0
-34 -380 375 0
-34 380 -375 0
-35 -380 375 0
-35 -380 376 0
-35 380 -375 -376 0
-36 -380 375 0
-36 -380 377 0
-36 380 -375 -377 0
-37 -380 375 0
-37 -380 378 0
-37 380 -375 -378 0
-38 -380 375 0
-38 380 -375 0
-39 -380 375 0
-39 380 -375 0
-40 -380 375 0
-40 380 -375 0
-84 -380 375 0
-84 380 -375 0
-31 -381 376 0
-31 381 -376 0
-32 -376 381 0
-32 -374 381 0
-32 -381 376 374 0
-33 -381 376 0
-33 381 -376 0
-34 -381 376 0
-34 381 -376 0
-35 -376 381 0
-35 -375 381 0
-35 -381 376 375 0
-36 -381 376 0
-36 381 -376 0
-37 -381 376 0
-37 381 -376 0
-38 -381 376 0
-38 -381 377 0
-38 381 -376 -377 0
-39 -381 376 0
-39 -381 378 0
-39 381 -376 -378 0
-40 -381 376 0
-40 381 -376 0
-84 -381 376 0
-84 381 -376 0
-31 -382 377 0
-31 382 -377 0
-32 -382 377 0
-32 382 -377 0
-33 -377 382 0
-33 -374 382 0
-33 -382 377 374 0
-34 -382 377 0
-34 382 -377 0
-35 -382 377 0
-35 382 -377 0
-36 -377 382 0
-36 -375 382 0
-36 -382 377 375 0
-37 -382 377 0
-37 382 -377 0
-38 -377 382 0
-38 -376 382 0
-38 -382 377 376 0
-39 -382 377 0
-39 382 -377 0
-40 -382 377 0
-40 -382 378 0
-40 382 -377 -378 0
-84 -382 377 0
-84 382 -377 0
-31 -383 378 0
-31 383 -378 0
-32 -383 378 0
-32 383 -378 0
-33 -383 378 0
-33 383 -378 0
-34 -378 383 0
-34 -374 383 0
-34 -383 378 374 0
-35 -383 378 0
-35 383 -378 0
-36 -383 378 0
-36 383 -378 0
-37 -378 383 0
-37 -375 383 0
-37 -383 378 375 0
-38 -383 378 0
-38 383 -378 0
-39 -378 383 0
-39 -376 383 0
-39 -383 378 376 0
-40 -378 383 0
-40 -377 383 0
-40 -383 378 377 0
-84 -383 378 0
-84 383 -378 0
-41 -384 379 0
-41 -384 380 0
-41 384 -379 -380 0
-42 -384 379 0
-42 -384 381 0
-42 384 -379 -381 0
-43 -384 379 0
-43 -384 382 0
-43 384 -379 -382 0
-44 -384 379 0
-44 -384 383 0
-44 384 -379 -383 0
-45 -384 379 0
-45 384 -379 0
-46 -384 379 0
-46 384 -379 0
-47 -384 379 0
-47 384 -379 0
-48 -384 379 0
-48 384 -379 0
-49 -384 379 0
-49 384 -379 0
-50 -384 379 0
-50 384 -379 0
-85 -384 379 0
-85 384 -379 0
-41 -380 385 0
-41 -379 385 0
-41 -385 380 379 0
-42 -385 380 0
-42 385 -380 0
-43 -385 380 0
-43 385 -380 0
-44 -385 380 0
-44 385 -380 0
-45 -385 380 0
-45 -385 381 0
-45 385 -380 -381 0
-46 -385 380 0
-46 -385 382 0
-46 385 -380 -382 0
-47 -385 380 0
-47 -385 383 0
-47 385 -380 -383 0
-48 -385 380 0
-48 385 -380 0
-49 -385 380 0
-49 385 -380 0
-50 -385 380 0
-50 385 -380 0
-85 -385 380 0
-85 385 -380 0
-41 -386 381 0
-41 386 -381 0
-42 -381 386 0
-42 -379 386 0
-42 -386 381 379 0
-43 -386 381 0
-43 386 -381 0
-44 -386 381 0
-44 386 -381 0
-45 -381 386 0
-45 -380 386 0
-45 -386 381 380 0
-46 -386 381 0
-46 386 -381 0
-47 -386 381 0
-47 386 -381 0
-48 -386 381 0
-48 -386 382 0
-48 386 -381 -382 0
-49 -386 381 0
-49 -386 383 0
-49 386 -381 -383 0
-50 -386 381 0
-50 386 -381 0
-85 -386 381 0
-85 386 -381 0
-41 -387 382 0
-41 387 -382 0
-42 -387 382 0
-42 387 -382 0
-43 -382 387 0
-43 -379 387 0
-43 -387 382 379 0
-44 -387 382 0
-44 387 -382 0
-45 -387 382 0
-45 387 -382 0
-46 -382 387 0
-46 -380 387 0
-46 -387 382 380 0
-47 -387 382 0
-47 387 -382 0
-48 -382 387 0
-48 -381 387 0
-48 -387 382 381 0
-49 -387 382 0
-49 387 -382 0
-50 -387 382 0
-50 -387 383 0
-50 387 -382 -383 0
-85 -387 382 0
-85 387 -382 0
-41 -388 383 0
-41 388 -383 0
-42 -388 383 0
-42 388 -383 0
-43 -388 383 0
-43 388 -383 0
-44 -383 388 0
-44 -379 388 0
-44 -388 383 379 0
-45 -388 383 0
-45 388 -383 0
-46 -388 383 0
-46 388 -383 0
-47 -383 388 0
-47 -380 388 0
-47 -388 383 380 0
-48 -388 383 0
-48 388 -383 0
-49 -383 388 0
-49 -381 388 0
-49 -388 383 381 0
-50 -383 388 0
-50 -382 388 0
-50 -388 383 382 0
-85 -388 383 0
-85 388 -383 0
-51 -389 384 0
-51 -389 385 0
-51 389 -384 -385 0
-52 -389 384 0
-52 -389 386 0
-52 389 -384 -386 0
-53 -389 384 0
-53 -389 387 0
-53 389 -384 -387 0
-54 -389 384 0
-54 -389 388 0
-54 389 -384 -388 0
-55 -389 384 0
-55 389 -384 0
-56 -389 384 0
-56 389 -384 0
-57 -389 384 0
-57 389 -384 0
-58 -389 384 0
-58 389 -384 0
-59 -389 384 0
-59 389 -384 0
-60 -389 384 0
-60 389 -384 0
-86 -389 384 0
-86 389 -384 0
-51 -385 390 0
-51 -384 390 0
-51 -390 385 384 0
-52 -390 385 0
-52 390 -385 0
-53 -390 385 0
-53 390 -385 0
-54 -390 385 0
-54 390 -385 0
-55 -390 385 0
-55 -390 386 0
-55 390 -385 -386 0
-56 -390 385 0
-56 -390 387 0
-56 390 -385 -387 0
-57 -390 385 0
-57 -390 388 0
-57 390 -385 -388 0
-58 -390 385 0
-58 390 -385 0
-59 -390 385 0
-59 390 -385 0
-60 -390 385 0
-60 390 -385 0
-86 -390 385 0
-86 390 -385 0
-51 -391 386 0
-51 391 -386 0
-52 -386 391 0
-52 -384 391 0
-52 -391 386 384 0
-53 -391 386 0
-53 391 -386 0
-54 -391 386 0
-54 391 -386 0
-55 -386 391 0
-55 -385 391 0
-55 -391 386 385 0
-56 -391 386 0
-56 391 -386 0
-57 -391 386 0
-57 391 -386 0
-58 -391 386 0
-58 -391 387 0
-58 391 -386 -387 0
-59 -391 386 0
-59 -391 388 0
-59 391 -386 -388 0
-60 -391 386 0
-60 391 -386 0
-86 -391 386 0
-86 391 -386 0
-51 -392 387 0
-51 392 -387 0
-52 -392 387 0
-52 392 -387 0
-53 -387 392 0
-53 -384 392 0
-53 -392 387 384 0
-54 -392 387 0
-54 392 -387 0
-55 -392 387 0
-55 392 -387 0
-56 -387 392 0
-56 -385 392 0
-56 -392 387 385 0
-57 -392 387 0
-57 392 -387 0
-58 -387 392 0
-58 -386 392 0
-58 -392 387 386 0
-59 -392 387 0
-59 392 -387 0
-60 -392 387 0
-60 -392 388 0
-60 392 -387 -388 0
-86 -392 387 0
-86 392 -387 0
-51 -393 388 0
-51 393 -388 0
-52 -393 388 0
-52 393 -388 0
-53 -393 388 0
-53 393 -388 0
-54 -388 393 0
-54 -384 393 0
-54 -393 388 384 0
-55 -393 388 0
-55 393 -388 0
-56 -393 388 0
-56 393 -388 0
-57 -388 393 0
-57 -385 393 0
-57 -393 388 385 0
-58 -393 388 0
-58 393 -388 0
-59 -388 393 0
-59 -386 393 0
-59 -393 388 386 0
-60 -388 393 0
-60 -387 393 0
-60 -393 388 387 0
-86 -393 388 0
-86 393 -388 0
-61 -394 389 0
-61 -394 390 0
-61 394 -389 -390 0
-62 -394 389 0
-62 -394 391 0
-62 394 -389 -391 0
-63 -394 389 0
-63 -394 392 0
-63 394 -389 -392 0
-64 -394 389 0
-64 -394 393 0
-64 394 -389 -393 0
-65 -394 389 0
-65 394 -389 0
-66 -394 389 0
-66 394 -389 0
-67 -394 389 0
-67 394 -389 0
-68 -394 389 0
-68 394 -389 0
-69 -394 389 0
-69 394 -389 0
-70 -394 389 0
-70 394 -389 0
-87 -394 389 0
-87 394 -389 0
-61 -390 395 0
-61 -389 395 0
-61 -395 390 389 0
-62 -395 390 0
-62 395 -390 0
-63 -395 390 0
-63 395 -390 0
-64 -395 390 0
-64 395 -390 0
-65 -395 390 0
-65 -395 391 0
-65 395 -390 -391 0
-66 -395 390 0
-66 -395 392 0
-66 395 -390 -392 0
-67 -395 390 0
-67 -395 393 0
-67 395 -390 -393 0
-68 -395 390 0
-68 395 -390 0
-69 -395 390 0
-69 395 -390 0
-70 -395 390 0
-70 395 -390 0
-87 -395 390 0
-87 395 -390 0
-61 -396 391 0
-61 396 -391 0
-62 -391 396 0
-62 -389 396 0
-62 -396 391 389 0
-63 -396 391 0
-63 396 -391 0
-64 -396 391 0
-64 396 -391 0
-65 -391 396 0
-65 -390 396 0
-65 -396 391 390 0
-66 -396 391 0
-66 396 -391 0
-67 -396 391 0
-67 396 -391 0
-68 -396 391 0
-68 -396 392 0
-68 396 -391 -392 0
-69 -396 391 0
-69 -396 393 0
-69 396 -391 -393 0
-70 -396 391 0
-70 396 -391 0
-87 -396 391 0
-87 396 -391 0
-61 -397 392 0
-61 397 -392 0
-62 -397 392 0
-62 397 -392 0
-63 -392 397 0
-63 -389 397 0
-63 -397 392 389 0
-64 -397 392 0
-64 397 -392 0
-65 -397 392 0
-65 397 -392 0
-66 -392 397 0
-66 -390 397 0
-66 -397 392 390 0
-67 -397 392 0
-67 397 -392 0
-68 -392 397 0
-68 -391 397 0
-68 -397 392 391 0
-69 -397 392 0
-69 397 -392 0
-70 -397 392 0
-70 -397 393 0
-70 397 -392 -393 0
-87 -397 392 0
-87 397 -392 0
-61 -398 393 0
-61 398 -393 0
-62 -398 393 0
-62 398 -393 0
-63 -398 393 0
-63 398 -393 0
-64 -393 398 0
-64 -389 398 0
-64 -398 393 389 0
-65 -398 393 0
-65 398 -393 0
-66 -398 393 0
-66 398 -393 0
-67 -393 398 0
-67 -390 398 0
-67 -398 393 390 0
-68 -398 393 0
-68 398 -393 0
-69 -393 398 0
-69 -391 398 0
-69 -398 393 391 0
-70 -393 398 0
-70 -392 398 0
-70 -398 393 392 0
-87 -398 393 0
-87 398 -393 0
-71 -399 394 0
-71 -399 395 0
-71 399 -394 -395 0
-72 -399 394 0
-72 -399 396 0
-72 399 -394 -396 0
-73 -399 394 0
-73 -399 397 0
-73 399 -394 -397 0
-74 -399 394 0
-74 -399 398 0
-74 399 -394 -398 0
-75 -399 394 0
-75 399 -394 0
-76 -399 394 0
-76 399 -394 0
-77 -399 394 0
-77 399 -394 0
-78 -399 394 0
-78 399 -394 0
-79 -399 394 0
-79 399 -394 0
-80 -399 394 0
-80 399 -394 0
-88 -399 394 0
-88 399 -394 0
-71 -395 400 0
-71 -394 400 0
-71 -400 395 394 0
-72 -400 395 0
-72 400 -395 0
-73 -400 395 0
-73 400 -395 0
-74 -400 395 0
-74 400 -395 0
-75 -400 395 0
-75 -400 396 0
-75 400 -395 -396 0
-76 -400 395 0
-76 -400 397 0
-76 400 -395 -397 0
-77 -400 395 0
-77 -400 398 0
-77 400 -395 -398 0
-78 -400 395 0
-78 400 -395 0
-79 -400 395 0
-79 400 -395 0
-80 -400 395 0
-80 400 -395 0
-88 -400 395 0
-88 400 -395 0
-71 -401 396 0
-71 401 -396 0
-72 -396 401 0
-72 -394 401 0
-72 -401 396 394 0
-73 -401 396 0
-73 401 -396 0
-74 -401 396 0
-74 401 -396 0
-75 -396 401 0
-75 -395 401 0
-75 -401 396 395 0
-76 -401 396 0
-76 401 -396 0
-77 -401 396 0
-77 401 -396 0
-78 -401 396 0
-78 -401 397 0
-78 401 -396 -397 0
-79 -401 396 0
-79 -401 398 0
-79 401 -396 -398 0
-80 -401 396 0
-80 401 -396 0
-88 -401 396 0
-88 401 -396 0
-71 -402 397 0
-71 402 -397 0
-72 -402 397 0
-72 402 -397 0
-73 -397 402 0
-73 -394 402 0
-73 -402 397 394 0
-74 -402 397 0
-74 402 -397 0
-75 -402 397 0
-75 402 -397 0
-76 -397 402 0
-76 -395 402 0
-76 -402 397 395 0
-77 -402 397 0
-77 402 -397 0
-78 -397 402 0
-78 -396 402 0
-78 -402 397 396 0
-79 -402 397 0
-79 402 -397 0
-80 -402 397 0
-80 -402 398 0
-80 402 -397 -398 0
-88 -402 397 0
-88 402 -397 0
-71 -403 398 0
-71 403 -398 0
-72 -403 398 0
-72 403 -398 0
-73 -403 398 0
-73 403 -398 0
-74 -398 403 0
-74 -394 403 0
-74 -403 398 394 0
-75 -403 398 0
-75 403 -398 0
-76 -403 398 0
-76 403 -398 0
-77 -398 403 0
-77 -395 403 0
-77 -403 398 395 0
-78 -403 398 0
-78 403 -398 0
-79 -398 403 0
-79 -396 403 0
-79 -403 398 396 0
-80 -398 403 0
-80 -397 403 0
-80 -403 398 397 0
-88 -403 398 0
-88 403 -398 0
-404 0
-1 -409 404 0
-1 -409 405 0
-1 409 -404 -405 0
-2 -409 404 0
-2 -409 406 0
-2 409 -404 -406 0
-3 -409 404 0
-3 -409 407 0
-3 409 -404 -407 0
-4 -409 404 0
-4 -409 408 0
-4 409 -404 -408 0
-5 -409 404 0
-5 409 -404 0
-6 -409 404 0
-6 409 -404 0
-7 -409 404 0
-7 409 -404 0
-8 -409 404 0
-8 409 -404 0
-9 -409 404 0
-9 409 -404 0
-10 -409 404 0
-10 409 -404 0
-81 -409 404 0
-81 409 -404 0
405 0
-1 -405 410 0
-1 -404 410 0
-1 -410 405 404 0
-2 -410 405 0
-2 410 -405 0
-3 -410 405 0
-3 410 -405 0
-4 -410 405 0
-4 410 -405 0
-5 -410 405 0
-5 -410 406 0
-5 410 -405 -406 0
-6 -410 405 0
-6 -410 407 0
-6 410 -405 -407 0
-7 -410 405 0
-7 -410 408 0
-7 410 -405 -408 0
-8 -410 405 0
-8 410 -405 0
-9 -410 405 0
-9 410 -405 0
-10 -410 405 0
-10 410 -405 0
-81 -410 405 0
-81 410 -405 0
-406 0
-1 -411 406 0
-1 411 -406 0
-2 -406 411 0
-2 -404 411 0
-2 -411 406 404 0
-3 -411 406 0
-3 411 -406 0
-4 -411 406 0
-4 411 -406 0
-5 -406 411 0
-5 -405 411 0
-5 -411 406 405 0
-6 -411 406 0
-6 411 -406 0
-7 -411 406 0
-7 411 -406 0
-8 -411 406 0
-8 -411 407 0
-8 411 -406 -407 0
-9 -411 406 0
-9 -411 408 0
-9 411 -406 -408 0
-10 -411 406 0
-10 411 -406 0
-81 -411 406 0
-81 411 -406 0
407 0
-1 -412 407 0
-1 412 -407 0
-2 -412 407 0
-2 412 -407 0
-3 -407 412 0
-3 -404 412 0
-3 -412 407 404 0
-4 -412 407 0
-4 412 -407 0
-5 -412 407 0
-5 412 -407 0
-6 -407 412 0
-6 -405 412 0
-6 -412 407 405 0
-7 -412 407 0
-7 412 -407 0
-8 -407 412 0
-8 -406 412 0
-8 -412 407 406 0
-9 -412 407 0
-9 412 -407 0
-10 -412 407 0
-10 -412 408 0
-10 412 -407 -408 0
-81 -412 407 0
-81 412 -407 0
408 0
-1 -413 408 0
-1 413 -408 0
-2 -413 408 0
-2 413 -408 0
-3 -413 408 0
-3 413 -408 0
-4 -408 413 0
-4 -404 413 0
-4 -413 408 404 0
-5 -413 408 0
-5 413 -408 0
-6 -413 408 0
-6 413 -408 0
-7 -408 413 0
-7 -405 413 0
-7 -413 408 405 0
-8 -413 408 0
-8 413 -408 0
-9 -408 413 0
-9 -406 413 0
-9 -413 408 406 0
-10 -408 413 0
-10 -407 413 0
-10 -413 408 407 0
-81 -413 408 0
-81 413 -408 0
-11 -414 409 0
-11 -414 410 0
-11 414 -409 -410 0
-12 -414 409 0
-12 -414 411 0
-12 414 -409 -411 0
-13 -414 409 0
-13 -414 412 0
-13 414 -409 -412 0
-14 -414 409 0
-14 -414 413 0
-14 414 -409 -413 0
-15 -414 409 0
-15 414 -409 0
-16 -414 409 0
-16 414 -409 0
-17 -414 409 0
-17 414 -409 0
-18 -414 409 0
-18 414 -409 0
-19 -414 409 0
-19 414 -409 0
-20 -414 409 0
-20 414 -409 0
-82 -414 409 0
-82 414 -409 0
-11 -410 415 0
-11 -409 415 0
-11 -415 410 409 0
-12 -415 410 0
-12 415 -410 0
-13 -415 410 0
-13 415 -410 0
-14 -415 410 0
-14 415 -410 0
-15 -415 410 0
-15 -415 411 0
-15 415 -410 -411 0
-16 -415 410 0
-16 -415 412 0
-16 415 -410 -412 0
-17 -415 410 0
-17 -415 413 0
-17 415 -410 -413 0
-18 -415 410 0
-18 415 -410 0
-19 -415 410 0
-19 415 -410 0
-20 -415 410 0
-20 415 -410 0
-82 -415 410 0
-82 415 -410 0
-11 -416 411 0
-11 416 -411 0
-12 -411 416 0
-12 -409 416 0
-12 -416 411 409 0
-13 -416 411 0
-13 416 -411 0
-14 -416 411 0
-14 416 -411 0
-15 -411 416 0
-15 -410 416 0
-15 -416 411 410 0
-16 -416 411 0
-16 416 -411 0
-17 -416 411 0
-17 416 -411 0
-18 -416 411 0
-18 -416 412 0
-18 416 -411 -412 0
-19 -416 411 0
-19 -416 413 0
-19 416 -411 -413 0
-20 -416 411 0
-20 416 -411 0
-82 -416 411 0
-82 416 -411 0
-11 -417 412 0
-11 417 -412 0
-12 -417 412 0
-12 417 -412 0
-13 -412 417 0
-13 -409 417 0
-13 -417 412 409 0
-14 -417 412 0
-14 417 -412 0
-15 -417 412 0
-15 417 -412 0
-16 -412 417 0
-16 -410 417 0
-16 -417 412 410 0
-17 -417 412 0
-17 417 -412 0
-18 -412 417 0
-18 -411 417 0
-18 -417 412 411 0
-19 -417 412 0
-19 417 -412 0
-20 -417 412 0
-20 -417 413 0
-20 417 -412 -413 0
-82 -417 412 0
-82 417 -412 0
-11 -418 413 0
-11 418 -413 0
-12 -418 413 0
-12 418 -413 0
-13 -418 413 0
-13 418 -413 0
-14 -413 418 0
-14 -409 418 0
-14 -418 413 409 0
-15 -418 413 0
-15 418 -413 0
-16 -418 413 0
-16 418 -413 0
-17 -413 418 0
-17 -410 418 0
-17 -418 413 410 0
-18 -418 413 0
-18 418 -413 0
-19 -413 418 0
-19 -411 418 0
-19 -418 413 411 0
-20 -413 418 0
-20 -412 418 0
-20 -418 413 412 0
-82 -418 413 0
-82 418 -413 0
-21 -419 414 0
-21 -419 415 0
-21 419 -414 -415 0
-22 -419 414 0
-22 -419 416 0
-22 419 -414 -416 0
-23 -419 414 0
-23 -419 417 0
-23 419 -414 -417 0
-24 -419 414 0
-24 -419 418 0
-24 419 -414 -418 0
-25 -419 414 0
-25 419 -414 0
-26 -419 414 0
-26 419 -414 0
-27 -419 414 0
-27 419 -414 0
-28 -419 414 0
-28 419 -414 0
-29 -419 414 0
-29 419 -414 0
-30 -419 414 0
-30 419 -414 0
-83 -419 414 0
-83 419 -414 0
-21 -415 420 0
-21 -414 420 0
-21 -420 415 414 0
-22 -420 415 0
-22 420 -415 0
-23 -420 415 0
-23 420 -415 0
-24 -420 415 0
-24 420 -415 0
-25 -420 415 0
-25 -420 416 0
-25 420 -415 -416 0
-26 -420 415 0
-26 -420 417 0
-26 420 -415 -417 0
-27 -420 415 0
-27 -420 418 0
-27 420 -415 -418 0
-28 -420 415 0
-28 420 -415 0
-29 -420 415 0
-29 420 -415 0
-30 -420 415 0
-30 420 -415 0
-83 -420 415 0
-83 420 -415 0
-21 -421 416 0
-21 421 -416 0
-22 -416 421 0
-22 -414 421 0
-22 -421 416 414 0
-23 -421 416 0
-23 421 -416 0
-24 -421 416 0
-24 421 -416 0
-25 -416 421 0
-25 -415 421 0
-25 -421 416 415 0
-26 -421 416 0
-26 421 -416 0
-27 -421 416 0
-27 421 -416 0
-28 -421 416 0
-28 -421 417 0
-28 421 -416 -417 0
-29 -421 416 0
-29 -421 418 0
-29 421 -416 -418 0
-30 -421 416 0
-30 421 -416 0
-83 -421 416 0
-83 421 -416 0
-21 -422 417 0
-21 422 -417 0
-22 -422 417 0
-22 422 -417 0
-23 -417 422 0
-23 -414 422 0
-23 -422 417 414 0
-24 -422 417 0
-24 422 -417 0
-25 -422 417 0
-25 422 -417 0
-26 -417 422 0
-26 -415 422 0
-26 -422 417 415 0
-27 -422 417 0
-27 422 -417 0
-28 -417 422 0
-28 -416 422 0
-28 -422 417 416 0
-29 -422 417 0
-29 422 -417 0
-30 -422 417 0
-30 -422 418 0
-30 422 -417 -418 0
-83 -422 417 0
-83 422 -417 0
-21 -423 418 0
-21 423 -418 0
-22 -423 418 0
-22 423 -418 0
-23 -423 418 0
-23 423 -418 0
-24 -418 423 0
-24 -414 423 0
-24 -423 418 414 0
-25 -423 418 0
-25 423 -418 0
-26 -423 418 0
-26 423 -418 0
-27 -418 423 0
-27 -415 423 0
-27 -423 418 415 0
-28 -423 418 0
-28 423 -418 0
-29 -418 423 0
-29 -416 423 0
-29 -423 418 416 0
-30 -418 423 0
-30 -417 423 0
-30 -423 418 417 0
-83 -423 418 0
-83 423 -418 0
-31 -424 419 0
-31 -424 420 0
-31 424 -419 -420 0
-32 -424 419 0
-32 -424 421 0
-32 424 -419 -421 0
-33 -424 419 0
-33 -424 422 0
-33 424 -419 -422 0
-34 -424 419 0
-34 -424 423 0
-34 424 -419 -423 0
-35 -424 419 0
-35 424 -419 0
-36 -424 419 0
-36 424 -419 0
-37 -424 419 0
-37 424 -419 0
-38 -424 419 0
-38 424 -419 0
-39 -424 419 0
-39 424 -419 0
-40 -424 419 0
-40 424 -419 0
-84 -424 419 0
-84 424 -419 0
-31 -420 425 0
-31 -419 425 0
-31 -425 420 419 0
-32 -425 420 0
-32 425 -420 0
-33 -425 420 0
-33 425 -420 0
-34 -425 420 0
-34 425 -420 0
-35 -425 420 0
-35 -425 421 0
-35 425 -420 -421 0
-36 -425 420 0
-36 -425 422 0
-36 425 -420 -422 0
-37 -425 420 0
-37 -425 423 0
-37 425 -420 -423 0
-38 -425 420 0
-38 425 -420 0
-39 -425 420 0
-39 425 -420 0
-40 -425 420 0
-40 425 -420 0
-84 -425 420 0
-84 425 -420 0
-31 -426 421 0
-31 426 -421 0
-32 -421 426 0
-32 -419 426 0
-32 -426 421 419 0
-33 -426 421 0
-33 426 -421 0
-34 -426 421 0
-34 426 -421 0
-35 -421 426 0
-35 -420 426 0
-35 -426 421 420 0
-36 -426 421 0
-36 426 -421 0
-37 -426 421 0
-37 426 -421 0
-38 -426 421 0
-38 -426 422 0
-38 426 -421 -422 0
-39 -426 421 0
-39 -426 423 0
-39 426 -421 -423 0
-40 -426 421 0
-40 426 -421 0
-84 -426 421 0
-84 426 -421 0
-31 -427 422 0
-31 427 -422 0
-32 -427 422 0
-32 427 -422 0
-33 -422 427 0
-33 -419 427 0
-33 -427 422 419 0
-34 -427 422 0
-34 427 -422 0
-35 -427 422 0
-35 427 -422 0
-36 -422 427 0
-36 -420 427 0
-36 -427 422 420 0
-37 -427 422 0
-37 427 -422 0
-38 -422 427 0
-38 -421 427 0
-38 -427 422 421 0
-39 -427 422 0
-39 427 -422 0
-40 -427 422 0
-40 -427 423 0
-40 427 -422 -423 0
-84 -427 422 0
-84 427 -422 0
-31 -428 423 0
-31 428 -423 0
-32 -428 423 0
-32 428 -423 0
-33 -428 423 0
-33 428 -423 0
-34 -423 428 0
-34 -419 428 0
-34 -428 423 419 0
-35 -428 423 0
-35 428 -423 0
-36 -428 423 0
-36 428 -423 0
-37 -423 428 0
-37 -420 428 0
-37 -428 423 420 0
-38 -428 423 0
-38 428 -423 0
-39 -423 428 0
-39 -421 428 0
-39 -428 423 421 0
-40 -423 428 0
-40 -422 428 0
-40 -428 423 422 0
-84 -428 423 0
-84 428 -423 0
-41 -429 424 0
-41 -429 425 0
-41 429 -424 -425 0
-42 -429 424 0
-42 -429 426 0
-42 429 -424 -426 0
-43 -429 424 0
-43 -429 427 0
-43 429 -424 -427 0
-44 -429 424 0
-44 -429 428 0
-44 429 -424 -428 0
-45 -429 424 0
-45 429 -424 0
-46 -429 424 0
-46 429 -424 0
-47 -429 424 0
-47 429 -424 0
-48 -429 424 0
-48 429 -424 0
-49 -429 424 0
-49 429 -424 0
-50 -429 424 0
-50 429 -424 0
-85 -429 424 0
-85 429 -424 0
-41 -425 430 0
-41 -424 430 0
-41 -430 425 424 0
-42 -430 425 0
-42 430 -425 0
-43 -430 425 0
-43 430 -425 0
-44 -430 425 0
-44 430 -425 0
-45 -430 425 0
-45 -430 426 0
-45 430 -425 -426 0
-46 -430 425 0
-46 -430 427 0
-46 430 -425 -427 0
-47 -430 425 0
-47 -430 428 0
-47 430 -425 -428 0
-48 -430 425 0
-48 430 -425 0
-49 -430 425 0
-49 430 -425 0
-50 -430 425 0
-50 430 -425 0
-85 -430 425 0
-85 430 -425 0
-41 -431 426 0
-41 431 -426 0
-42 -426 431 0
-42 -424 431 0
-42 -431 426 424 0
-43 -431 426 0
-43 431 -426 0
-44 -431 426 0
-44 431 -426 0
-45 -426 431 0
-45 -425 431 0
-45 -431 426 425 0
-46 -431 426 0
-46 431 -426 0
-47 -431 426 0
-47 431 -426 0
-48 -431 426 0
-48 -431 427 0
-48 431 -426 -427 0
-49 -431 426 0
-49 -431 428 0
-49 431 -426 -428 0
-50 -431 426 0
-50 431 -426 0
-85 -431 426 0
-85 431 -426 0
-41 -432 427 0
-41 432 -427 0
-42 -432 427 0
-42 432 -427 0
-43 -427 432 0
-43 -424 432 0
-43 -432 427 424 0
-44 -432 427 0
-44 432 -427 0
-45 -432 427 0
-45 432 -427 0
-46 -427 432 0
-46 -425 432 0
-46 -432 427 425 0
-47 -432 427 0
-47 432 -427 0
-48 -427 432 0
-48 -426 432 0
-48 -432 427 426 0
-49 -432 427 0
-49 432 -427 0
-50 -432 427 0
-50 -432 428 0
-50 432 -427 -428 0
-85 -432 427 0
-85 432 -427 0
-41 -433 428 0
-41 433 -428 0
-42 -433 428 0
-42 433 -428 0
-43 -433 428 0
-43 433 -428 0
-44 -428 433 0
-44 -424 433 0
-44 -433 428 424 0
-45 -433 428 0
-45 433 -428 0
-46 -433 428 0
-46 433 -428 0
-47 -428 433 0
-47 -425 433 0
-47 -433 428 425 0
-48 -433 428 0
-48 433 -428 0
-49 -428 433 0
-49 -426 433 0
-49 -433 428 426 0
-50 -428 433 0
-50 -427 433 0
-50 -433 428 427 0
-85 -433 428 0
-85 433 -428 0
-51 -434 429 0
-51 -434 430 0
-51 434 -429 -430 0
-52 -434 429 0
-52 -434 431 0
-52 434 -429 -431 0
-53 -434 429 0
-53 -434 432 0
-53 434 -429 -432 0
-54 -434 429 0
-54 -434 433 0
-54 434 -429 -433 0
-55 -434 429 0
-55 434 -429 0
-56 -434 429 0
-56 434 -429 0
-57 -434 429 0
-57 434 -429 0
-58 -434 429 0
-58 434 -429 0
-59 -434 429 0
-59 434 -429 0
-60 -434 429 0
-60 434 -429 0
-86 -434 429 0
-86 434 -429 0
-51 -430 435 0
-51 -429 435 0
-51 -435 430 429 0
-52 -435 430 0
-52 435 -430 0
-53 -435 430 0
-53 435 -430 0
-54 -435 430 0
-54 435 -430 0
-55 -435 430 0
-55 -435 431 0
-55 435 -430 -431 0
-56 -435 430 0
-56 -435 432 0
-56 435 -430 -432 0
-57 -435 430 0
-57 -435 433 0
-57 435 -430 -433 0
-58 -435 430 0
-58 435 -430 0
-59 -435 430 0
-59 435 -430 0
-60 -435 430 0
-60 435 -430 0
-86 -435 430 0
-86 435 -430 0
-51 -436 431 0
-51 436 -431 0
-52 -431 436 0
-52 -429 436 0
-52 -436 431 429 0
-53 -436 431 0
-53 436 -431 0
-54 -436 431 0
-54 436 -431 0
-55 -431 436 0
-55 -430 436 0
-55 -436 431 430 0
-56 -436 431 0
-56 436 -431 0
-57 -436 431 0
-57 436 -431 0
-58 -436 431 0
-58 -436 432 0
-58 436 -431 -432 0
-59 -436 431 0
-59 -436 433 0
-59 436 -431 -433 0
-60 -436 431 0
-60 436 -431 0
-86 -436 431 0
-86 436 -431 0
-51 -437 432 0
-51 437 -432 0
-52 -437 432 0
-52 437 -432 0
-53 -432 437 0
-53 -429 437 0
-53 -437 432 429 0
-54 -437 432 0
-54 437 -432 0
-55 -437 432 0
-55 437 -432 0
-56 -432 437 0
-56 -430 437 0
-56 -437 432 430 0
-57 -437 432 0
-57 437 -432 0
-58 -432 437 0
-58 -431 437 0
-58 -437 432 431 0
-59 -437 432 0
-59 437 -432 0
-60 -437 432 0
-60 -437 433 0
-60 437 -432 -433 0
-86 -437 432 0
-86 437 -432 0
-51 -438 433 0
-51 438 -433 0
-52 -438 433 0
-52 438 -433 0
-53 -438 433 0
-53 438 -433 0
-54 -433 438 0
-54 -429 438 0
-54 -438 433 429 0
-55 -438 433 0
-55 438 -433 0
-56 -438 433 0
-56 438 -433 0
-57 -433 438 0
-57 -430 438 0
-57 -438 433 430 0
-58 -438 433 0
-58 438 -433 0
-59 -433 438 0
-59 -431 438 0
-59 -438 433 431 0
-60 -433 438 0
-60 -432 438 0
-60 -438 433 432 0
-86 -438 433 0
-86 438 -433 0
-61 -439 434 0
-61 -439 435 0
-61 439 -434 -435 0
-62 -439 434 0
-62 -439 436 0
-62 439 -434 -436 0
-63 -439 434 0
-63 -439 437 0
-63 439 -434 -437 0
-64 -439 434 0
-64 -439 438 0
-64 439 -434 -438 0
-65 -439 434 0
-65 439 -434 0
-66 -439 434 0
-66 439 -434 0
-67 -439 434 0
-67 439 -434 0
-68 -439 434 0
-68 439 -434 0
-69 -439 434 0
-69 439 -434 0
-70 -439 434 0
-70 439 -434 0
-87 -439 434 0
-87 439 -434 0
-61 -435 440 0
-61 -434 440 0
-61 -440 435 434 0
-62 -440 435 0
-62 440 -435 0
-63 -440 435 0
-63 440 -435 0
-64 -440 435 0
-64 440 -435 0
-65 -440 435 0
-65 -440 436 0
-65 440 -435 -436 0
-66 -440 435 0
-66 -440 437 0
-66 440 -435 -437 0
-67 -440 435 0
-67 -440 438 0
-67 440 -435 -438 0
-68 -440 435 0
-68 440 -435 0
-69 -440 435 0
-69 440 -435 0
-70 -440 435 0
-70 440 -435 0
-87 -440 435 0
-87 440 -435 0
-61 -441 436 0
-61 441 -436 0
-62 -436 441 0
-62 -434 441 0
-62 -441 436 434 0
-63 -441 436 0
-63 441 -436 0
-64 -441 436 0
-64 441 -436 0
-65 -436 441 0
-65 -435 441 0
-65 -441 436 435 0
-66 -441 436 0
-66 441 -436 0
-67 -441 436 0
-67 441 -436 0
-68 -441 436 0
-68 -441 437 0
-68 441 -436 -437 0
-69 -441 436 0
-69 -441 438 0
-69 441 -436 -438 0
-70 -441 436 0
-70 441 -436 0
-87 -441 436 0
-87 441 -436 0
-61 -442 437 0
-61 442 -437 0
-62 -442 437 0
-62 442 -437 0
-63 -437 442 0
-63 -434 442 0
-63 -442 437 434 0
-64 -442 437 0
-64 442 -437 0
-65 -442 437 0
-65 442 -437 0
-66 -437 442 0
-66 -435 442 0
-66 -442 437 435 0
-67 -442 437 0
-67 442 -437 0
-68 -437 442 0
-68 -436 442 0
-68 -442 437 436 0
-69 -442 437 0
-69 442 -437 0
-70 -442 437 0
-70 -442 438 0
-70 442 -437 -438 0
-87 -442 437 0
-87 442 -437 0
-61 -443 438 0
-61 443 -438 0
-62 -443 438 0
-62 443 -438 0
-63 -443 438 0
-63 443 -438 0
-64 -438 443 0
-64 -434 443 0
-64 -443 438 434 0
-65 -443 438 0
-65 443 -438 0
-66 -443 438 0
-66 443 -438 0
-67 -438 443 0
-67 -435 443 0
-67 -443 438 435 0
-68 -443 438 0
-68 443 -438 0
-69 -438 443 0
-69 -436 443 0
-69 -443 438 436 0
-70 -438 443 0
-70 -437 443 0
-70 -443 438 437 0
-87 -443 438 0
-87 443 -438 0
-71 -444 439 0
-71 -444 440 0
-71 444 -439 -440 0
-72 -444 439 0
-72 -444 441 0
-72 444 -439 -441 0
-73 -444 439 0
-73 -444 442 0
-73 444 -439 -442 0
-74 -444 439 0
-74 -444 443 0
-74 444 -439 -443 0
-75 -444 439 0
-75 444 -439 0
-76 -444 439 0
-76 444 -439 0
-77 -444 439 0
-77 444 -439 0
-78 -444 439 0
-78 444 -439 0
-79 -444 439 0
-79 444 -439 0
-80 -444 439 0
-80 444 -439 0
-88 -444 439 0
-88 444 -439 0
-71 -440 445 0
-71 -439 445 0
-71 -445 440 439 0
-72 -445 440 0
-72 445 -440 0
-73 -445 440 0
-73 445 -440 0
-74 -445 440 0
-74 445 -440 0
-75 -445 440 0
-75 -445 441 0
-75 445 -440 -441 0
-76 -445 440 0
-76 -445 442 0
-76 445 -440 -442 0
-77 -445 440 0
-77 -445 443 0
-77 445 -440 -443 0
-78 -445 440 0
-78 445 -440 0
-79 -445 440 0
-79 445 -440 0
-80 -445 440 0
-80 445 -440 0
-88 -445 440 0
-88 445 -440 0
-71 -446 441 0
-71 446 -441 0
-72 -441 446 0
-72 -439 446 0
-72 -446 441 439 0
-73 -446 441 0
-73 446 -441 0
-74 -446 441 0
-74 446 -441 0
-75 -441 446 0
-75 -440 446 0
-75 -446 441 440 0
-76 -446 441 0
-76 446 -441 0
-77 -446 441 0
-77 446 -441 0
-78 -446 441 0
-78 -446 442 0
-78 446 -441 -442 0
-79 -446 441 0
-79 -446 443 0
-79 446 -441 -443 0
-80 -446 441 0
-80 446 -441 0
-88 -446 441 0
-88 446 -441 0
-71 -447 442 0
-71 447 -442 0
-72 -447 442 0
-72 447 -442 0
-73 -442 447 0
-73 -439 447 0
-73 -447 442 439 0
-74 -447 442 0
-74 447 -442 0
-75 -447 442 0
-75 447 -442 0
-76 -442 447 0
-76 -440 447 0
-76 -447 442 440 0
-77 -447 442 0
-77 447 -442 0
-78 -442 447 0
-78 -441 447 0
-78 -447 442 441 0
-79 -447 442 0
-79 447 -442 0
-80 -447 442 0
-80 -447 443 0
-80 447 -442 -443 0
-88 -447 442 0
-88 447 -442 0
-71 -448 443 0
-71 448 -443 0
-72 -448 443 0
-72 448 -443 0
-73 -448 443 0
-73 448 -443 0
-74 -443 448 0
-74 -439 448 0
-74 -448 443 439 0
-75 -448 443 0
-75 448 -443 0
-76 -448 443 0
-76 448 -443 0
-77 -443 448 0
-77 -440 448 0
-77 -448 443 440 0
-78 -448 443 0
-78 448 -443 0
-79 -443 448 0
-79 -441 448 0
-79 -448 443 441 0
-80 -443 448 0
-80 -442 448 0
-80 -448 443 442 0
-88 -448 443 0
-88 448 -443 0
-449 0
-1 -454 449 0
-1 -454 450 0
-1 454 -449 -450 0
-2 -454 449 0
-2 -454 451 0
-2 454 -449 -451 0
-3 -454 449 0
-3 -454 452 0
-3 454 -449 -452 0
-4 -454 449 0
-4 -454 453 0
-4 454 -449 -453 0
-5 -454 449 0
-5 454 -449 0
-6 -454 449 0
-6 454 -449 0
-7 -454 449 0
-7 454 -449 0
-8 -454 449 0
-8 454 -449 0
-9 -454 449 0
-9 454 -449 0
-10 -454 449 0
-10 454 -449 0
-81 -454 449 0
-81 454 -449 0
450 0
-1 -450 455 0
-1 -449 455 0
-1 -455 450 449 0
-2 -455 450 0
-2 455 -450 0
-3 -455 450 0
-3 455 -450 0
-4 -455 450 0
-4 455 -450 0
-5 -455 450 0
-5 -455 451 0
-5 455 -450 -451 0
-6 -455 450 0
-6 -455 452 0
-6 455 -450 -452 0
-7 -455 450 0
-7 -455 453 0
-7 455 -450 -453 0
-8 -455 450 0
-8 455 -450 0
-9 -455 450 0
-9 455 -450 0
-10 -455 450 0
-10 455 -450 0
-81 -455 450 0
-81 455 -450 0
451 0
-1 -456 451 0
-1 456 -451 0
-2 -451 456 0
-2 -449 456 0
-2 -456 451 449 0
-3 -456 451 0
-3 456 -451 0
-4 -456 451 0
-4 456 -451 0
-5 -451 456 0
-5 -450 456 0
-5 -456 451 450 0
-6 -456 451 0
-6 456 -451 0
-7 -456 451 0
-7 456 -451 0
-8 -456 451 0
-8 -456 452 0
-8 456 -451 -452 0
-9 -456 451 0
-9 -456 453 0
-9 456 -451 -453 0
-10 -456 451 0
-10 456 -451 0
-81 -456 451 0
-81 456 -451 0
-452 0
-1 -457 452 0
-1 457 -452 0
-2 -457 452 0
-2 457 -452 0
-3 -452 457 0
-3 -449 457 0
-3 -457 452 449 0
-4 -457 452 0
-4 457 -452 0
-5 -457 452 0
-5 457 -452 0
-6 -452 457 0
-6 -450 457 0
-6 -457 452 450 0
-7 -457 452 0
-7 457 -452 0
-8 -452 457 0
-8 -451 457 0
-8 -457 452 451 0
-9 -457 452 0
-9 457 -452 0
-10 -457 452 0
-10 -457 453 0
-10 457 -452 -453 0
-81 -457 452 0
-81 457 -452 0
-453 0
-1 -458 453 0
-1 458 -453 0
-2 -458 453 0
-2 458 -453 0
-3 -458 453 0
-3 458 -453 0
-4 -453 458 0
-4 -449 458 0
-4 -458 453 449 0
-5 -458 453 0
-5 458 -453 0
-6 -458 453 0
-6 458 -453 0
-7 -453 458 0
-7 -450 458 0
-7 -458 453 450 0
-8 -458 453 0
-8 458 -453 0
-9 -453 458 0
-9 -451 458 0
-9 -458 453 451 0
-10 -453 458 0
-10 -452 458 0
-10 -458 453 452 0
-81 -458 453 0
-81 458 -453 0
-11 -459 454 0
-11 -459 455 0
-11 459 -454 -455 0
-12 -459 454 0
-12 -459 456 0
-12 459 -454 -456 0
-13 -459 454 0
-13 -459 457 0
-13 459 -454 -457 0
-14 -459 454 0
-14 -459 458 0
-14 459 -454 -458 0
-15 -459 454 0
-15 459 -454 0
-16 -459 454 0
-16 459 -454 0
-17 -459 454 0
-17 459 -454 0
-18 -459 454 0
-18 459 -454 0
-19 -459 454 0
-19 459 -454 0
-20 -459 454 0
-20 459 -454 0
-82 -459 454 0
-82 459 -454 0
-11 -455 460 0
-11 -454 460 0
-11 -460 455 454 0
-12 -460 455 0
-12 460 -455 0
-13 -460 455 0
-13 460 -455 0
-14 -460 455 0
-14 460 -455 0
-15 -460 455 0
-15 -460 456 0
-15 460 -455 -456 0
-16 -460 455 0
-16 -460 457 0
-16 460 -455 -457 0
-17 -460 455 0
-17 -460 458 0
-17 460 -455 -458 0
-18 -460 455 0
-18 460 -455 0
-19 -460 455 0
-19 460 -455 0
-20 -460 455 0
-20 460 -455 0
-82 -460 455 0
-82 460 -455 0
-11 -461 456 0
-11 461 -456 0
-12 -456 461 0
-12 -454 461 0
-12 -461 456 454 0
-13 -461 456 0
-13 461 -456 0
-14 -461 456 0
-14 461 -456 0
-15 -456 461 0
-15 -455 461 0
-15 -461 456 455 0
-16 -461 456 0
-16 461 -456 0
-17 -461 456 0
-17 461 -456 0
-18 -461 456 0
-18 -461 457 0
-18 461 -456 -457 0
-19 -461 456 0
-19 -461 458 0
-19 461 -456 -458 0
-20 -461 456 0
-20 461 -456 0
-82 -461 456 0
-82 461 -456 0
-11 -462 457 0
-11 462 -457 0
-12 -462 457 0
-12 462 -457 0
-13 -457 462 0
-13 -454 462 0
-13 -462 457 454 0
-14 -462 457 0
-14 462 -457 0
-15 -462 457 0
-15 462 -457 0
-16 -457 462 0
-16 -455 462 0
-16 -462 457 455 0
-17 -462 457 0
-17 462 -457 0
-18 -457 462 0
-18 -456 462 0
-18 -462 457 456 0
-19 -462 457 0
-19 462 -457 0
-20 -462 457 0
-20 -462 458 0
-20 462 -457 -458 0
-82 -462 457 0
-82 462 -457 0
-11 -463 458 0
-11 463 -458 0
-12 -463 458 0
-12 463 -458 0
-13 -463 458 0
-13 463 -458 0
-14 -458 463 0
-14 -454 463 0
-14 -463 458 454 0
-15 -463 458 0
-15 463 -458 0
-16 -463 458 0
-16 463 -458 0
-17 -458 463 0
-17 -455 463 0
-17 -463 458 455 0
-18 -463 458 0
-18 463 -458 0
-19 -458 463 0
-19 -456 463 0
-19 -463 458 456 0
-20 -458 463 0
-20 -457 463 0
-20 -463 458 457 0
-82 -463 458 0
-82 463 -458 0
-21 -464 459 0
-21 -464 460 0
-21 464 -459 -460 0
-22 -464 459 0
-22 -464 461 0
-22 464 -459 -461 0
-23 -464 459 0
-23 -464 462 0
-23 464 -459 -462 0
-24 -464 459 0
-24 -464 463 0
-24 464 -459 -463 0
-25 -464 459 0
-25 464 -459 0
-26 -464 459 0
-26 464 -459 0
-27 -464 459 0
-27 464 -459 0
-28 -464 459 0
-28 464 -459 0
-29 -464 459 0
-29 464 -459 0
-30 -464 459 0
-30 464 -459 0
-83 -464 459 0
-83 464 -459 0
-21 -460 465 0
-21 -459 465 0
-21 -465 460 459 0
-22 -465 460 0
-22 465 -460 0
-23 -465 460 0
-23 465 -460 0
-24 -465 460 0
-24 465 -460 0
-25 -465 460 0
-25 -465 461 0
-25 465 -460 -461 0
-26 -465 460 0
-26 -465 462 0
-26 465 -460 -462 0
-27 -465 460 0
-27 -465 463 0
-27 465 -460 -463 0
-28 -465 460 0
-28 465 -460 0
-29 -465 460 0
-29 465 -460 0
-30 -465 460 0
-30 465 -460 0
-83 -465 460 0
-83 465 -460 0
-21 -466 461 0
-21 466 -461 0
-22 -461 466 0
-22 -459 466 0
-22 -466 461 459 0
-23 -466 461 0
-23 466 -461 0
-24 -466 461 0
-24 466 -461 0
-25 -461 466 0
-25 -460 466 0
-25 -466 461 460 0
-26 -466 461 0
-26 466 -461 0
-27 -466 461 0
-27 466 -461 0
-28 -466 461 0
-28 -466 462 0
-28 466 -461 -462 0
-29 -466 461 0
-29 -466 463 0
-29 466 -461 -463 0
-30 -466 461 0
-30 466 -461 0
-83 -466 461 0
-83 466 -461 0
-21 -467 462 0
-21 467 -462 0
-22 -467 462 0
-22 467 -462 0
-23 -462 467 0
-23 -459 467 0
-23 -467 462 459 0
-24 -467 462 0
-24 467 -462 0
-25 -467 462 0
-25 467 -462 0
-26 -462 467 0
-26 -460 467 0
-26 -467 462 460 0
-27 -467 462 0
-27 467 -462 0
-28 -462 467 0
-28 -461 467 0
-28 -467 462 461 0
-29 -467 462 0
-29 467 -462 0
-30 -467 462 0
-30 -467 463 0
-30 467 -462 -463 0
-83 -467 462 0
-83 467 -462 0
-21 -468 463 0
-21 468 -463 0
-22 -468 463 0
-22 468 -463 0
-23 -468 463 0
-23 468 -463 0
-24 -463 468 0
-24 -459 468 0
-24 -468 463 459 0
-25 -468 463 0
-25 468 -463 0
-26 -468 463 0
-26 468 -463 0
-27 -463 468 0
-27 -460 468 0
-27 -468 463 460 0
-28 -468 463 0
-28 468 -463 0
-29 -463 468 0
-29 -461 468 0
-29 -468 463 461 0
-30 -463 468 0
-30 -462 468 0
-30 -468 463 462 0
-83 -468 463 0
-83 468 -463 0
-31 -469 464 0
-31 -469 465 0
-31 469 -464 -465 0
-32 -469 464 0
-32 -469 466 0
-32 469 -464 -466 0
-33 -469 464 0
-33 -469 467 0
-33 469 -464 -467 0
-34 -469 464 0
-34 -469 468 0
-34 469 -464 -468 0
-35 -469 464 0
-35 469 -464 0
-36 -469 464 0
-36 469 -464 0
-37 -469 464 0
-37 469 -464 0
-38 -469 464 0
-38 469 -464 0
-39 -469 464 0
-39 469 -464 0
-40 -469 464 0
-40 469 -464 0
-84 -469 464 0
-84 469 -464 0
-31 -465 470 0
-31 -464 470 0
-31 -470 465 464 0
-32 -470 465 0
-32 470 -465 0
-33 -470 465 0
-33 470 -465 0
-34 -470 465 0
-34 470 -465 0
-35 -470 465 0
-35 -470 466 0
-35 470 -465 -466 0
-36 -470 465 0
-36 -470 467 0
-36 470 -465 -467 0
-37 -470 465 0
-37 -470 468 0
-37 470 -465 -468 0
-38 -470 465 0
-38 470 -465 0
-39 -470 465 0
-39 470 -465 0
-40 -470 465 0
-40 470 -465 0
-84 -470 465 0
-84 470 -465 0
-31 -471 466 0
-31 471 -466 0
-32 -466 471 0
-32 -464 471 0
-32 -471 466 464 0
-33 -471 466 0
-33 471 -466 0
-34 -471 466 0
-34 471 -466 0
-35 -466 471 0
-35 -465 471 0
-35 -471 466 465 0
-36 -471 466 0
-36 471 -466 0
-37 -471 466 0
-37 471 -466 0
-38 -471 466 0
-38 -471 467 0
-38 471 -466 -467 0
-39 -471 466 0
-39 -471 468 0
-39 471 -466 -468 0
-40 -471 466 0
-40 471 -466 0
-84 -471 466 0
-84 471 -466 0
-31 -472 467 0
-31 472 -467 0
-32 -472 467 0
-32 472 -467 0
-33 -467 472 0
-33 -464 472 0
-33 -472 467 464 0
-34 -472 467 0
-34 472 -467 0
-35 -472 467 0
-35 472 -467 0
-36 -467 472 0
-36 -465 472 0
-36 -472 467 465 0
-37 -472 467 0
-37 472 -467 0
-38 -467 472 0
-38 -466 472 0
-38 -472 467 466 0
-39 -472 467 0
-39 472 -467 0
-40 -472 467 0
-40 -472 468 0
-40 472 -467 -468 0
-84 -472 467 0
-84 472 -467 0
-31 -473 468 0
-31 473 -468 0
-32 -473 468 0
-32 473 -468 0
-33 -473 468 0
-33 473 -468 0
-34 -468 473 0
-34 -464 473 0
-34 -473 468 464 0
-35 -473 468 0
-35 473 -468 0
-36 -473 468 0
-36 473 -468 0
-37 -468 473 0
-37 -465 473 0
-37 -473 468 465 0
-38 -473 468 0
-38 473 -468 0
-39 -468 473 0
-39 -466 473 0
-39 -473 468 466 0
-40 -468 473 0
-40 -467 473 0
-40 -473 468 467 0
-84 -473 468 0
-84 473 -468 0
-41 -474 469 0
-41 -474 470 0
-41 474 -469 -470 0
-42 -474 469 0
-42 -474 471 0
-42 474 -469 -471 0
-43 -474 469 0
-43 -474 472 0
-43 474 -469 -472 0
-44 -474 469 0
-44 -474 473 0
-44 474 -469 -473 0
-45 -474 469 0
-45 474 -469 0
-46 -474 469 0
-46 474 -469 0
-47 -474 469 0
-47 474 -469 0
-48 -474 469 0
-48 474 -469 0
-49 -474 469 0
-49 474 -469 0
-50 -474 469 0
-50 474 -469 0
-85 -474 469 0
-85 474 -469 0
-41 -470 475 0
-41 -469 475 0
-41 -475 470 469 0
-42 -475 470 0
-42 475 -470 0
-43 -475 470 0
-43 475 -470 0
-44 -475 470 0
-44 475 -470 0
-45 -475 470 0
-45 -475 471 0
-45 475 -470 -471 0
-46 -475 470 0
-46 -475 472 0
-46 475 -470 -472 0
-47 -475 470 0
-47 -475 473 0
-47 475 -470 -473 0
-48 -475 470 0
-48 475 -470 0
-49 -475 470 0
-49 475 -470 0
-50 -475 470 0
-50 475 -470 0
-85 -475 470 0
-85 475 -470 0
-41 -476 471 0
-41 476 -471 0
-42 -471 476 0
-42 -469 476 0
-42 -476 471 469 0
-43 -476 471 0
-43 476 -471 0
-44 -476 471 0
-44 476 -471 0
-45 -471 476 0
-45 -470 476 0
-45 -476 471 470 0
-46 -476 471 0
-46 476 -471 0
-47 -476 471 0
-47 476 -471 0
-48 -476 471 0
-48 -476 472 0
-48 476 -471 -472 0
-49 -476 471 0
-49 -476 473 0
-49 476 -471 -473 0
-50 -476 471 0
-50 476 -471 0
-85 -476 471 0
-85 476 -471 0
-41 -477 472 0
-41 477 -472 0
-42 -477 472 0
-42 477 -472 0
-43 -472 477 0
-43 -469 477 0
-43 -477 472 469 0
-44 -477 472 0
-44 477 -472 0
-45 -477 472 0
-45 477 -472 0
-46 -472 477 0
-46 -470 477 0
-46 -477 472 470 0
-47 -477 472 0
-47 477 -472 0
-48 -472 477 0
-48 -471 477 0
-48 -477 472 471 0
-49 -477 472 0
-49 477 -472 0
-50 -477 472 0
-50 -477 473 0
-50 477 -472 -473 0
-85 -477 472 0
-85 477 -472 0
-41 -478 473 0
-41 478 -473 0
-42 -478 473 0
-42 478 -473 0
-43 -478 473 0
-43 478 -473 0
-44 -473 478 0
-44 -469 478 0
-44 -478 473 469 0
-45 -478 473 0
-45 478 -473 0
-46 -478 473 0
-46 478 -473 0
-47 -473 478 0
-47 -470 478 0
-47 -478 473 470 0
-48 -478 473 0
-48 478 -473 0
-49 -473 478 0
-49 -471 478 0
-49 -478 473 471 0
-50 -473 478 0
-50 -472 478 0
-50 -478 473 472 0
-85 -478 473 0
-85 478 -473 0
-51 -479 474 0
-51 -479 475 0
-51 479 -474 -475 0
-52 -479 474 0
-52 -479 476 0
-52 479 -474 -476 0
-53 -479 474 0
-53 -479 477 0
-53 479 -474 -477 0
-54 -479 474 0
-54 -479 478 0
-54 479 -474 -478 0
-55 -479 474 0
-55 479 -474 0
-56 -479 474 0
-56 479 -474 0
-57 -479 474 0
-57 479 -474 0
-58 -479 474 0
-58 479 -474 0
-59 -479 474 0
-59 479 -474 0
-60 -479 474 0
-60 479 -474 0
-86 -479 474 0
-86 479 -474 0
-51 -475 480 0
-51 -474 480 0
-51 -480 475 474 0
-52 -480 475 0
-52 480 -475 0
-53 -480 475 0
-53 480 -475 0
-54 -480 475 0
-54 480 -475 0
-55 -480 475 0
-55 -480 476 0
-55 480 -475 -476 0
-56 -480 475 0
-56 -480 477 0
-56 480 -475 -477 0
-57 -480 475 0
-57 -480 478 0
-57 480 -475 -478 0
-58 -480 475 0
-58 480 -475 0
-59 -480 475 0
-59 480 -475 0
-60 -480 475 0
-60 480 -475 0
-86 -480 475 0
-86 480 -475 0
-51 -481 476 0
-51 481 -476 0
-52 -476 481 0
-52 -474 481 0
-52 -481 476 474 0
-53 -481 476 0
-53 481 -476 0
-54 -481 476 0
-54 481 -476 0
-55 -476 481 0
-55 -475 481 0
-55 -481 476 475 0
-56 -481 476 0
-56 481 -476 0
-57 -481 476 0
-57 481 -476 0
-58 -481 476 0
-58 -481 477 0
-58 481 -476 -477 0
-59 -481 476 0
-59 -481 478 0
-59 481 -476 -478 0
-60 -481 476 0
-60 481 -476 0
-86 -481 476 0
-86 481 -476 0
-51 -482 477 0
-51 482 -477 0
-52 -482 477 0
-52 482 -477 0
-53 -477 482 0
-53 -474 482 0
-53 -482 477 474 0
-54 -482 477 0
-54 482 -477 0
-55 -482 477 0
-55 482 -477 0
-56 -477 482 0
-56 -475 482 0
-56 -482 477 475 0
-57 -482 477 0
-57 482 -477 0
-58 -477 482 0
-58 -476 482 0
-58 -482 477 476 0
-59 -482 477 0
-59 482 -477 0
-60 -482 477 0
-60 -482 478 0
-60 482 -477 -478 0
-86 -482 477 0
-86 482 -477 0
-51 -483 478 0
-51 483 -478 0
-52 -483 478 0
-52 483 -478 0
-53 -483 478 0
-53 483 -478 0
-54 -478 483 0
-54 -474 483 0
-54 -483 478 474 0
-55 -483 478 0
-55 483 -478 0
-56 -483 478 0
-56 483 -478 0
-57 -478 483 0
-57 -475 483 0
-57 -483 478 475 0
-58 -483 478 0
-58 483 -478 0
-59 -478 483 0
-59 -476 483 0
-59 -483 478 476 0
-60 -478 483 0
-60 -477 483 0
-60 -483 478 477 0
-86 -483 478 0
-86 483 -478 0
-61 -484 479 0
-61 -484 480 0
-61 484 -479 -480 0
-62 -484 479 0
-62 -484 481 0
-62 484 -479 -481 0
-63 -484 479 0
-63 -484 482 0
-63 484 -479 -482 0
-64 -484 479 0
-64 -484 483 0
-64 484 -479 -483 0
-65 -484 479 0
-65 484 -479 0
-66 -484 479 0
-66 484 -479 0
-67 -484 479 0
-67 484 -479 0
-68 -484 479 0
-68 484 -479 0
-69 -484 479 0
-69 484 -479 0
-70 -484 479 0
-70 484 -479 0
-87 -484 479 0
-87 484 -479 0
-61 -480 485 0
-61 -479 485 0
-61 -485 480 479 0
-62 -485 480 0
-62 485 -480 0
-63 -485 480 0
-63 485 -480 0
-64 -485 480 0
-64 485 -480 0
-65 -485 480 0
-65 -485 481 0
-65 485 -480 -481 0
-66 -485 480 0
-66 -485 482 0
-66 485 -480 -482 0
-67 -485 480 0
-67 -485 483 0
-67 485 -480 -483 0
-68 -485 480 0
-68 485 -480 0
-69 -485 480 0
-69 485 -480 0
-70 -485 480 0
-70 485 -480 0
-87 -485 480 0
-87 485 -480 0
-61 -486 481 0
-61 486 -481 0
-62 -481 486 0
-62 -479 486 0
-62 -486 481 479 0
-63 -486 481 0
-63 486 -481 0
-64 -486 481 0
-64 486 -481 0
-65 -481 486 0
-65 -480 486 0
-65 -486 481 480 0
-66 -486 481 0
-66 486 -481 0
-67 -486 481 0
-67 486 -481 0
-68 -486 481 0
-68 -486 482 0
-68 486 -481 -482 0
-69 -486 481 0
-69 -486 483 0
-69 486 -481 -483 0
-70 -486 481 0
-70 486 -481 0
-87 -486 481 0
-87 486 -481 0
-61 -487 482 0
-61 487 -482 0
-62 -487 482 0
-62 487 -482 0
-63 -482 487 0
-63 -479 487 0
-63 -487 482 479 0
-64 -487 482 0
-64 487 -482 0
-65 -487 482 0
-65 487 -482 0
-66 -482 487 0
-66 -480 487 0
-66 -487 482 480 0
-67 -487 482 0
-67 487 -482 0
-68 -482 487 0
-68 -481 487 0
-68 -487 482 481 0
-69 -487 482 0
-69 487 -482 0
-70 -487 482 0
-70 -487 483 0
-70 487 -482 -483 0
-87 -487 482 0
-87 487 -482 0
-61 -488 483 0
-61 488 -483 0
-62 -488 483 0
-62 488 -483 0
-63 -488 483 0
-63 488 -483 0
-64 -483 488 0
-64 -479 488 0
-64 -488 483 479 0
-65 -488 483 0
-65 488 -483 0
-66 -488 483 0
-66 488 -483 0
-67 -483 488 0
-67 -480 488 0
-67 -488 483 480 0
-68 -488 483 0
-68 488 -483 0
-69 -483 488 0
-69 -481 488 0
-69 -488 483 481 0
-70 -483 488 0
-70 -482 488 0
-70 -488 483 482 0
-87 -488 483 0
-87 488 -483 0
-71 -489 484 0
-71 -489 485 0
-71 489 -484 -485 0
-72 -489 484 0
-72 -489 486 0
-72 489 -484 -486 0
-73 -489 484 0
-73 -489 487 0
-73 489 -484 -487 0
-74 -489 484 0
-74 -489 488 0
-74 489 -484 -488 0
-75 -489 484 0
-75 489 -484 0
-76 -489 484 0
-76 489 -484 0
-77 -489 484 0
-77 489 -484 0
-78 -489 484 0
-78 489 -484 0
-79 -489 484 0
-79 489 -484 0
-80 -489 484 0
-80 489 -484 0
-88 -489 484 0
-88 489 -484 0
-71 -485 490 0
-71 -484 490 0
-71 -490 485 484 0
-72 -490 485 0
-72 490 -485 0
-73 -490 485 0
-73 490 -485 0
-74 -490 485 0
-74 490 -485 0
-75 -490 485 0
-75 -490 486 0
-75 490 -485 -486 0
-76 -490 485 0
-76 -490 487 0
-76 490 -485 -487 0
-77 -490 485 0
-77 -490 488 0
-77 490 -485 -488 0
-78 -490 485 0
-78 490 -485 0
-79 -490 485 0
-79 490 -485 0
-80 -490 485 0
-80 490 -485 0
-88 -490 485 0
-88 490 -485 0
-71 -491 486 0
-71 491 -486 0
-72 -486 491 0
-72 -484 491 0
-72 -491 486 484 0
-73 -491 486 0
-73 491 -486 0
-74 -491 486 0
-74 491 -486 0
-75 -486 491 0
-75 -485 491 0
-75 -491 486 485 0
-76 -491 486 0
-76 491 -486 0
-77 -491 486 0
-77 491 -486 0
-78 -491 486 0
-78 -491 487 0
-78 491 -486 -487 0
-79 -491 486 0
-79 -491 488 0
-79 491 -486 -488 0
-80 -491 486 0
-80 491 -486 0
-88 -491 486 0
-88 491 -486 0
-71 -492 487 0
-71 492 -487 0
-72 -492 487 0
-72 492 -487 0
-73 -487 492 0
-73 -484 492 0
-73 -492 487 484 0
-74 -492 487 0
-74 492 -487 0
-75 -492 487 0
-75 492 -487 0
-76 -487 492 0
-76 -485 492 0
-76 -492 487 485 0
-77 -492 487 0
-77 492 -487 0
-78 -487 492 0
-78 -486 492 0
-78 -492 487 486 0
-79 -492 487 0
-79 492 -487 0
-80 -492 487 0
-80 -492 488 0
-80 492 -487 -488 0
-88 -492 487 0
-88 492 -487 0
-71 -493 488 0
-71 493 -488 0
-72 -493 488 0
-72 493 -488 0
-73 -493 488 0
-73 493 -488 0
-74 -488 493 0
-74 -484 493 0
-74 -493 488 484 0
-75 -493 488 0
-75 493 -488 0
-76 -493 488 0
-76 493 -488 0
-77 -488 493 0
-77 -485 493 0
-77 -493 488 485 0
-78 -493 488 0
-78 493 -488 0
-79 -488 493 0
-79 -486 493 0
-79 -493 488 486 0
-80 -488 493 0
-80 -487 493 0
-80 -493 488 487 0
-88 -493 488 0
-88 493 -488 0
-494 0
-1 -499 494 0
-1 -499 495 0
-1 499 -494 -495 0
-2 -499 494 0
-2 -499 496 0
-2 499 -494 -496 0
-3 -499 494 0
-3 -499 497 0
-3 499 -494 -497 0
-4 -499 494 0
-4 -499 498 0
-4 499 -494 -498 0
-5 -499 494 0
-5 499 -494 0
-6 -499 494 0
-6 499 -494 0
-7 -499 494 0
-7 499 -494 0
-8 -499 494 0
-8 499 -494 0
-9 -499 494 0
-9 499 -494 0
-10 -499 494 0
-10 499 -494 0
-81 -499 494 0
-81 499 -494 0
495 0
-1 -495 500 0
-1 -494 500 0
-1 -500 495 494 0
-2 -500 495 0
-2 500 -495 0
-3 -500 495 0
-3 500 -495 0
-4 -500 495 0
-4 500 -495 0
-5 -500 495 0
-5 -500 496 0
-5 500 -495 -496 0
-6 -500 495 0
-6 -500 497 0
-6 500 -495 -497 0
-7 -500 495 0
-7 -500 498 0
-7 500 -495 -498 0
-8 -500 495 0
-8 500 -495 0
-9 -500 495 0
-9 500 -495 0
-10 -500 495 0
-10 500 -495 0
-81 -500 495 0
-81 500 -495 0
496 0
-1 -501 496 0
-1 501 -496 0
-2 -496 501 0
-2 -494 501 0
-2 -501 496 494 0
-3 -501 496 0
-3 501 -496 0
-4 -501 496 0
-4 501 -496 0
-5 -496 501 0
-5 -495 501 0
-5 -501 496 495 0
-6 -501 496 0
-6 501 -496 0
-7 -501 496 0
-7 501 -496 0
-8 -501 496 0
-8 -501 497 0
-8 501 -496 -497 0
-9 -501 496 0
-9 -501 498 0
-9 501 -496 -498 0
-10 -501 496 0
-10 501 -496 0
-81 -501 496 0
-81 501 -496 0
-497 0
-1 -502 497 0
-1 502 -497 0
-2 -502 497 0
-2 502 -497 0
-3 -497 502 0
-3 -494 502 0
-3 -502 497 494 0
-4 -502 497 0
-4 502 -497 0
-5 -502 497 0
-5 502 -497 0
-6 -497 502 0
-6 -495 502 0
-6 -502 497 495 0
-7 -502 497 0
-7 502 -497 0
-8 -497 502 0
-8 -496 502 0
-8 -502 497 496 0
-9 -502 497 0
-9 502 -497 0
-10 -502 497 0
-10 -502 498 0
-10 502 -497 -498 0
-81 -502 497 0
-81 502 -497 0
498 0
-1 -503 498 0
-1 503 -498 0
-2 -503 498 0
-2 503 -498 0
-3 -503 498 0
-3 503 -498 0
-4 -498 503 0
-4 -494 503 0
-4 -503 498 494 0
-5 -503 498 0
-5 503 -498 0
-6 -503 498 0
-6 503 -498 0
-7 -498 503 0
-7 -495 503 0
-7 -503 498 495 0
-8 -503 498 0
-8 503 -498 0
-9 -498 503 0
-9 -496 503 0
-9 -503 498 496 0
-10 -498 503 0
-10 -497 503 0
-10 -503 498 497 0
-81 -503 498 0
-81 503 -498 0
-11 -504 499 0
-11 -504 500 0
-11 504 -499 -500 0
-12 -504 499 0
-12 -504 501 0
-12 504 -499 -501 0
-13 -504 499 0
-13 -504 502 0
-13 504 -499 -502 0
-14 -504 499 0
-14 -504 503 0
-14 504 -499 -503 0
-15 -504 499 0
-15 504 -499 0
-16 -504 499 0
-16 504 -499 0
-17 -504 499 0
-17 504 -499 0
-18 -504 499 0
-18 504 -499 0
-19 -504 499 0
-19 504 -499 0
-20 -504 499 0
-20 504 -499 0
-82 -504 499 0
-82 504 -499 0
-11 -500 505 0
-11 -499 505 0
-11 -505 500 499 0
-12 -505 500 0
-12 505 -500 0
-13 -505 500 0
-13 505 -500 0
-14 -505 500 0
-14 505 -500 0
-15 -505 500 0
-15 -505 501 0
-15 505 -500 -501 0
-16 -505 500 0
-16 -505 502 0
-16 505 -500 -502 0
-17 -505 500 0
-17 -505 503 0
-17 505 -500 -503 0
-18 -505 500 0
-18 505 -500 0
-19 -505 500 0
-19 505 -500 0
-20 -505 500 0
-20 505 -500 0
-82 -505 500 0
-82 505 -500 0
-11 -506 501 0
-11 506 -501 0
-12 -501 506 0
-12 -499 506 0
-12 -506 501 499 0
-13 -506 501 0
-13 506 -501 0
-14 -506 501 0
-14 506 -501 0
-15 -501 506 0
-15 -500 506 0
-15 -506 501 500 0
-16 -506 501 0
-16 506 -501 0
-17 -506 501 0
-17 506 -501 0
-18 -506 501 0
-18 -506 502 0
-18 506 -501 -502 0
-19 -506 501 0
-19 -506 503 0
-19 506 -501 -503 0
-20 -506 501 0
-20 506 -501 0
-82 -506 501 0
-82 506 -501 0
-11 -507 502 0
-11 507 -502 0
-12 -507 502 0
-12 507 -502 0
-13 -502 507 0
-13 -499 507 0
-13 -507 502 499 0
-14 -507 502 0
-14 507 -502 0
-15 -507 502 0
-15 507 -502 0
-16 -502 507 0
-16 -500 507 0
-16 -507 502 500 0
-17 -507 502 0
-17 507 -502 0
-18 -502 507 0
-18 -501 507 0
-18 -507 502 501 0
-19 -507 502 0
-19 507 -502 0
-20 -507 502 0
-20 -507 503 0
-20 507 -502 -503 0
-82 -507 502 0
-82 507 -502 0
-11 -508 503 0
-11 508 -503 0
-12 -508 503 0
-12 508 -503 0
-13 -508 503 0
-13 508 -503 0
-14 -503 508 0
-14 -499 508 0
-14 -508 503 499 0
-15 -508 503 0
-15 508 -503 0
-16 -508 503 0
-16 508 -503 0
-17 -503 508 0
-17 -500 508 0
-17 -508 503 500 0
-18 -508 503 0
-18 508 -503 0
-19 -503 508 0
-19 -501 508 0
-19 -508 503 501 0
-20 -503 508 0
-20 -502 508 0
-20 -508 503 502 0
-82 -508 503 0
-82 508 -503 0
-21 -509 504 0
-21 -509 505 0
-21 509 -504 -505 0
-22 -509 504 0
-22 -509 506 0
-22 509 -504 -506 0
-23 -509 504 0
-23 -509 507 0
-23 509 -504 -507 0
-24 -509 504 0
-24 -509 508 0
-24 509 -504 -508 0
-25 -509 504 0
-25 509 -504 0
-26 -509 504 0
-26 509 -504 0
-27 -509 504 0
-27 509 -504 0
-28 -509 504 0
-28 509 -504 0
-29 -509 504 0
-29 509 -504 0
-30 -509 504 0
-30 509 -504 0
-83 -509 504 0
-83 509 -504 0
-21 -505 510 0
-21 -504 510 0
-21 -510 505 504 0
-22 -510 505 0
-22 510 -505 0
-23 -510 505 0
-23 510 -505 0
-24 -510 505 0
-24 510 -505 0
-25 -510 505 0
-25 -510 506 0
-25 510 -505 -506 0
-26 -510 505 0
-26 -510 507 0
-26 510 -505 -507 0
-27 -510 505 0
-27 -510 508 0
-27 510 -505 -508 0
-28 -510 505 0
-28 510 -505 0
-29 -510 505 0
-29 510 -505 0
-30 -510 505 0
-30 510 -505 0
-83 -510 505 0
-83 510 -505 0
-21 -511 506 0
-21 511 -506 0
-22 -506 511 0
-22 -504 511 0
-22 -511 506 504 0
-23 -511 506 0
-23 511 -506 0
-24 -511 506 0
-24 511 -506 0
-25 -506 511 0
-25 -505 511 0
-25 -511 506 505 0
-26 -511 506 0
-26 511 -506 0
-27 -511 506 0
-27 511 -506 0
-28 -511 506 0
-28 -511 507 0
-28 511 -506 -507 0
-29 -511 506 0
-29 -511 508 0
-29 511 -506 -508 0
-30 -511 506 0
-30 511 -506 0
-83 -511 506 0
-83 511 -506 0
-21 -512 507 0
-21 512 -507 0
-22 -512 507 0
-22 512 -507 0
-23 -507 512 0
-23 -504 512 0
-23 -512 507 504 0
-24 -512 507 0
-24 512 -507 0
-25 -512 507 0
-25 512 -507 0
-26 -507 512 0
-26 -505 512 0
-26 -512 507 505 0
-27 -512 507 0
-27 512 -507 0
-28 -507 512 0
-28 -506 512 0
-28 -512 507 506 0
-29 -512 507 0
-29 512 -507 0
-30 -512 507 0
-30 -512 508 0
-30 512 -507 -508 0
-83 -512 507 0
-83 512 -507 0
-21 -513 508 0
-21 513 -508 0
-22 -513 508 0
-22 513 -508 0
-23 -513 508 0
-23 513 -508 0
-24 -508 513 0
-24 -504 513 0
-24 -513 508 504 0
-25 -513 508 0
-25 513 -508 0
-26 -513 508 0
-26 513 -508 0
-27 -508 513 0
-27 -505 513 0
-27 -513 508 505 0
-28 -513 508 0
-28 513 -508 0
-29 -508 513 0
-29 -506 513 0
-29 -513 508 506 0
-30 -508 513 0
-30 -507 513 0
-30 -513 508 507 0
-83 -513 508 0
-83 513 -508 0
-31 -514 509 0
-31 -514 510 0
-31 514 -509 -510 0
-32 -514 509 0
-32 -514 511 0
-32 514 -509 -511 0
-33 -514 509 0
-33 -514 512 0
-33 514 -509 -512 0
-34 -514 509 0
-34 -514 513 0
-34 514 -509 -513 0
-35 -514 509 0
-35 514 -509 0
-36 -514 509 0
-36 514 -509 0
-37 -514 509 0
-37 514 -509 0
-38 -514 509 0
-38 514 -509 0
-39 -514 509 0
-39 514 -509 0
-40 -514 509 0
-40 514 -509 0
-84 -514 509 0
-84 514 -509 0
-31 -510 515 0
-31 -509 515 0
-31 -515 510 509 0
-32 -515 510 0
-32 515 -510 0
-33 -515 510 0
-33 515 -510 0
-34 -515 510 0
-34 515 -510 0
-35 -515 510 0
-35 -515 511 0
-35 515 -510 -511 0
-36 -515 510 0
-36 -515 512 0
-36 515 -510 -512 0
-37 -515 510 0
-37 -515 513 0
-37 515 -510 -513 0
-38 -515 510 0
-38 515 -510 0
-39 -515 510 0
-39 515 -510 0
-40 -515 510 0
-40 515 -510 0
-84 -515 510 0
-84 515 -510 0
-31 -516 511 0
-31 516 -511 0
-32 -511 516 0
-32 -509 516 0
-32 -516 511 509 0
-33 -516 511 0
-33 516 -511 0
-34 -516 511 0
-34 516 -511 0
-35 -511 516 0
-35 -510 516 0
-35 -516 511 510 0
-36 -516 511 0
-36 516 -511 0
-37 -516 511 0
-37 516 -511 0
-38 -516 511 0
-38 -516 512 0
-38 516 -511 -512 0
-39 -516 511 0
-39 -516 513 0
-39 516 -511 -513 0
-40 -516 511 0
-40 516 -511 0
-84 -516 511 0
-84 516 -511 0
-31 -517 512 0
-31 517 -512 0
-32 -517 512 0
-32 517 -512 0
-33 -512 517 0
-33 -509 517 0
-33 -517 512 509 0
-34 -517 512 0
-34 517 -512 0
-35 -517 512 0
-35 517 -512 0
-36 -512 517 0
-36 -510 517 0
-36 -517 512 510 0
-37 -517 512 0
-37 517 -512 0
-38 -512 517 0
-38 -511 517 0
-38 -517 512 511 0
-39 -517 512 0
-39 517 -512 0
-40 -517 512 0
-40 -517 513 0
-40 517 -512 -513 0
-84 -517 512 0
-84 517 -512 0
-31 -518 513 0
-31 518 -513 0
-32 -518 513 0
-32 518 -513 0
-33 -518 513 0
-33 518 -513 0
-34 -513 518 0
-34 -509 518 0
-34 -518 513 509 0
-35 -518 513 0
-35 518 -513 0
-36 -518 513 0
-36 518 -513 0
-37 -513 518 0
-37 -510 518 0
-37 -518 513 510 0
-38 -518 513 0
-38 518 -513 0
-39 -513 518 0
-39 -511 518 0
-39 -518 513 511 0
-40 -513 518 0
-40 -512 518 0
-40 -518 513 512 0
-84 -518 513 0
-84 518 -513 0
-41 -519 514 0
-41 -519 515 0
-41 519 -514 -515 0
-42 -519 514 0
-42 -519 516 0
-42 519 -514 -516 0
-43 -519 514 0
-43 -519 517 0
-43 519 -514 -517 0
-44 -519 514 0
-44 -519 518 0
-44 519 -514 -518 0
-45 -519 514 0
-45 519 -514 0
-46 -519 514 0
-46 519 -514 0
-47 -519 514 0
-47 519 -514 0
-48 -519 514 0
-48 519 -514 0
-49 -519 514 0
-49 519 -514 0
-50 -519 514 0
-50 519 -514 0
-85 -519 514 0
-85 519 -514 0
-41 -515 520 0
-41 -514 520 0
-41 -520 515 514 0
-42 -520 515 0
-42 520 -515 0
-43 -520 515 0
-43 520 -515 0
-44 -520 515 0
-44 520 -515 0
-45 -520 515 0
-45 -520 516 0
-45 520 -515 -516 0
-46 -520 515 0
-46 -520 517 0
-46 520 -515 -517 0
-47 -520 515 0
-47 -520 518 0
-47 520 -515 -518 0
-48 -520 515 0
-48 520 -515 0
-49 -520 515 0
-49 520 -515 0
-50 -520 515 0
-50 520 -515 0
-85 -520 515 0
-85 520 -515 0
-41 -521 516 0
-41 521 -516 0
-42 -516 521 0
-42 -514 521 0
-42 -521 516 514 0
-43 -521 516 0
-43 521 -516 0
-44 -521 516 0
-44 521 -516 0
-45 -516 521 0
-45 -515 521 0
-45 -521 516 515 0
-46 -521 516 0
-46 521 -516 0
-47 -521 516 0
-47 521 -516 0
-48 -521 516 0
-48 -521 517 0
-48 521 -516 -517 0
-49 -521 516 0
-49 -521 518 0
-49 521 -516 -518 0
-50 -521 516 0
-50 521 -516 0
-85 -521 516 0
-85 521 -516 0
-41 -522 517 0
-41 522 -517 0
-42 -522 517 0
-42 522 -517 0
-43 -517 522 0
-43 -514 522 0
-43 -522 517 514 0
-44 -522 517 0
-44 522 -517 0
-45 -522 517 0
-45 522 -517 0
-46 -517 522 0
-46 -515 522 0
-46 -522 517 515 0
-47 -522 517 0
-47 522 -517 0
-48 -517 522 0
-48 -516 522 0
-48 -522 517 516 0
-49 -522 517 0
-49 522 -517 0
-50 -522 517 0
-50 -522 518 0
-50 522 -517 -518 0
-85 -522 517 0
-85 522 -517 0
-41 -523 518 0
-41 523 -518 0
-42 -523 518 0
-42 523 -518 0
-43 -523 518 0
-43 523 -518 0
-44 -518 523 0
-44 -514 523 0
-44 -523 518 514 0
-45 -523 518 0
-45 523 -518 0
-46 -523 518 0
-46 523 -518 0
-47 -518 523 0
-47 -515 523 0
-47 -523 518 515 0
-48 -523 518 0
-48 523 -518 0
-49 -518 523 0
-49 -516 523 0
-49 -523 518 516 0
-50 -518 523 0
-50 -517 523 0
-50 -523 518 517 0
-85 -523 518 0
-85 523 -518 0
-51 -524 519 0
-51 -524 520 0
-51 524 -519 -520 0
-52 -524 519 0
-52 -524 521 0
-52 524 -519 -521 0
-53 -524 519 0
-53 -524 522 0
-53 524 -519 -522 0
-54 -524 519 0
-54 -524 523 0
-54 524 -519 -523 0
-55 -524 519 0
-55 524 -519 0
-56 -524 519 0
-56 524 -519 0
-57 -524 519 0
-57 524 -519 0
-58 -524 519 0
-58 524 -519 0
-59 -524 519 0
-59 524 -519 0
-60 -524 519 0
-60 524 -519 0
-86 -524 519 0
-86 524 -519 0
-51 -520 525 0
-51 -519 525 0
-51 -525 520 519 0
-52 -525 520 0
-52 525 -520 0
-53 -525 520 0
-53 525 -520 0
-54 -525 520 0
-54 525 -520 0
-55 -525 520 0
-55 -525 521 0
-55 525 -520 -521 0
-56 -525 520 0
-56 -525 522 0
-56 525 -520 -522 0
-57 -525 520 0
-57 -525 523 0
-57 525 -520 -523 0
-58 -525 520 0
-58 525 -520 0
-59 -525 520 0
-59 525 -520 0
-60 -525 520 0
-60 525 -520 0
-86 -525 520 0
-86 525 -520 0
-51 -526 521 0
-51 526 -521 0
-52 -521 526 0
-52 -519 526 0
-52 -526 521 519 0
-53 -526 521 0
-53 526 -521 0
-54 -526 521 0
-54 526 -521 0
-55 -521 526 0
-55 -520 526 0
-55 -526 521 520 0
-56 -526 521 0
-56 526 -521 0
-57 -526 521 0
-57 526 -521 0
-58 -526 521 0
-58 -526 522 0
-58 526 -521 -522 0
-59 -526 521 0
-59 -526 523 0
-59 526 -521 -523 0
-60 -526 521 0
-60 526 -521 0
-86 -526 521 0
-86 526 -521 0
-51 -527 522 0
-51 527 -522 0
-52 -527 522 0
-52 527 -522 0
-53 -522 527 0
-53 -519 527 0
-53 -527 522 519 0
-54 -527 522 0
-54 527 -522 0
-55 -527 522 0
-55 527 -522 0
-56 -522 527 0
-56 -520 527 0
-56 -527 522 520 0
-57 -527 522 0
-57 527 -522 0
-58 -522 527 0
-58 -521 527 0
-58 -527 522 521 0
-59 -527 522 0
-59 527 -522 0
-60 -527 522 0
-60 -527 523 0
-60 527 -522 -523 0
-86 -527 522 0
-86 527 -522 0
-51 -528 523 0
-51 528 -523 0
-52 -528 523 0
-52 528 -523 0
-53 -528 523 0
-53 528 -523 0
-54 -523 528 0
-54 -519 528 0
-54 -528 523 519 0
-55 -528 523 0
-55 528 -523 0
-56 -528 523 0
-56 528 -523 0
-57 -523 528 0
-57 -520 528 0
-57 -528 523 520 0
-58 -528 523 0
-58 528 -523 0
-59 -523 528 0
-59 -521 528 0
-59 -528 523 521 0
-60 -523 528 0
-60 -522 528 0
-60 -528 523 522 0
-86 -528 523 0
-86 528 -523 0
-61 -529 524 0
-61 -529 525 0
-61 529 -524 -525 0
-62 -529 524 0
-62 -529 526 0
-62 529 -524 -526 0
-63 -529 524 0
-63 -529 527 0
-63 529 -524 -527 0
-64 -529 524 0
-64 -529 528 0
-64 529 -524 -528 0
-65 -529 524 0
-65 529 -524 0
-66 -529 524 0
-66 529 -524 0
-67 -529 524 0
-67 529 -524 0
-68 -529 524 0
-68 529 -524 0
-69 -529 524 0
-69 529 -524 0
-70 -529 524 0
-70 529 -524 0
-87 -529 524 0
-87 529 -524 0
-61 -525 530 0
-61 -524 530 0
-61 -530 525 524 0
-62 -530 525 0
-62 530 -525 0
-63 -530 525 0
-63 530 -525 0
-64 -530 525 0
-64 530 -525 0
-65 -530 525 0
-65 -530 526 0
-65 530 -525 -526 0
-66 -530 525 0
-66 -530 527 0
-66 530 -525 -527 0
-67 -530 525 0
-67 -530 528 0
-67 530 -525 -528 0
-68 -530 525 0
-68 530 -525 0
-69 -530 525 0
-69 530 -525 0
-70 -530 525 0
-70 530 -525 0
-87 -530 525 0
-87 530 -525 0
-61 -531 526 0
-61 531 -526 0
-62 -526 531 0
-62 -524 531 0
-62 -531 526 524 0
-63 -531 526 0
-63 531 -526 0
-64 -531 526 0
-64 531 -526 0
-65 -526 531 0
-65 -525 531 0
-65 -531 526 525 0
-66 -531 526 0
-66 531 -526 0
-67 -531 526 0
-67 531 -526 0
-68 -531 526 0
-68 -531 527 0
-68 531 -526 -527 0
-69 -531 526 0
-69 -531 528 0
-69 531 -526 -528 0
-70 -531 526 0
-70 531 -526 0
-87 -531 526 0
-87 531 -526 0
-61 -532 527 0
-61 532 -527 0
-62 -532 527 0
-62 532 -527 0
-63 -527 532 0
-63 -524 532 0
-63 -532 527 524 0
-64 -532 527 0
-64 532 -527 0
-65 -532 527 0
-65 532 -527 0
-66 -527 532 0
-66 -525 532 0
-66 -532 527 525 0
-67 -532 527 0
-67 532 -527 0
-68 -527 532 0
-68 -526 532 0
-68 -532 527 526 0
-69 -532 527 0
-69 532 -527 0
-70 -532 527 0
-70 -532 528 0
-70 532 -527 -528 0
-87 -532 527 0
-87 532 -527 0
-61 -533 528 0
-61 533 -528 0
-62 -533 528 0
-62 533 -528 0
-63 -533 528 0
-63 533 -528 0
-64 -528 533 0
-64 -524 533 0
-64 -533 528 524 0
-65 -533 528 0
-65 533 -528 0
-66 -533 528 0
-66 533 -528 0
-67 -528 533 0
-67 -525 533 0
-67 -533 528 525 0
-68 -533 528 0
-68 533 -528 0
-69 -528 533 0
-69 -526 533 0
-69 -533 528 526 0
-70 -528 533 0
-70 -527 533 0
-70 -533 528 527 0
-87 -533 528 0
-87 533 -528 0
-71 -534 529 0
-71 -534 530 0
-71 534 -529 -530 0
-72 -534 529 0
-72 -534 531 0
-72 534 -529 -531 0
-73 -534 529 0
-73 -534 532 0
-73 534 -529 -532 0
-74 -534 529 0
-74 -534 533 0
-74 534 -529 -533 0
-75 -534 529 0
-75 534 -529 0
-76 -534 529 0
-76 534 -529 0
-77 -534 529 0
-77 534 -529 0
-78 -534 529 0
-78 534 -529 0
-79 -534 529 0
-79 534 -529 0
-80 -534 529 0
-80 534 -529 0
-88 -534 529 0
-88 534 -529 0
-71 -530 535 0
-71 -529 535 0
-71 -535 530 529 0
-72 -535 530 0
-72 535 -530 0
-73 -535 530 0
-73 535 -530 0
-74 -535 530 0
-74 535 -530 0
-75 -535 530 0
-75 -535 531 0
-75 535 -530 -531 0
-76 -535 530 0
-76 -535 532 0
-76 535 -530 -532 0
-77 -535 530 0
-77 -535 533 0
-77 535 -530 -533 0
-78 -535 530 0
-78 535 -530 0
-79 -535 530 0
-79 535 -530 0
-80 -535 530 0
-80 535 -530 0
-88 -535 530 0
-88 535 -530 0
-71 -536 531 0
-71 536 -531 0
-72 -531 536 0
-72 -529 536 0
-72 -536 531 529 0
-73 -536 531 0
-73 536 -531 0
-74 -536 531 0
-74 536 -531 0
-75 -531 536 0
-75 -530 536 0
-75 -536 531 530 0
-76 -536 531 0
-76 536 -531 0
-77 -536 531 0
-77 536 -531 0
-78 -536 531 0
-78 -536 532 0
-78 536 -531 -532 0
-79 -536 531 0
-79 -536 533 0
-79 536 -531 -533 0
-80 -536 531 0
-80 536 -531 0
-88 -536 531 0
-88 536 -531 0
-71 -537 532 0
-71 537 -532 0
-72 -537 532 0
-72 537 -532 0
-73 -532 537 0
-73 -529 537 0
-73 -537 532 529 0
-74 -537 532 0
-74 537 -532 0
-75 -537 532 0
-75 537 -532 0
-76 -532 537 0
-76 -530 537 0
-76 -537 532 530 0
-77 -537 532 0
-77 537 -532 0
-78 -532 537 0
-78 -531 537 0
-78 -537 532 531 0
-79 -537 532 0
-79 537 -532 0
-80 -537 532 0
-80 -537 533 0
-80 537 -532 -533 0
-88 -537 532 0
-88 537 -532 0
-71 -538 533 0
-71 538 -533 0
-72 -538 533 0
-72 538 -533 0
-73 -538 533 0
-73 538 -533 0
-74 -533 538 0
-74 -529 538 0
-74 -538 533 529 0
-75 -538 533 0
-75 538 -533 0
-76 -538 533 0
-76 538 -533 0
-77 -533 538 0
-77 -530 538 0
-77 -538 533 530 0
-78 -538 533 0
-78 538 -533 0
-79 -533 538 0
-79 -531 538 0
-79 -538 533 531 0
-80 -533 538 0
-80 -532 538 0
-80 -538 533 532 0
-88 -538 533 0
-88 538 -533 0
-539 0
-1 -544 539 0
-1 -544 540 0
-1 544 -539 -540 0
-2 -544 539 0
-2 -544 541 0
-2 544 -539 -541 0
-3 -544 539 0
-3 -544 542 0
-3 544 -539 -542 0
-4 -544 539 0
-4 -544 543 0
-4 544 -539 -543 0
-5 -544 539 0
-5 544 -539 0
-6 -544 539 0
-6 544 -539 0
-7 -544 539 0
-7 544 -539 0
-8 -544 539 0
-8 544 -539 0
-9 -544 539 0
-9 544 -539 0
-10 -544 539 0
-10 544 -539 0
-81 -544 539 0
-81 544 -539 0
540 0
-1 -540 545 0
-1 -539 545 0
-1 -545 540 539 0
-2 -545 540 0
-2 545 -540 0
-3 -545 540 0
-3 545 -540 0
-4 -545 540 0
-4 545 -540 0
-5 -545 540 0
-5 -545 541 0
-5 545 -540 -541 0
-6 -545 540 0
-6 -545 542 0
-6 545 -540 -542 0
-7 -545 540 0
-7 -545 543 0
-7 545 -540 -543 0
-8 -545 540 0
-8 545 -540 0
-9 -545 540 0
-9 545 -540 0
-10 -545 540 0
-10 545 -540 0
-81 -545 540 0
-81 545 -540 0
541 0
-1 -546 541 0
-1 546 -541 0
-2 -541 546 0
-2 -539 546 0
-2 -546 541 539 0
-3 -546 541 0
-3 546 -541 0
-4 -546 541 0
-4 546 -541 0
-5 -541 546 0
-5 -540 546 0
-5 -546 541 540 0
-6 -546 541 0
-6 546 -541 0
-7 -546 541 0
-7 546 -541 0
-8 -546 541 0
-8 -546 542 0
-8 546 -541 -542 0
-9 -546 541 0
-9 -546 543 0
-9 546 -541 -543 0
-10 -546 541 0
-10 546 -541 0
-81 -546 541 0
-81 546 -541 0
542 0
-1 -547 542 0
-1 547 -542 0
-2 -547 542 0
-2 547 -542 0
-3 -542 547 0
-3 -539 547 0
-3 -547 542 539 0
-4 -547 542 0
-4 547 -542 0
-5 -547 542 0
-5 547 -542 0
-6 -542 547 0
-6 -540 547 0
-6 -547 542 540 0
-7 -547 542 0
-7 547 -542 0
-8 -542 547 0
-8 -541 547 0
-8 -547 542 541 0
-9 -547 542 0
-9 547 -542 0
-10 -547 542 0
-10 -547 543 0
-10 547 -542 -543 0
-81 -547 542 0
-81 547 -542 0
-543 0
-1 -548 543 0
-1 548 -543 0
-2 -548 543 0
-2 548 -543 0
-3 -548 543 0
-3 548 -543 0
-4 -543 548 0
-4 -539 548 0
-4 -548 543 539 0
-5 -548 543 0
-5 548 -543 0
-6 -548 543 0
-6 548 -543 0
-7 -543 548 0
-7 -540 548 0
-7 -548 543 540 0
-8 -548 543 0
-8 548 -543 0
-9 -543 548 0
-9 -541 548 0
-9 -548 543 541 0
-10 -543 548 0
-10 -542 548 0
-10 -548 543 542 0
-81 -548 543 0
-81 548 -543 0
-11 -549 544 0
-11 -549 545 0
-11 549 -544 -545 0
-12 -549 544 0
-12 -549 546 0
-12 549 -544 -546 0
-13 -549 544 0
-13 -549 547 0
-13 549 -544 -547 0
-14 -549 544 0
-14 -549 548 0
-14 549 -544 -548 0
-15 -549 544 0
-15 549 -544 0
-16 -549 544 0
-16 549 -544 0
-17 -549 544 0
-17 549 -544 0
-18 -549 544 0
-18 549 -544 0
-19 -549 544 0
-19 549 -544 0
-20 -549 544 0
-20 549 -544 0
-82 -549 544 0
-82 549 -544 0
-11 -545 550 0
-11 -544 550 0
-11 -550 545 544 0
-12 -550 545 0
-12 550 -545 0
-13 -550 545 0
-13 550 -545 0
-14 -550 545 0
-14 550 -545 0
-15 -550 545 0
-15 -550 546 0
-15 550 -545 -546 0
-16 -550 545 0
-16 -550 547 0
-16 550 -545 -547 0
-17 -550 545 0
-17 -550 548 0
-17 550 -545 -548 0
-18 -550 545 0
-18 550 -545 0
-19 -550 545 0
-19 550 -545 0
-20 -550 545 0
-20 550 -545 0
-82 -550 545 0
-82 550 -545 0
-11 -551 546 0
-11 551 -546 0
-12 -546 551 0
-12 -544 551 0
-12 -551 546 544 0
-13 -551 546 0
-13 551 -546 0
-14 -551 546 0
-14 551 -546 0
-15 -546 551 0
-15 -545 551 0
-15 -551 546 545 0
-16 -551 546 0
-16 551 -546 0
-17 -551 546 0
-17 551 -546 0
-18 -551 546 0
-18 -551 547 0
-18 551 -546 -547 0
-19 -551 546 0
-19 -551 548 0
-19 551 -546 -548 0
-20 -551 546 0
-20 551 -546 0
-82 -551 546 0
-82 551 -546 0
-11 -552 547 0
-11 552 -547 0
-12 -552 547 0
-12 552 -547 0
-13 -547 552 0
-13 -544 552 0
-13 -552 547 544 0
-14 -552 547 0
-14 552 -547 0
-15 -552 547 0
-15 552 -547 0
-16 -547 552 0
-16 -545 552 0
-16 -552 547 545 0
-17 -552 547 0
-17 552 -547 0
-18 -547 552 0
-18 -546 552 0
-18 -552 547 546 0
-19 -552 547 0
-19 552 -547 0
-20 -552 547 0
-20 -552 548 0
-20 552 -547 -548 0
-82 -552 547 0
-82 552 -547 0
-11 -553 548 0
-11 553 -548 0
-12 -553 548 0
-12 553 -548 0
-13 -553 548 0
-13 553 -548 0
-14 -548 553 0
-14 -544 553 0
-14 -553 548 544 0
-15 -553 548 0
-15 553 -548 0
-16 -553 548 0
-16 553 -548 0
-17 -548 553 0
-17 -545 553 0
-17 -553 548 545 0
-18 -553 548 0
-18 553 -548 0
-19 -548 553 0
-19 -546 553 0
-19 -553 548 546 0
-20 -548 553 0
-20 -547 553 0
-20 -553 548 547 0
-82 -553 548 0
-82 553 -548 0
-21 -554 549 0
-21 -554 550 0
-21 554 -549 -550 0
-22 -554 549 0
-22 -554 551 0
-22 554 -549 -551 0
-23 -554 549 0
-23 -554 552 0
-23 554 -549 -552 0
-24 -554 549 0
-24 -554 553 0
-24 554 -549 -553 0
-25 -554 549 0
-25 554 -549 0
-26 -554 549 0
-26 554 -549 0
-27 -554 549 0
-27 554 -549 0
-28 -554 549 0
-28 554 -549 0
-29 -554 549 0
-29 554 -549 0
-30 -554 549 0
-30 554 -549 0
-83 -554 549 0
-83 554 -549 0
-21 -550 555 0
-21 -549 555 0
-21 -555 550 549 0
-22 -555 550 0
-22 555 -550 0
-23 -555 550 0
-23 555 -550 0
-24 -555 550 0
-24 555 -550 0
-25 -555 550 0
-25 -555 551 0
-25 555 -550 -551 0
-26 -555 550 0
-26 -555 552 0
-26 555 -550 -552 0
-27 -555 550 0
-27 -555 553 0
-27 555 -550 -553 0
-28 -555 550 0
-28 555 -550 0
-29 -555 550 0
-29 555 -550 0
-30 -555 550 0
-30 555 -550 0
-83 -555 550 0
-83 555 -550 0
-21 -556 551 0
-21 556 -551 0
-22 -551 556 0
-22 -549 556 0
-22 -556 551 549 0
-23 -556 551 0
-23 556 -551 0
-24 -556 551 0
-24 556 -551 0
-25 -551 556 0
-25 -550 556 0
-25 -556 551 550 0
-26 -556 551 0
-26 556 -551 0
-27 -556 551 0
-27 556 -551 0
-28 -556 551 0
-28 -556 552 0
-28 556 -551 -552 0
-29 -556 551 0
-29 -556 553 0
-29 556 -551 -553 0
-30 -556 551 0
-30 556 -551 0
-83 -556 551 0
-83 556 -551 0
-21 -557 552 0
-21 557 -552 0
-22 -557 552 0
-22 557 -552 0
-23 -552 557 0
-23 -549 557 0
-23 -557 552 549 0
-24 -557 552 0
-24 557 -552 0
-25 -557 552 0
-25 557 -552 0
-26 -552 557 0
-26 -550 557 0
-26 -557 552 550 0
-27 -557 552 0
-27 557 -552 0
-28 -552 557 0
-28 -551 557 0
-28 -557 552 551 0
-29 -557 552 0
-29 557 -552 0
-30 -557 552 0
-30 -557 553 0
-30 557 -552 -553 0
-83 -557 552 0
-83 557 -552 0
-21 -558 553 0
-21 558 -553 0
-22 -558 553 0
-22 558 -553 0
-23 -558 553 0
-23 558 -553 0
-24 -553 558 0
-24 -549 558 0
-24 -558 553 549 0
-25 -558 553 0
-25 558 -553 0
-26 -558 553 0
-26 558 -553 0
-27 -553 558 0
-27 -550 558 0
-27 -558 553 550 0
-28 -558 553 0
-28 558 -553 0
-29 -553 558 0
-29 -551 558 0
-29 -558 553 551 0
-30 -553 558 0
-30 -552 558 0
-30 -558 553 552 0
-83 -558 553 0
-83 558 -553 0
-31 -559 554 0
-31 -559 555 0
-31 559 -554 -555 0
-32 -559 554 0
-32 -559 556 0
-32 559 -554 -556 0
-33 -559 554 0
-33 -559 557 0
-33 559 -554 -557 0
-34 -559 554 0
-34 -559 558 0
-34 559 -554 -558 0
-35 -559 554 0
-35 559 -554 0
-36 -559 554 0
-36 559 -554 0
-37 -559 554 0
-37 559 -554 0
-38 -559 554 0
-38 559 -554 0
-39 -559 554 0
-39 559 -554 0
-40 -559 554 0
-40 559 -554 0
-84 -559 554 0
-84 559 -554 0
-31 -555 560 0
-31 -554 560 0
-31 -560 555 554 0
-32 -560 555 0
-32 560 -555 0
-33 -560 555 0
-33 560 -555 0
-34 -560 555 0
-34 560 -555 0
-35 -560 555 0
-35 -560 556 0
-35 560 -555 -556 0
-36 -560 555 0
-36 -560 557 0
-36 560 -555 -557 0
-37 -560 555 0
-37 -560 558 0
-37 560 -555 -558 0
-38 -560 555 0
-38 560 -555 0
-39 -560 555 0
-39 560 -555 0
-40 -560 555 0
-40 560 -555 0
-84 -560 555 0
-84 560 -555 0
-31 -561 556 0
-31 561 -556 0
-32 -556 561 0
-32 -554 561 0
-32 -561 556 554 0
-33 -561 556 0
-33 561 -556 0
-34 -561 556 0
-34 561 -556 0
-35 -556 561 0
-35 -555 561 0
-35 -561 556 555 0
-36 -561 556 0
-36 561 -556 0
-37 -561 556 0
-37 561 -556 0
-38 -561 556 0
-38 -561 557 0
-38 561 -556 -557 0
-39 -561 556 0
-39 -561 558 0
-39 561 -556 -558 0
-40 -561 556 0
-40 561 -556 0
-84 -561 556 0
-84 561 -556 0
-31 -562 557 0
-31 562 -557 0
-32 -562 557 0
-32 562 -557 0
-33 -557 562 0
-33 -554 562 0
-33 -562 557 554 0
-34 -562 557 0
-34 562 -557 0
-35 -562 557 0
-35 562 -557 0
-36 -557 562 0
-36 -555 562 0
-36 -562 557 555 0
-37 -562 557 0
-37 562 -557 0
-38 -557 562 0
-38 -556 562 0
-38 -562 557 556 0
-39 -562 557 0
-39 562 -557 0
-40 -562 557 0
-40 -562 558 0
-40 562 -557 -558 0
-84 -562 557 0
-84 562 -557 0
-31 -563 558 0
-31 563 -558 0
-32 -563 558 0
-32 563 -558 0
-33 -563 558 0
-33 563 -558 0
-34 -558 563 0
-34 -554 563 0
-34 -563 558 554 0
-35 -563 558 0
-35 563 -558 0
-36 -563 558 0
-36 563 -558 0
-37 -558 563 0
-37 -555 563 0
-37 -563 558 555 0
-38 -563 558 0
-38 563 -558 0
-39 -558 563 0
-39 -556 563 0
-39 -563 558 556 0
-40 -558 563 0
-40 -557 563 0
-40 -563 558 557 0
-84 -563 558 0
-84 563 -558 0
-41 -564 559 0
-41 -564 560 0
-41 564 -559 -560 0
-42 -564 559 0
-42 -564 561 0
-42 564 -559 -561 0
-43 -564 559 0
-43 -564 562 0
-43 564 -559 -562 0
-44 -564 559 0
-44 -564 563 0
-44 564 -559 -563 0
-45 -564 559 0
-45 564 -559 0
-46 -564 559 0
-46 564 -559 0
-47 -564 559 0
-47 564 -559 0
-48 -564 559 0
-48 564 -559 0
-49 -564 559 0
-49 564 -559 0
-50 -564 559 0
-50 564 -559 0
-85 -564 559 0
-85 564 -559 0
-41 -560 565 0
-41 -559 565 0
-41 -565 560 559 0
-42 -565 560 0
-42 565 -560 0
-43 -565 560 0
-43 565 -560 0
-44 -565 560 0
-44 565 -560 0
-45 -565 560 0
-45 -565 561 0
-45 565 -560 -561 0
-46 -565 560 0
-46 -565 562 0
-46 565 -560 -562 0
-47 -565 560 0
-47 -565 563 0
-47 565 -560 -563 0
-48 -565 560 0
-48 565 -560 0
-49 -565 560 0
-49 565 -560 0
-50 -565 560 0
-50 565 -560 0
-85 -565 560 0
-85 565 -560 0
-41 -566 561 0
-41 566 -561 0
-42 -561 566 0
-42 -559 566 0
-42 -566 561 559 0
-43 -566 561 0
-43 566 -561 0
-44 -566 561 0
-44 566 -561 0
-45 -561 566 0
-45 -560 566 0
-45 -566 561 560 0
-46 -566 561 0
-46 566 -561 0
-47 -566 561 0
-47 566 -561 0
-48 -566 561 0
-48 -566 562 0
-48 566 -561 -562 0
-49 -566 561 0
-49 -566 563 0
-49 566 -561 -563 0
-50 -566 561 0
-50 566 -561 0
-85 -566 561 0
-85 566 -561 0
-41 -567 562 0
-41 567 -562 0
-42 -567 562 0
-42 567 -562 0
-43 -562 567 0
-43 -559 567 0
-43 -567 562 559 0
-44 -567 562 0
-44 567 -562 0
-45 -567 562 0
-45 567 -562 0
-46 -562 567 0
-46 -560 567 0
-46 -567 562 560 0
-47 -567 562 0
-47 567 -562 0
-48 -562 567 0
-48 -561 567 0
-48 -567 562 561 0
-49 -567 562 0
-49 567 -562 0
-50 -567 562 0
-50 -567 563 0
-50 567 -562 -563 0
-85 -567 562 0
-85 567 -562 0
-41 -568 563 0
-41 568 -563 0
-42 -568 563 0
-42 568 -563 0
-43 -568 563 0
-43 568 -563 0
-44 -563 568 0
-44 -559 568 0
-44 -568 563 559 0
-45 -568 563 0
-45 568 -563 0
-46 -568 563 0
-46 568 -563 0
-47 -563 568 0
-47 -560 568 0
-47 -568 563 560 0
-48 -568 563 0
-48 568 -563 0
-49 -563 568 0
-49 -561 568 0
-49 -568 563 561 0
-50 -563 568 0
-50 -562 568 0
-50 -568 563 562 0
-85 -568 563 0
-85 568 -563 0
-51 -569 564 0
-51 -569 565 0
-51 569 -564 -565 0
-52 -569 564 0
-52 -569 566 0
-52 569 -564 -566 0
-53 -569 564 0
-53 -569 567 0
-53 569 -564 -567 0
-54 -569 564 0
-54 -569 568 0
-54 569 -564 -568 0
-55 -569 564 0
-55 569 -564 0
-56 -569 564 0
-56 569 -564 0
-57 -569 564 0
-57 569 -564 0
-58 -569 564 0
-58 569 -564 0
-59 -569 564 0
-59 569 -564 0
-60 -569 564 0
-60 569 -564 0
-86 -569 564 0
-86 569 -564 0
-51 -565 570 0
-51 -564 570 0
-51 -570 565 564 0
-52 -570 565 0
-52 570 -565 0
-53 -570 565 0
-53 570 -565 0
-54 -570 565 0
-54 570 -565 0
-55 -570 565 0
-55 -570 566 0
-55 570 -565 -566 0
-56 -570 565 0
-56 -570 567 0
-56 570 -565 -567 0
-57 -570 565 0
-57 -570 568 0
-57 570 -565 -568 0
-58 -570 565 0
-58 570 -565 0
-59 -570 565 0
-59 570 -565 0
-60 -570 565 0
-60 570 -565 0
-86 -570 565 0
-86 570 -565 0
-51 -571 566 0
-51 571 -566 0
-52 -566 571 0
-52 -564 571 0
-52 -571 566 564 0
-53 -571 566 0
-53 571 -566 0
-54 -571 566 0
-54 571 -566 0
-55 -566 571 0
-55 -565 571 0
-55 -571 566 565 0
-56 -571 566 0
-56 571 -566 0
-57 -571 566 0
-57 571 -566 0
-58 -571 566 0
-58 -571 567 0
-58 571 -566 -567 0
-59 -571 566 0
-59 -571 568 0
-59 571 -566 -568 0
-60 -571 566 0
-60 571 -566 0
-86 -571 566 0
-86 571 -566 0
-51 -572 567 0
-51 572 -567 0
-52 -572 567 0
-52 572 -567 0
-53 -567 572 0
-53 -564 572 0
-53 -572 567 564 0
-54 -572 567 0
-54 572 -567 0
-55 -572 567 0
-55 572 -567 0
-56 -567 572 0
-56 -565 572 0
-56 -572 567 565 0
-57 -572 567 0
-57 572 -567 0
-58 -567 572 0
-58 -566 572 0
-58 -572 567 566 0
-59 -572 567 0
-59 572 -567 0
-60 -572 567 0
-60 -572 568 0
-60 572 -567 -568 0
-86 -572 567 0
-86 572 -567 0
-51 -573 568 0
-51 573 -568 0
-52 -573 568 0
-52 573 -568 0
-53 -573 568 0
-53 573 -568 0
-54 -568 573 0
-54 -564 573 0
-54 -573 568 564 0
-55 -573 568 0
-55 573 -568 0
-56 -573 568 0
-56 573 -568 0
-57 -568 573 0
-57 -565 573 0
-57 -573 568 565 0
-58 -573 568 0
-58 573 -568 0
-59 -568 573 0
-59 -566 573 0
-59 -573 568 566 0
-60 -568 573 0
-60 -567 573 0
-60 -573 568 567 0
-86 -573 568 0
-86 573 -568 0
-61 -574 569 0
-61 -574 570 0
-61 574 -569 -570 0
-62 -574 569 0
-62 -574 571 0
-62 574 -569 -571 0
-63 -574 569 0
-63 -574 572 0
-63 574 -569 -572 0
-64 -574 569 0
-64 -574 573 0
-64 574 -569 -573 0
-65 -574 569 0
-65 574 -569 0
-66 -574 569 0
-66 574 -569 0
-67 -574 569 0
-67 574 -569 0
-68 -574 569 0
-68 574 -569 0
-69 -574 569 0
-69 574 -569 0
-70 -574 569 0
-70 574 -569 0
-87 -574 569 0
-87 574 -569 0
-61 -570 575 0
-61 -569 575 0
-61 -575 570 569 0
-62 -575 570 0
-62 575 -570 0
-63 -575 570 0
-63 575 -570 0
-64 -575 570 0
-64 575 -570 0
-65 -575 570 0
-65 -575 571 0
-65 575 -570 -571 0
-66 -575 570 0
-66 -575 572 0
-66 575 -570 -572 0
-67 -575 570 0
-67 -575 573 0
-67 575 -570 -573 0
-68 -575 570 0
-68 575 -570 0
-69 -575 570 0
-69 575 -570 0
-70 -575 570 0
-70 575 -570 0
-87 -575 570 0
-87 575 -570 0
-61 -576 571 0
-61 576 -571 0
-62 -571 576 0
-62 -569 576 0
-62 -576 571 569 0
-63 -576 571 0
-63 576 -571 0
-64 -576 571 0
-64 576 -571 0
-65 -571 576 0
-65 -570 576 0
-65 -576 571 570 0
-66 -576 571 0
-66 576 -571 0
-67 -576 571 0
-67 576 -571 0
-68 -576 571 0
-68 -576 572 0
-68 576 -571 -572 0
-69 -576 571 0
-69 -576 573 0
-69 576 -571 -573 0
-70 -576 571 0
-70 576 -571 0
-87 -576 571 0
-87 576 -571 0
-61 -577 572 0
-61 577 -572 0
-62 -577 572 0
-62 577 -572 0
-63 -572 577 0
-63 -569 577 0
-63 -577 572 569 0
-64 -577 572 0
-64 577 -572 0
-65 -577 572 0
-65 577 -572 0
-66 -572 577 0
-66 -570 577 0
-66 -577 572 570 0
-67 -577 572 0
-67 577 -572 0
-68 -572 577 0
-68 -571 577 0
-68 -577 572 571 0
-69 -577 572 0
-69 577 -572 0
-70 -577 572 0
-70 -577 573 0
-70 577 -572 -573 0
-87 -577 572 0
-87 577 -572 0
-61 -578 573 0
-61 578 -573 0
-62 -578 573 0
-62 578 -573 0
-63 -578 573 0
-63 578 -573 0
-64 -573 578 0
-64 -569 578 0
-64 -578 573 569 0
-65 -578 573 0
-65 578 -573 0
-66 -578 573 0
-66 578 -573 0
-67 -573 578 0
-67 -570 578 0
-67 -578 573 570 0
-68 -578 573 0
-68 578 -573 0
-69 -573 578 0
-69 -571 578 0
-69 -578 573 571 0
-70 -573 578 0
-70 -572 578 0
-70 -578 573 572 0
-87 -578 573 0
-87 578 -573 0
-71 -579 574 0
-71 -579 575 0
-71 579 -574 -575 0
-72 -579 574 0
-72 -579 576 0
-72 579 -574 -576 0
-73 -579 574 0
-73 -579 577 0
-73 579 -574 -577 0
-74 -579 574 0
-74 -579 578 0
-74 579 -574 -578 0
-75 -579 574 0
-75 579 -574 0
-76 -579 574 0
-76 579 -574 0
-77 -579 574 0
-77 579 -574 0
-78 -579 574 0
-78 579 -574 0
-79 -579 574 0
-79 579 -574 0
-80 -579 574 0
-80 579 -574 0
-88 -579 574 0
-88 579 -574 0
-71 -575 580 0
-71 -574 580 0
-71 -580 575 574 0
-72 -580 575 0
-72 580 -575 0
-73 -580 575 0
-73 580 -575 0
-74 -580 575 0
-74 580 -575 0
-75 -580 575 0
-75 -580 576 0
-75 580 -575 -576 0
-76 -580 575 0
-76 -580 577 0
-76 580 -575 -577 0
-77 -580 575 0
-77 -580 578 0
-77 580 -575 -578 0
-78 -580 575 0
-78 580 -575 0
-79 -580 575 0
-79 580 -575 0
-80 -580 575 0
-80 580 -575 0
-88 -580 575 0
-88 580 -575 0
-71 -581 576 0
-71 581 -576 0
-72 -576 581 0
-72 -574 581 0
-72 -581 576 574 0
-73 -581 576 0
-73 581 -576 0
-74 -581 576 0
-74 581 -576 0
-75 -576 581 0
-75 -575 581 0
-75 -581 576 575 0
-76 -581 576 0
-76 581 -576 0
-77 -581 576 0
-77 581 -576 0
-78 -581 576 0
-78 -581 577 0
-78 581 -576 -577 0
-79 -581 576 0
-79 -581 578 0
-79 581 -576 -578 0
-80 -581 576 0
-80 581 -576 0
-88 -581 576 0
-88 581 -576 0
-71 -582 577 0
-71 582 -577 0
-72 -582 577 0
-72 582 -577 0
-73 -577 582 0
-73 -574 582 0
-73 -582 577 574 0
-74 -582 577 0
-74 582 -577 0
-75 -582 577 0
-75 582 -577 0
-76 -577 582 0
-76 -575 582 0
-76 -582 577 575 0
-77 -582 577 0
-77 582 -577 0
-78 -577 582 0
-78 -576 582 0
-78 -582 577 576 0
-79 -582 577 0
-79 582 -577 0
-80 -582 577 0
-80 -582 578 0
-80 582 -577 -578 0
-88 -582 577 0
-88 582 -577 0
-71 -583 578 0
-71 583 -578 0
-72 -583 578 0
-72 583 -578 0
-73 -583 578 0
-73 583 -578 0
-74 -578 583 0
-74 -574 583 0
-74 -583 578 574 0
-75 -583 578 0
-75 583 -578 0
-76 -583 578 0
-76 583 -578 0
-77 -578 583 0
-77 -575 583 0
-77 -583 578 575 0
-78 -583 578 0
-78 583 -578 0
-79 -578 583 0
-79 -576 583 0
-79 -583 578 576 0
-80 -578 583 0
-80 -577 583 0
-80 -583 578 577 0
-88 -583 578 0
-88 583 -578 0
584 0
-1 -589 584 0
-1 -589 585 0
-1 589 -584 -585 0
-2 -589 584 0
-2 -589 586 0
-2 589 -584 -586 0
-3 -589 584 0
-3 -589 587 0
-3 589 -584 -587 0
-4 -589 584 0
-4 -589 588 0
-4 589 -584 -588 0
-5 -589 584 0
-5 589 -584 0
-6 -589 584 0
-6 589 -584 0
-7 -589 584 0
-7 589 -584 0
-8 -589 584 0
-8 589 -584 0
-9 -589 584 0
-9 589 -584 0
-10 -589 584 0
-10 589 -584 0
-81 -589 584 0
-81 589 -584 0
-585 0
-1 -585 590 0
-1 -584 590 0
-1 -590 585 584 0
-2 -590 585 0
-2 590 -585 0
-3 -590 585 0
-3 590 -585 0
-4 -590 585 0
-4 590 -585 0
-5 -590 585 0
-5 -590 586 0
-5 590 -585 -586 0
-6 -590 585 0
-6 -590 587 0
-6 590 -585 -587 0
-7 -590 585 0
-7 -590 588 0
-7 590 -585 -588 0
-8 -590 585 0
-8 590 -585 0
-9 -590 585 0
-9 590 -585 0
-10 -590 585 0
-10 590 -585 0
-81 -590 585 0
-81 590 -585 0
-586 0
-1 -591 586 0
-1 591 -586 0
-2 -586 591 0
-2 -584 591 0
-2 -591 586 584 0
-3 -591 586 0
-3 591 -586 0
-4 -591 586 0
-4 591 -586 0
-5 -586 591 0
-5 -585 591 0
-5 -591 586 585 0
-6 -591 586 0
-6 591 -586 0
-7 -591 586 0
-7 591 -586 0
-8 -591 586 0
-8 -591 587 0
-8 591 -586 -587 0
-9 -591 586 0
-9 -591 588 0
-9 591 -586 -588 0
-10 -591 586 0
-10 591 -586 0
-81 -591 586 0
-81 591 -586 0
-587 0
-1 -592 587 0
-1 592 -587 0
-2 -592 587 0
-2 592 -587 0
-3 -587 592 0
-3 -584 592 0
-3 -592 587 584 0
-4 -592 587 0
-4 592 -587 0
-5 -592 587 0
-5 592 -587 0
-6 -587 592 0
-6 -585 592 0
-6 -592 587 585 0
-7 -592 587 0
-7 592 -587 0
-8 -587 592 0
-8 -586 592 0
-8 -592 587 586 0
-9 -592 587 0
-9 592 -587 0
-10 -592 587 0
-10 -592 588 0
-10 592 -587 -588 0
-81 -592 587 0
-81 592 -587 0
-588 0
-1 -593 588 0
-1 593 -588 0
-2 -593 588 0
-2 593 -588 0
-3 -593 588 0
-3 593 -588 0
-4 -588 593 0
-4 -584 593 0
-4 -593 588 584 0
-5 -593 588 0
-5 593 -588 0
-6 -593 588 0
-6 593 -588 0
-7 -588 593 0
-7 -585 593 0
-7 -593 588 585 0
-8 -593 588 0
-8 593 -588 0
-9 -588 593 0
-9 -586 593 0
-9 -593 588 586 0
-10 -588 593 0
-10 -587 593 0
-10 -593 588 587 0
-81 -593 588 0
-81 593 -588 0
-11 -594 589 0
-11 -594 590 0
-11 594 -589 -590 0
-12 -594 589 0
-12 -594 591 0
-12 594 -589 -591 0
-13 -594 589 0
-13 -594 592 0
-13 594 -589 -592 0
-14 -594 589 0
-14 -594 593 0
-14 594 -589 -593 0
-15 -594 589 0
-15 594 -589 0
-16 -594 589 0
-16 594 -589 0
-17 -594 589 0
-17 594 -589 0
-18 -594 589 0
-18 594 -589 0
-19 -594 589 0
-19 594 -589 0
-20 -594 589 0
-20 594 -589 0
-82 -594 589 0
-82 594 -589 0
-11 -590 595 0
-11 -589 595 0
-11 -595 590 589 0
-12 -595 590 0
-12 595 -590 0
-13 -595 590 0
-13 595 -590 0
-14 -595 590 0
-14 595 -590 0
-15 -595 590 0
-15 -595 591 0
-15 595 -590 -591 0
-16 -595 590 0
-16 -595 592 0
-16 595 -590 -592 0
-17 -595 590 0
-17 -595 593 0
-17 595 -590 -593 0
-18 -595 590 0
-18 595 -590 0
-19 -595 590 0
-19 595 -590 0
-20 -595 590 0
-20 595 -590 0
-82 -595 590 0
-82 595 -590 0
-11 -596 591 0
-11 596 -591 0
-12 -591 596 0
-12 -589 596 0
-12 -596 591 589 0
-13 -596 591 0
-13 596 -591 0
-14 -596 591 0
-14 596 -591 0
-15 -591 596 0
-15 -590 596 0
-15 -596 591 590 0
-16 -596 591 0
-16 596 -591 0
-17 -596 591 0
-17 596 -591 0
-18 -596 591 0
-18 -596 592 0
-18 596 -591 -592 0
-19 -596 591 0
-19 -596 593 0
-19 596 -591 -593 0
-20 -596 591 0
-20 596 -591 0
-82 -596 591 0
-82 596 -591 0
-11 -597 592 0
-11 597 -592 0
-12 -597 592 0
-12 597 -592 0
-13 -592 597 0
-13 -589 597 0
-13 -597 592 589 0
-14 -597 592 0
-14 597 -592 0
-15 -597 592 0
-15 597 -592 0
-16 -592 597 0
-16 -590 597 0
-16 -597 592 590 0
-17 -597 592 0
-17 597 -592 0
-18 -592 597 0
-18 -591 597 0
-18 -597 592 591 0
-19 -597 592 0
-19 597 -592 0
-20 -597 592 0
-20 -597 593 0
-20 597 -592 -593 0
-82 -597 592 0
-82 597 -592 0
-11 -598 593 0
-11 598 -593 0
-12 -598 593 0
-12 598 -593 0
-13 -598 593 0
-13 598 -593 0
-14 -593 598 0
-14 -589 598 0
-14 -598 593 589 0
-15 -598 593 0
-15 598 -593 0
-16 -598 593 0
-16 598 -593 0
-17 -593 598 0
-17 -590 598 0
-17 -598 593 590 0
-18 -598 593 0
-18 598 -593 0
-19 -593 598 0
-19 -591 598 0
-19 -598 593 591 0
-20 -593 598 0
-20 -592 598 0
-20 -598 593 592 0
-82 -598 593 0
-82 598 -593 0
-21 -599 594 0
-21 -599 595 0
-21 599 -594 -595 0
-22 -599 594 0
-22 -599 596 0
-22 599 -594 -596 0
-23 -599 594 0
-23 -599 597 0
-23 599 -594 -597 0
-24 -599 594 0
-24 -599 598 0
-24 599 -594 -598 0
-25 -599 594 0
-25 599 -594 0
-26 -599 594 0
-26 599 -594 0
-27 -599 594 0
-27 599 -594 0
-28 -599 594 0
-28 599 -594 0
-29 -599 594 0
-29 599 -594 0
-30 -599 594 0
-30 599 -594 0
-83 -599 594 0
-83 599 -594 0
-21 -595 600 0
-21 -594 600 0
-21 -600 595 594 0
-22 -600 595 0
-22 600 -595 0
-23 -600 595 0
-23 600 -595 0
-24 -600 595 0
-24 600 -595 0
-25 -600 595 0
-25 -600 596 0
-25 600 -595 -596 0
-26 -600 595 0
-26 -600 597 0
-26 600 -595 -597 0
-27 -600 595 0
-27 -600 598 0
-27 600 -595 -598 0
-28 -600 595 0
-28 600 -595 0
-29 -600 595 0
-29 600 -595 0
-30 -600 595 0
-30 600 -595 0
-83 -600 595 0
-83 600 -595 0
-21 -601 596 0
-21 601 -596 0
-22 -596 601 0
-22 -594 601 0
-22 -601 596 594 0
-23 -601 596 0
-23 601 -596 0
-24 -601 596 0
-24 601 -596 0
-25 -596 601 0
-25 -595 601 0
-25 -601 596 595 0
-26 -601 596 0
-26 601 -596 0
-27 -601 596 0
-27 601 -596 0
-28 -601 596 0
-28 -601 597 0
-28 601 -596 -597 0
-29 -601 596 0
-29 -601 598 0
-29 601 -596 -598 0
-30 -601 596 0
-30 601 -596 0
-83 -601 596 0
-83 601 -596 0
-21 -602 597 0
-21 602 -597 0
-22 -602 597 0
-22 602 -597 0
-23 -597 602 0
-23 -594 602 0
-23 -602 597 594 0
-24 -602 597 0
-24 602 -597 0
-25 -602 597 0
-25 602 -597 0
-26 -597 602 0
-26 -595 602 0
-26 -602 597 595 0
-27 -602 597 0
-27 602 -597 0
-28 -597 602 0
-28 -596 602 0
-28 -602 597 596 0
-29 -602 597 0
-29 602 -597 0
-30 -602 597 0
-30 -602 598 0
-30 602 -597 -598 0
-83 -602 597 0
-83 602 -597 0
-21 -603 598 0
-21 603 -598 0
-22 -603 598 0
-22 603 -598 0
-23 -603 598 0
-23 603 -598 0
-24 -598 603 0
-24 -594 603 0
-24 -603 598 594 0
-25 -603 598 0
-25 603 -598 0
-26 -603 598 0
-26 603 -598 0
-27 -598 603 0
-27 -595 603 0
-27 -603 598 595 0
-28 -603 598 0
-28 603 -598 0
-29 -598 603 0
-29 -596 603 0
-29 -603 598 596 0
-30 -598 603 0
-30 -597 603 0
-30 -603 598 597 0
-83 -603 598 0
-83 603 -598 0
-31 -604 599 0
-31 -604 600 0
-31 604 -599 -600 0
-32 -604 599 0
-32 -604 601 0
-32 604 -599 -601 0
-33 -604 599 0
-33 -604 602 0
-33 604 -599 -602 0
-34 -604 599 0
-34 -604 603 0
-34 604 -599 -603 0
-35 -604 599 0
-35 604 -599 0
-36 -604 599 0
-36 604 -599 0
-37 -604 599 0
-37 604 -599 0
-38 -604 599 0
-38 604 -599 0
-39 -604 599 0
-39 604 -599 0
-40 -604 599 0
-40 604 -599 0
-84 -604 599 0
-84 604 -599 0
-31 -600 605 0
-31 -599 605 0
-31 -605 600 599 0
-32 -605 600 0
-32 605 -600 0
-33 -605 600 0
-33 605 -600 0
-34 -605 600 0
-34 605 -600 0
-35 -605 600 0
-35 -605 601 0
-35 605 -600 -601 0
-36 -605 600 0
-36 -605 602 0
-36 605 -600 -602 0
-37 -605 600 0
-37 -605 603 0
-37 605 -600 -603 0
-38 -605 600 0
-38 605 -600 0
-39 -605 600 0
-39 605 -600 0
-40 -605 600 0
-40 605 -600 0
-84 -605 600 0
-84 605 -600 0
-31 -606 601 0
-31 606 -601 0
-32 -601 606 0
-32 -599 606 0
-32 -606 601 599 0
-33 -606 601 0
-33 606 -601 0
-34 -606 601 0
-34 606 -601 0
-35 -601 606 0
-35 -600 606 0
-35 -606 601 600 0
-36 -606 601 0
-36 606 -601 0
-37 -606 601 0
-37 606 -601 0
-38 -606 601 0
-38 -606 602 0
-38 606 -601 -602 0
-39 -606 601 0
-39 -606 603 0
-39 606 -601 -603 0
-40 -606 601 0
-40 606 -601 0
-84 -606 601 0
-84 606 -601 0
-31 -607 602 0
-31 607 -602 0
-32 -607 602 0
-32 607 -602 0
-33 -602 607 0
-33 -599 607 0
-33 -607 602 599 0
-34 -607 602 0
-34 607 -602 0
-35 -607 602 0
-35 607 -602 0
-36 -602 607 0
-36 -600 607 0
-36 -607 602 600 0
-37 -607 602 0
-37 607 -602 0
-38 -602 607 0
-38 -601 607 0
-38 -607 602 601 0
-39 -607 602 0
-39 607 -602 0
-40 -607 602 0
-40 -607 603 0
-40 607 -602 -603 0
-84 -607 602 0
-84 607 -602 0
-31 -608 603 0
-31 608 -603 0
-32 -608 603 0
-32 608 -603 0
-33 -608 603 0
-33 608 -603 0
-34 -603 608 0
-34 -599 608 0
-34 -608 603 599 0
-35 -608 603 0
-35 608 -603 0
-36 -608 603 0
-36 608 -603 0
-37 -603 608 0
-37 -600 608 0
-37 -608 603 600 0
-38 -608 603 0
-38 608 -603 0
-39 -603 608 0
-39 -601 608 0
-39 -608 603 601 0
-40 -603 608 0
-40 -602 608 0
-40 -608 603 602 0
-84 -608 603 0
-84 608 -603 0
-41 -609 604 0
-41 -609 605 0
-41 609 -604 -605 0
-42 -609 604 0
-42 -609 606 0
-42 609 -604 -606 0
-43 -609 604 0
-43 -609 607 0
-43 609 -604 -607 0
-44 -609 604 0
-44 -609 608 0
-44 609 -604 -608 0
-45 -609 604 0
-45 609 -604 0
-46 -609 604 0
-46 609 -604 0
-47 -609 604 0
-47 609 -604 0
-48 -609 604 0
-48 609 -604 0
-49 -609 604 0
-49 609 -604 0
-50 -609 604 0
-50 609 -604 0
-85 -609 604 0
-85 609 -604 0
-41 -605 610 0
-41 -604 610 0
-41 -610 605 604 0
-42 -610 605 0
-42 610 -605 0
-43 -610 605 0
-43 610 -605 0
-44 -610 605 0
-44 610 -605 0
-45 -610 605 0
-45 -610 606 0
-45 610 -605 -606 0
-46 -610 605 0
-46 -610 607 0
-46 610 -605 -607 0
-47 -610 605 0
-47 -610 608 0
-47 610 -605 -608 0
-48 -610 605 0
-48 610 -605 0
-49 -610 605 0
-49 610 -605 0
-50 -610 605 0
-50 610 -605 0
-85 -610 605 0
-85 610 -605 0
-41 -611 606 0
-41 611 -606 0
-42 -606 611 0
-42 -604 611 0
-42 -611 606 604 0
-43 -611 606 0
-43 611 -606 0
-44 -611 606 0
-44 611 -606 0
-45 -606 611 0
-45 -605 611 0
-45 -611 606 605 0
-46 -611 606 0
-46 611 -606 0
-47 -611 606 0
-47 611 -606 0
-48 -611 606 0
-48 -611 607 0
-48 611 -606 -607 0
-49 -611 606 0
-49 -611 608 0
-49 611 -606 -608 0
-50 -611 606 0
-50 611 -606 0
-85 -611 606 0
-85 611 -606 0
-41 -612 607 0
-41 612 -607 0
-42 -612 607 0
-42 612 -607 0
-43 -607 612 0
-43 -604 612 0
-43 -612 607 604 0
-44 -612 607 0
-44 612 -607 0
-45 -612 607 0
-45 612 -607 0
-46 -607 612 0
-46 -605 612 0
-46 -612 607 605 0
-47 -612 607 0
-47 612 -607 0
-48 -607 612 0
-48 -606 612 0
-48 -612 607 606 0
-49 -612 607 0
-49 612 -607 0
-50 -612 607 0
-50 -612 608 0
-50 612 -607 -608 0
-85 -612 607 0
-85 612 -607 0
-41 -613 608 0
-41 613 -608 0
-42 -613 608 0
-42 613 -608 0
-43 -613 608 0
-43 613 -608 0
-44 -608 613 0
-44 -604 613 0
-44 -613 608 604 0
-45 -613 608 0
-45 613 -608 0
-46 -613 608 0
-46 613 -608 0
-47 -608 613 0
-47 -605 613 0
-47 -613 608 605 0
-48 -613 608 0
-48 613 -608 0
-49 -608 613 0
-49 -606 613 0
-49 -613 608 606 0
-50 -608 613 0
-50 -607 613 0
-50 -613 608 607 0
-85 -613 608 0
-85 613 -608 0
-51 -614 609 0
-51 -614 610 0
-51 614 -609 -610 0
-52 -614 609 0
-52 -614 611 0
-52 614 -609 -611 0
-53 -614 609 0
-53 -614 612 0
-53 614 -609 -612 0
-54 -614 609 0
-54 -614 613 0
-54 614 -609 -613 0
-55 -614 609 0
-55 614 -609 0
-56 -614 609 0
-56 614 -609 0
-57 -614 609 0
-57 614 -609 0
-58 -614 609 0
-58 614 -609 0
-59 -614 609 0
-59 614 -609 0
-60 -614 609 0
-60 614 -609 0
-86 -614 609 0
-86 614 -609 0
-51 -610 615 0
-51 -609 615 0
-51 -615 610 609 0
-52 -615 610 0
-52 615 -610 0
-53 -615 610 0
-53 615 -610 0
-54 -615 610 0
-54 615 -610 0
-55 -615 610 0
-55 -615 611 0
-55 615 -610 -611 0
-56 -615 610 0
-56 -615 612 0
-56 615 -610 -612 0
-57 -615 610 0
-57 -615 613 0
-57 615 -610 -613 0
-58 -615 610 0
-58 615 -610 0
-59 -615 610 0
-59 615 -610 0
-60 -615 610 0
-60 615 -610 0
-86 -615 610 0
-86 615 -610 0
-51 -616 611 0
-51 616 -611 0
-52 -611 616 0
-52 -609 616 0
-52 -616 611 609 0
-53 -616 611 0
-53 616 -611 0
-54 -616 611 0
-54 616 -611 0
-55 -611 616 0
-55 -610 616 0
-55 -616 611 610 0
-56 -616 611 0
-56 616 -611 0
-57 -616 611 0
-57 616 -611 0
-58 -616 611 0
-58 -616 612 0
-58 616 -611 -612 0
-59 -616 611 0
-59 -616 613 0
-59 616 -611 -613 0
-60 -616 611 0
-60 616 -611 0
-86 -616 611 0
-86 616 -611 0
-51 -617 612 0
-51 617 -612 0
-52 -617 612 0
-52 617 -612 0
-53 -612 617 0
-53 -609 617 0
-53 -617 612 609 0
-54 -617 612 0
-54 617 -612 0
-55 -617 612 0
-55 617 -612 0
-56 -612 617 0
-56 -610 617 0
-56 -617 612 610 0
-57 -617 612 0
-57 617 -612 0
-58 -612 617 0
-58 -611 617 0
-58 -617 612 611 0
-59 -617 612 0
-59 617 -612 0
-60 -617 612 0
-60 -617 613 0
-60 617 -612 -613 0
-86 -617 612 0
-86 617 -612 0
-51 -618 613 0
-51 618 -613 0
-52 -618 613 0
-52 618 -613 0
-53 -618 613 0
-53 618 -613 0
-54 -613 618 0
-54 -609 618 0
-54 -618 613 609 0
-55 -618 613 0
-55 618 -613 0
-56 -618 613 0
-56 618 -613 0
-57 -613 618 0
-57 -610 618 0
-57 -618 613 610 0
-58 -618 613 0
-58 618 -613 0
-59 -613 618 0
-59 -611 618 0
-59 -618 613 611 0
-60 -613 618 0
-60 -612 618 0
-60 -618 613 612 0
-86 -618 613 0
-86 618 -613 0
-61 -619 614 0
-61 -619 615 0
-61 619 -614 -615 0
-62 -619 614 0
-62 -619 616 0
-62 619 -614 -616 0
-63 -619 614 0
-63 -619 617 0
-63 619 -614 -617 0
-64 -619 614 0
-64 -619 618 0
-64 619 -614 -618 0
-65 -619 614 0
-65 619 -614 0
-66 -619 614 0
-66 619 -614 0
-67 -619 614 0
-67 619 -614 0
-68 -619 614 0
-68 619 -614 0
-69 -619 614 0
-69 619 -614 0
-70 -619 614 0
-70 619 -614 0
-87 -619 614 0
-87 619 -614 0
-61 -615 620 0
-61 -614 620 0
-61 -620 615 614 0
-62 -620 615 0
-62 620 -615 0
-63 -620 615 0
-63 620 -615 0
-64 -620 615 0
-64 620 -615 0
-65 -620 615 0
-65 -620 616 0
-65 620 -615 -616 0
-66 -620 615 0
-66 -620 617 0
-66 620 -615 -617 0
-67 -620 615 0
-67 -620 618 0
-67 620 -615 -618 0
-68 -620 615 0
-68 620 -615 0
-69 -620 615 0
-69 620 -615 0
-70 -620 615 0
-70 620 -615 0
-87 -620 615 0
-87 620 -615 0
-61 -621 616 0
-61 621 -616 0
-62 -616 621 0
-62 -614 621 0
-62 -621 616 614 0
-63 -621 616 0
-63 621 -616 0
-64 -621 616 0
-64 621 -616 0
-65 -616 621 0
-65 -615 621 0
-65 -621 616 615 0
-66 -621 616 0
-66 621 -616 0
-67 -621 616 0
-67 621 -616 0
-68 -621 616 0
-68 -621 617 0
-68 621 -616 -617 0
-69 -621 616 0
-69 -621 618 0
-69 621 -616 -618 0
-70 -621 616 0
-70 621 -616 0
-87 -621 616 0
-87 621 -616 0
-61 -622 617 0
-61 622 -617 0
-62 -622 617 0
-62 622 -617 0
-63 -617 622 0
-63 -614 622 0
-63 -622 617 614 0
-64 -622 617 0
-64 622 -617 0
-65 -622 617 0
-65 622 -617 0
-66 -617 622 0
-66 -615 622 0
-66 -622 617 615 0
-67 -622 617 0
-67 622 -617 0
-68 -617 622 0
-68 -616 622 0
-68 -622 617 616 0
-69 -622 617 0
-69 622 -617 0
-70 -622 617 0
-70 -622 618 0
-70 622 -617 -618 0
-87 -622 617 0
-87 622 -617 0
-61 -623 618 0
-61 623 -618 0
-62 -623 618 0
-62 623 -618 0
-63 -623 618 0
-63 623 -618 0
-64 -618 623 0
-64 -614 623 0
-64 -623 618 614 0
-65 -623 618 0
-65 623 -618 0
-66 -623 618 0
-66 623 -618 0
-67 -618 623 0
-67 -615 623 0
-67 -623 618 615 0
-68 -623 618 0
-68 623 -618 0
-69 -618 623 0
-69 -616 623 0
-69 -623 618 616 0
-70 -618 623 0
-70 -617 623 0
-70 -623 618 617 0
-87 -623 618 0
-87 623 -618 0
-71 -624 619 0
-71 -624 620 0
-71 624 -619 -620 0
-72 -624 619 0
-72 -624 621 0
-72 624 -619 -621 0
-73 -624 619 0
-73 -624 622 0
-73 624 -619 -622 0
-74 -624 619 0
-74 -624 623 0
-74 624 -619 -623 0
-75 -624 619 0
-75 624 -619 0
-76 -624 619 0
-76 624 -619 0
-77 -624 619 0
-77 624 -619 0
-78 -624 619 0
-78 624 -619 0
-79 -624 619 0
-79 624 -619 0
-80 -624 619 0
-80 624 -619 0
-88 -624 619 0
-88 624 -619 0
-71 -620 625 0
-71 -619 625 0
-71 -625 620 619 0
-72 -625 620 0
-72 625 -620 0
-73 -625 620 0
-73 625 -620 0
-74 -625 620 0
-74 625 -620 0
-75 -625 620 0
-75 -625 621 0
-75 625 -620 -621 0
-76 -625 620 0
-76 -625 622 0
-76 625 -620 -622 0
-77 -625 620 0
-77 -625 623 0
-77 625 -620 -623 0
-78 -625 620 0
-78 625 -620 0
-79 -625 620 0
-79 625 -620 0
-80 -625 620 0
-80 625 -620 0
-88 -625 620 0
-88 625 -620 0
-71 -626 621 0
-71 626 -621 0
-72 -621 626 0
-72 -619 626 0
-72 -626 621 619 0
-73 -626 621 0
-73 626 -621 0
-74 -626 621 0
-74 626 -621 0
-75 -621 626 0
-75 -620 626 0
-75 -626 621 620 0
-76 -626 621 0
-76 626 -621 0
-77 -626 621 0
-77 626 -621 0
-78 -626 621 0
-78 -626 622 0
-78 626 -621 -622 0
-79 -626 621 0
-79 -626 623 0
-79 626 -621 -623 0
-80 -626 621 0
-80 626 -621 0
-88 -626 621 0
-88 626 -621 0
-71 -627 622 0
-71 627 -622 0
-72 -627 622 0
-72 627 -622 0
-73 -622 627 0
-73 -619 627 0
-73 -627 622 619 0
-74 -627 622 0
-74 627 -622 0
-75 -627 622 0
-75 627 -622 0
-76 -622 627 0
-76 -620 627 0
-76 -627 622 620 0
-77 -627 622 0
-77 627 -622 0
-78 -622 627 0
-78 -621 627 0
-78 -627 622 621 0
-79 -627 622 0
-79 627 -622 0
-80 -627 622 0
-80 -627 623 0
-80 627 -622 -623 0
-88 -627 622 0
-88 627 -622 0
-71 -628 623 0
-71 628 -623 0
-72 -628 623 0
-72 628 -623 0
-73 -628 623 0
-73 628 -623 0
-74 -623 628 0
-74 -619 628 0
-74 -628 623 619 0
-75 -628 623 0
-75 628 -623 0
-76 -628 623 0
-76 628 -623 0
-77 -623 628 0
-77 -620 628 0
-77 -628 623 620 0
-78 -628 623 0
-78 628 -623 0
-79 -623 628 0
-79 -621 628 0
-79 -628 623 621 0
-80 -623 628 0
-80 -622 628 0
-80 -628 623 622 0
-88 -628 623 0
-88 628 -623 0
629 0
-1 -634 629 0
-1 -634 630 0
-1 634 -629 -630 0
-2 -634 629 0
-2 -634 631 0
-2 634 -629 -631 0
-3 -634 629 0
-3 -634 632 0
-3 634 -629 -632 0
-4 -634 629 0
-4 -634 633 0
-4 634 -629 -633 0
-5 -634 629 0
-5 634 -629 0
-6 -634 629 0
-6 634 -629 0
-7 -634 629 0
-7 634 -629 0
-8 -634 629 0
-8 634 -629 0
-9 -634 629 0
-9 634 -629 0
-10 -634 629 0
-10 634 -629 0
-81 -634 629 0
-81 634 -629 0
-630 0
-1 -630 635 0
-1 -629 635 0
-1 -635 630 629 0
-2 -635 630 0
-2 635 -630 0
-3 -635 630 0
-3 635 -630 0
-4 -635 630 0
-4 635 -630 0
-5 -635 630 0
-5 -635 631 0
-5 635 -630 -631 0
-6 -635 630 0
-6 -635 632 0
-6 635 -630 -632 0
-7 -635 630 0
-7 -635 633 0
-7 635 -630 -633 0
-8 -635 630 0
-8 635 -630 0
-9 -635 630 0
-9 635 -630 0
-10 -635 630 0
-10 635 -630 0
-81 -635 630 0
-81 635 -630 0
-631 0
-1 -636 631 0
-1 636 -631 0
-2 -631 636 0
-2 -629 636 0
-2 -636 631 629 0
-3 -636 631 0
-3 636 -631 0
-4 -636 631 0
-4 636 -631 0
-5 -631 636 0
-5 -630 636 0
-5 -636 631 630 0
-6 -636 631 0
-6 636 -631 0
-7 -636 631 0
-7 636 -631 0
-8 -636 631 0
-8 -636 632 0
-8 636 -631 -632 0
-9 -636 631 0
-9 -636 633 0
-9 636 -631 -633 0
-10 -636 631 0
-10 636 -631 0
-81 -636 631 0
-81 636 -631 0
-632 0
-1 -637 632 0
-1 637 -632 0
-2 -637 632 0
-2 637 -632 0
-3 -632 637 0
-3 -629 637 0
-3 -637 632 629 0
-4 -637 632 0
-4 637 -632 0
-5 -637 632 0
-5 637 -632 0
-6 -632 637 0
-6 -630 637 0
-6 -637 632 630 0
-7 -637 632 0
-7 637 -632 0
-8 -632 637 0
-8 -631 637 0
-8 -637 632 631 0
-9 -637 632 0
-9 637 -632 0
-10 -637 632 0
-10 -637 633 0
-10 637 -632 -633 0
-81 -637 632 0
-81 637 -632 0
633 0
-1 -638 633 0
-1 638 -633 0
-2 -638 633 0
-2 638 -633 0
-3 -638 633 0
-3 638 -633 0
-4 -633 638 0
-4 -629 638 0
-4 -638 633 629 0
-5 -638 633 0
-5 638 -633 0
-6 -638 633 0
-6 638 -633 0
-7 -633 638 0
-7 -630 638 0
-7 -638 633 630 0
-8 -638 633 0
-8 638 -633 0
-9 -633 638 0
-9 -631 638 0
-9 -638 633 631 0
-10 -633 638 0
-10 -632 638 0
-10 -638 633 632 0
-81 -638 633 0
-81 638 -633 0
-11 -639 634 0
-11 -639 635 0
-11 639 -634 -635 0
-12 -639 634 0
-12 -639 636 0
-12 639 -634 -636 0
-13 -639 634 0
-13 -639 637 0
-13 639 -634 -637 0
-14 -639 634 0
-14 -639 638 0
-14 639 -634 -638 0
-15 -639 634 0
-15 639 -634 0
-16 -639 634 0
-16 639 -634 0
-17 -639 634 0
-17 639 -634 0
-18 -639 634 0
-18 639 -634 0
-19 -639 634 0
-19 639 -634 0
-20 -639 634 0
-20 639 -634 0
-82 -639 634 0
-82 639 -634 0
-11 -635 640 0
-11 -634 640 0
-11 -640 635 634 0
-12 -640 635 0
-12 640 -635 0
-13 -640 635 0
-13 640 -635 0
-14 -640 635 0
-14 640 -635 0
-15 -640 635 0
-15 -640 636 0
-15 640 -635 -636 0
-16 -640 635 0
-16 -640 637 0
-16 640 -635 -637 0
-17 -640 635 0
-17 -640 638 0
-17 640 -635 -638 0
-18 -640 635 0
-18 640 -635 0
-19 -640 635 0
-19 640 -635 0
-20 -640 635 0
-20 640 -635 0
-82 -640 635 0
-82 640 -635 0
-11 -641 636 0
-11 641 -636 0
-12 -636 641 0
-12 -634 641 0
-12 -641 636 634 0
-13 -641 636 0
-13 641 -636 0
-14 -641 636 0
-14 641 -636 0
-15 -636 641 0
-15 -635 641 0
-15 -641 636 635 0
-16 -641 636 0
-16 641 -636 0
-17 -641 636 0
-17 641 -636 0
-18 -641 636 0
-18 -641 637 0
-18 641 -636 -637 0
-19 -641 636 0
-19 -641 638 0
-19 641 -636 -638 0
-20 -641 636 0
-20 641 -636 0
-82 -641 636 0
-82 641 -636 0
-11 -642 637 0
-11 642 -637 0
-12 -642 637 0
-12 642 -637 0
-13 -637 642 0
-13 -634 642 0
-13 -642 637 634 0
-14 -642 637 0
-14 642 -637 0
-15 -642 637 0
-15 642 -637 0
-16 -637 642 0
-16 -635 642 0
-16 -642 637 635 0
-17 -642 637 0
-17 642 -637 0
-18 -637 642 0
-18 -636 642 0
-18 -642 637 636 0
-19 -642 637 0
-19 642 -637 0
-20 -642 637 0
-20 -642 638 0
-20 642 -637 -638 0
-82 -642 637 0
-82 642 -637 0
-11 -643 638 0
-11 643 -638 0
-12 -643 638 0
-12 643 -638 0
-13 -643 638 0
-13 643 -638 0
-14 -638 643 0
-14 -634 643 0
-14 -643 638 634 0
-15 -643 638 0
-15 643 -638 0
-16 -643 638 0
-16 643 -638 0
-17 -638 643 0
-17 -635 643 0
-17 -643 638 635 0
-18 -643 638 0
-18 643 -638 0
-19 -638 643 0
-19 -636 643 0
-19 -643 638 636 0
-20 -638 643 0
-20 -637 643 0
-20 -643 638 637 0
-82 -643 638 0
-82 643 -638 0
-21 -644 639 0
-21 -644 640 0
-21 644 -639 -640 0
-22 -644 639 0
-22 -644 641 0
-22 644 -639 -641 0
-23 -644 639 0
-23 -644 642 0
-23 644 -639 -642 0
-24 -644 639 0
-24 -644 643 0
-24 644 -639 -643 0
-25 -644 639 0
-25 644 -639 0
-26 -644 639 0
-26 644 -639 0
-27 -644 639 0
-27 644 -639 0
-28 -644 639 0
-28 644 -639 0
-29 -644 639 0
-29 644 -639 0
-30 -644 639 0
-30 644 -639 0
-83 -644 639 0
-83 644 -639 0
-21 -640 645 0
-21 -639 645 0
-21 -645 640 639 0
-22 -645 640 0
-22 645 -640 0
-23 -645 640 0
-23 645 -640 0
-24 -645 640 0
-24 645 -640 0
-25 -645 640 0
-25 -645 641 0
-25 645 -640 -641 0
-26 -645 640 0
-26 -645 642 0
-26 645 -640 -642 0
-27 -645 640 0
-27 -645 643 0
-27 645 -640 -643 0
-28 -645 640 0
-28 645 -640 0
-29 -645 640 0
-29 645 -640 0
-30 -645 640 0
-30 645 -640 0
-83 -645 640 0
-83 645 -640 0
-21 -646 641 0
-21 646 -641 0
-22 -641 646 0
-22 -639 646 0
-22 -646 641 639 0
-23 -646 641 0
-23 646 -641 0
-24 -646 641 0
-24 646 -641 0
-25 -641 646 0
-25 -640 646 0
-25 -646 641 640 0
-26 -646 641 0
-26 646 -641 0
-27 -646 641 0
-27 646 -641 0
-28 -646 641 0
-28 -646 642 0
-28 646 -641 -642 0
-29 -646 641 0
-29 -646 643 0
-29 646 -641 -643 0
-30 -646 641 0
-30 646 -641 0
-83 -646 641 0
-83 646 -641 0
-21 -647 642 0
-21 647 -642 0
-22 -647 642 0
-22 647 -642 0
-23 -642 647 0
-23 -639 647 0
-23 -647 642 639 0
-24 -647 642 0
-24 647 -642 0
-25 -647 642 0
-25 647 -642 0
-26 -642 647 0
-26 -640 647 0
-26 -647 642 640 0
-27 -647 642 0
-27 647 -642 0
-28 -642 647 0
-28 -641 647 0
-28 -647 642 641 0
-29 -647 642 0
-29 647 -642 0
-30 -647 642 0
-30 -647 643 0
-30 647 -642 -643 0
-83 -647 642 0
-83 647 -642 0
-21 -648 643 0
-21 648 -643 0
-22 -648 643 0
-22 648 -643 0
-23 -648 643 0
-23 648 -643 0
-24 -643 648 0
-24 -639 648 0
-24 -648 643 639 0
-25 -648 643 0
-25 648 -643 0
-26 -648 643 0
-26 648 -643 0
-27 -643 648 0
-27 -640 648 0
-27 -648 643 640 0
-28 -648 643 0
-28 648 -643 0
-29 -643 648 0
-29 -641 648 0
-29 -648 643 641 0
-30 -643 648 0
-30 -642 648 0
-30 -648 643 642 0
-83 -648 643 0
-83 648 -643 0
-31 -649 644 0
-31 -649 645 0
-31 649 -644 -645 0
-32 -649 644 0
-32 -649 646 0
-32 649 -644 -646 0
-33 -649 644 0
-33 -649 647 0
-33 649 -644 -647 0
-34 -649 644 0
-34 -649 648 0
-34 649 -644 -648 0
-35 -649 644 0
-35 649 -644 0
-36 -649 644 0
-36 649 -644 0
-37 -649 644 0
-37 649 -644 0
-38 -649 644 0
-38 649 -644 0
-39 -649 644 0
-39 649 -644 0
-40 -649 644 0
-40 649 -644 0
-84 -649 644 0
-84 649 -644 0
-31 -645 650 0
-31 -644 650 0
-31 -650 645 644 0
-32 -650 645 0
-32 650 -645 0
-33 -650 645 0
-33 650 -645 0
-34 -650 645 0
-34 650 -645 0
-35 -650 645 0
-35 -650 646 0
-35 650 -645 -646 0
-36 -650 645 0
-36 -650 647 0
-36 650 -645 -647 0
-37 -650 645 0
-37 -650 648 0
-37 650 -645 -648 0
-38 -650 645 0
-38 650 -645 0
-39 -650 645 0
-39 650 -645 0
-40 -650 645 0
-40 650 -645 0
-84 -650 645 0
-84 650 -645 0
-31 -651 646 0
-31 651 -646 0
-32 -646 651 0
-32 -644 651 0
-32 -651 646 644 0
-33 -651 646 0
-33 651 -646 0
-34 -651 646 0
-34 651 -646 0
-35 -646 651 0
-35 -645 651 0
-35 -651 646 645 0
-36 -651 646 0
-36 651 -646 0
-37 -651 646 0
-37 651 -646 0
-38 -651 646 0
-38 -651 647 0
-38 651 -646 -647 0
-39 -651 646 0
-39 -651 648 0
-39 651 -646 -648 0
-40 -651 646 0
-40 651 -646 0
-84 -651 646 0
-84 651 -646 0
-31 -652 647 0
-31 652 -647 0
-32 -652 647 0
-32 652 -647 0
-33 -647 652 0
-33 -644 652 0
-33 -652 647 644 0
-34 -652 647 0
-34 652 -647 0
-35 -652 647 0
-35 652 -647 0
-36 -647 652 0
-36 -645 652 0
-36 -652 647 645 0
-37 -652 647 0
-37 652 -647 0
-38 -647 652 0
-38 -646 652 0
-38 -652 647 646 0
-39 -652 647 0
-39 652 -647 0
-40 -652 647 0
-40 -652 648 0
-40 652 -647 -648 0
-84 -652 647 0
-84 652 -647 0
-31 -653 648 0
-31 653 -648 0
-32 -653 648 0
-32 653 -648 0
-33 -653 648 0
-33 653 -648 0
-34 -648 653 0
-34 -644 653 0
-34 -653 648 644 0
-35 -653 648 0
-35 653 -648 0
-36 -653 648 0
-36 653 -648 0
-37 -648 653 0
-37 -645 653 0
-37 -653 648 645 0
-38 -653 648 0
-38 653 -648 0
-39 -648 653 0
-39 -646 653 0
-39 -653 648 646 0
-40 -648 653 0
-40 -647 653 0
-40 -653 648 647 0
-84 -653 648 0
-84 653 -648 0
-41 -654 649 0
-41 -654 650 0
-41 654 -649 -650 0
-42 -654 649 0
-42 -654 651 0
-42 654 -649 -651 0
-43 -654 649 0
-43 -654 652 0
-43 654 -649 -652 0
-44 -654 649 0
-44 -654 653 0
-44 654 -649 -653 0
-45 -654 649 0
-45 654 -649 0
-46 -654 649 0
-46 654 -649 0
-47 -654 649 0
-47 654 -649 0
-48 -654 649 0
-48 654 -649 0
-49 -654 649 0
-49 654 -649 0
-50 -654 649 0
-50 654 -649 0
-85 -654 649 0
-85 654 -649 0
-41 -650 655 0
-41 -649 655 0
-41 -655 650 649 0
-42 -655 650 0
-42 655 -650 0
-43 -655 650 0
-43 655 -650 0
-44 -655 650 0
-44 655 -650 0
-45 -655 650 0
-45 -655 651 0
-45 655 -650 -651 0
-46 -655 650 0
-46 -655 652 0
-46 655 -650 -652 0
-47 -655 650 0
-47 -655 653 0
-47 655 -650 -653 0
-48 -655 650 0
-48 655 -650 0
-49 -655 650 0
-49 655 -650 0
-50 -655 650 0
-50 655 -650 0
-85 -655 650 0
-85 655 -650 0
-41 -656 651 0
-41 656 -651 0
-42 -651 656 0
-42 -649 656 0
-42 -656 651 649 0
-43 -656 651 0
-43 656 -651 0
-44 -656 651 0
-44 656 -651 0
-45 -651 656 0
-45 -650 656 0
-45 -656 651 650 0
-46 -656 651 0
-46 656 -651 0
-47 -656 651 0
-47 656 -651 0
-48 -656 651 0
-48 -656 652 0
-48 656 -651 -652 0
-49 -656 651 0
-49 -656 653 0
-49 656 -651 -653 0
-50 -656 651 0
-50 656 -651 0
-85 -656 651 0
-85 656 -651 0
-41 -657 652 0
-41 657 -652 0
-42 -657 652 0
-42 657 -652 0
-43 -652 657 0
-43 -649 657 0
-43 -657 652 649 0
-44 -657 652 0
-44 657 -652 0
-45 -657 652 0
-45 657 -652 0
-46 -652 657 0
-46 -650 657 0
-46 -657 652 650 0
-47 -657 652 0
-47 657 -652 0
-48 -652 657 0
-48 -651 657 0
-48 -657 652 651 0
-49 -657 652 0
-49 657 -652 0
-50 -657 652 0
-50 -657 653 0
-50 657 -652 -653 0
-85 -657 652 0
-85 657 -652 0
-41 -658 653 0
-41 658 -653 0
-42 -658 653 0
-42 658 -653 0
-43 -658 653 0
-43 658 -653 0
-44 -653 658 0
-44 -649 658 0
-44 -658 653 649 0
-45 -658 653 0
-45 658 -653 0
-46 -658 653 0
-46 658 -653 0
-47 -653 658 0
-47 -650 658 0
-47 -658 653 650 0
-48 -658 653 0
-48 658 -653 0
-49 -653 658 0
-49 -651 658 0
-49 -658 653 651 0
-50 -653 658 0
-50 -652 658 0
-50 -658 653 652 0
-85 -658 653 0
-85 658 -653 0
-51 -659 654 0
-51 -659 655 0
-51 659 -654 -655 0
-52 -659 654 0
-52 -659 656 0
-52 659 -654 -656 0
-53 -659 654 0
-53 -659 657 0
-53 659 -654 -657 0
-54 -659 654 0
-54 -659 658 0
-54 659 -654 -658 0
-55 -659 654 0
-55 659 -654 0
-56 -659 654 0
-56 659 -654 0
-57 -659 654 0
-57 659 -654 0
-58 -659 654 0
-58 659 -654 0
-59 -659 654 0
-59 659 -654 0
-60 -659 654 0
-60 659 -654 0
-86 -659 654 0
-86 659 -654 0
-51 -655 660 0
-51 -654 660 0
-51 -660 655 654 0
-52 -660 655 0
-52 660 -655 0
-53 -660 655 0
-53 660 -655 0
-54 -660 655 0
-54 660 -655 0
-55 -660 655 0
-55 -660 656 0
-55 660 -655 -656 0
-56 -660 655 0
-56 -660 657 0
-56 660 -655 -657 0
-57 -660 655 0
-57 -660 658 0
-57 660 -655 -658 0
-58 -660 655 0
-58 660 -655 0
-59 -660 655 0
-59 660 -655 0
-60 -660 655 0
-60 660 -655 0
-86 -660 655 0
-86 660 -655 0
-51 -661 656 0
-51 661 -656 0
-52 -656 661 0
-52 -654 661 0
-52 -661 656 654 0
-53 -661 656 0
-53 661 -656 0
-54 -661 656 0
-54 661 -656 0
-55 -656 661 0
-55 -655 661 0
-55 -661 656 655 0
-56 -661 656 0
-56 661 -656 0
-57 -661 656 0
-57 661 -656 0
-58 -661 656 0
-58 -661 657 0
-58 661 -656 -657 0
-59 -661 656 0
-59 -661 658 0
-59 661 -656 -658 0
-60 -661 656 0
-60 661 -656 0
-86 -661 656 0
-86 661 -656 0
-51 -662 657 0
-51 662 -657 0
-52 -662 657 0
-52 662 -657 0
-53 -657 662 0
-53 -654 662 0
-53 -662 657 654 0
-54 -662 657 0
-54 662 -657 0
-55 -662 657 0
-55 662 -657 0
-56 -657 662 0
-56 -655 662 0
-56 -662 657 655 0
-57 -662 657 0
-57 662 -657 0
-58 -657 662 0
-58 -656 662 0
-58 -662 657 656 0
-59 -662 657 0
-59 662 -657 0
-60 -662 657 0
-60 -662 658 0
-60 662 -657 -658 0
-86 -662 657 0
-86 662 -657 0
-51 -663 658 0
-51 663 -658 0
-52 -663 658 0
-52 663 -658 0
-53 -663 658 0
-53 663 -658 0
-54 -658 663 0
-54 -654 663 0
-54 -663 658 654 0
-55 -663 658 0
-55 663 -658 0
-56 -663 658 0
-56 663 -658 0
-57 -658 663 0
-57 -655 663 0
-57 -663 658 655 0
-58 -663 658 0
-58 663 -658 0
-59 -658 663 0
-59 -656 663 0
-59 -663 658 656 0
-60 -658 663 0
-60 -657 663 0
-60 -663 658 657 0
-86 -663 658 0
-86 663 -658 0
-61 -664 659 0
-61 -664 660 0
-61 664 -659 -660 0
-62 -664 659 0
-62 -664 661 0
-62 664 -659 -661 0
-63 -664 659 0
-63 -664 662 0
-63 664 -659 -662 0
-64 -664 659 0
-64 -664 663 0
-64 664 -659 -663 0
-65 -664 659 0
-65 664 -659 0
-66 -664 659 0
-66 664 -659 0
-67 -664 659 0
-67 664 -659 0
-68 -664 659 0
-68 664 -659 0
-69 -664 659 0
-69 664 -659 0
-70 -664 659 0
-70 664 -659 0
-87 -664 659 0
-87 664 -659 0
-61 -660 665 0
-61 -659 665 0
-61 -665 660 659 0
-62 -665 660 0
-62 665 -660 0
-63 -665 660 0
-63 665 -660 0
-64 -665 660 0
-64 665 -660 0
-65 -665 660 0
-65 -665 661 0
-65 665 -660 -661 0
-66 -665 660 0
-66 -665 662 0
-66 665 -660 -662 0
-67 -665 660 0
-67 -665 663 0
-67 665 -660 -663 0
-68 -665 660 0
-68 665 -660 0
-69 -665 660 0
-69 665 -660 0
-70 -665 660 0
-70 665 -660 0
-87 -665 660 0
-87 665 -660 0
-61 -666 661 0
-61 666 -661 0
-62 -661 666 0
-62 -659 666 0
-62 -666 661 659 0
-63 -666 661 0
-63 666 -661 0
-64 -666 661 0
-64 666 -661 0
-65 -661 666 0
-65 -660 666 0
-65 -666 661 660 0
-66 -666 661 0
-66 666 -661 0
-67 -666 661 0
-67 666 -661 0
-68 -666 661 0
-68 -666 662 0
-68 666 -661 -662 0
-69 -666 661 0
-69 -666 663 0
-69 666 -661 -663 0
-70 -666 661 0
-70 666 -661 0
-87 -666 661 0
-87 666 -661 0
-61 -667 662 0
-61 667 -662 0
-62 -667 662 0
-62 667 -662 0
-63 -662 667 0
-63 -659 667 0
-63 -667 662 659 0
-64 -667 662 0
-64 667 -662 0
-65 -667 662 0
-65 667 -662 0
-66 -662 667 0
-66 -660 667 0
-66 -667 662 660 0
-67 -667 662 0
-67 667 -662 0
-68 -662 667 0
-68 -661 667 0
-68 -667 662 661 0
-69 -667 662 0
-69 667 -662 0
-70 -667 662 0
-70 -667 663 0
-70 667 -662 -663 0
-87 -667 662 0
-87 667 -662 0
-61 -668 663 0
-61 668 -663 0
-62 -668 663 0
-62 668 -663 0
-63 -668 663 0
-63 668 -663 0
-64 -663 668 0
-64 -659 668 0
-64 -668 663 659 0
-65 -668 663 0
-65 668 -663 0
-66 -668 663 0
-66 668 -663 0
-67 -663 668 0
-67 -660 668 0
-67 -668 663 660 0
-68 -668 663 0
-68 668 -663 0
-69 -663 668 0
-69 -661 668 0
-69 -668 663 661 0
-70 -663 668 0
-70 -662 668 0
-70 -668 663 662 0
-87 -668 663 0
-87 668 -663 0
-71 -669 664 0
-71 -669 665 0
-71 669 -664 -665 0
-72 -669 664 0
-72 -669 666 0
-72 669 -664 -666 0
-73 -669 664 0
-73 -669 667 0
-73 669 -664 -667 0
-74 -669 664 0
-74 -669 668 0
-74 669 -664 -668 0
-75 -669 664 0
-75 669 -664 0
-76 -669 664 0
-76 669 -664 0
-77 -669 664 0
-77 669 -664 0
-78 -669 664 0
-78 669 -664 0
-79 -669 664 0
-79 669 -664 0
-80 -669 664 0
-80 669 -664 0
-88 -669 664 0
-88 669 -664 0
-71 -665 670 0
-71 -664 670 0
-71 -670 665 664 0
-72 -670 665 0
-72 670 -665 0
-73 -670 665 0
-73 670 -665 0
-74 -670 665 0
-74 670 -665 0
-75 -670 665 0
-75 -670 666 0
-75 670 -665 -666 0
-76 -670 665 0
-76 -670 667 0
-76 670 -665 -667 0
-77 -670 665 0
-77 -670 668 0
-77 670 -665 -668 0
-78 -670 665 0
-78 670 -665 0
-79 -670 665 0
-79 670 -665 0
-80 -670 665 0
-80 670 -665 0
-88 -670 665 0
-88 670 -665 0
-71 -671 666 0
-71 671 -666 0
-72 -666 671 0
-72 -664 671 0
-72 -671 666 664 0
-73 -671 666 0
-73 671 -666 0
-74 -671 666 0
-74 671 -666 0
-75 -666 671 0
-75 -665 671 0
-75 -671 666 665 0
-76 -671 666 0
-76 671 -666 0
-77 -671 666 0
-77 671 -666 0
-78 -671 666 0
-78 -671 667 0
-78 671 -666 -667 0
-79 -671 666 0
-79 -671 668 0
-79 671 -666 -668 0
-80 -671 666 0
-80 671 -666 0
-88 -671 666 0
-88 671 -666 0
-71 -672 667 0
-71 672 -667 0
-72 -672 667 0
-72 672 -667 0
-73 -667 672 0
-73 -664 672 0
-73 -672 667 664 0
-74 -672 667 0
-74 672 -667 0
-75 -672 667 0
-75 672 -667 0
-76 -667 672 0
-76 -665 672 0
-76 -672 667 665 0
-77 -672 667 0
-77 672 -667 0
-78 -667 672 0
-78 -666 672 0
-78 -672 667 666 0
-79 -672 667 0
-79 672 -667 0
-80 -672 667 0
-80 -672 668 0
-80 672 -667 -668 0
-88 -672 667 0
-88 672 -667 0
-71 -673 668 0
-71 673 -668 0
-72 -673 668 0
-72 673 -668 0
-73 -673 668 0
-73 673 -668 0
-74 -668 673 0
-74 -664 673 0
-74 -673 668 664 0
-75 -673 668 0
-75 673 -668 0
-76 -673 668 0
-76 673 -668 0
-77 -668 673 0
-77 -665 673 0
-77 -673 668 665 0
-78 -673 668 0
-78 673 -668 0
-79 -668 673 0
-79 -666 673 0
-79 -673 668 666 0
-80 -668 673 0
-80 -667 673 0
-80 -673 668 667 0
-88 -673 668 0
-88 673 -668 0
674 0
-1 -679 674 0
-1 -679 675 0
-1 679 -674 -675 0
-2 -679 674 0
-2 -679 676 0
-2 679 -674 -676 0
-3 -679 674 0
-3 -679 677 0
-3 679 -674 -677 0
-4 -679 674 0
-4 -679 678 0
-4 679 -674 -678 0
-5 -679 674 0
-5 679 -674 0
-6 -679 674 0
-6 679 -674 0
-7 -679 674 0
-7 679 -674 0
-8 -679 674 0
-8 679 -674 0
-9 -679 674 0
-9 679 -674 0
-10 -679 674 0
-10 679 -674 0
-81 -679 674 0
-81 679 -674 0
-675 0
-1 -675 680 0
-1 -674 680 0
-1 -680 675 674 0
-2 -680 675 0
-2 680 -675 0
-3 -680 675 0
-3 680 -675 0
-4 -680 675 0
-4 680 -675 0
-5 -680 675 0
-5 -680 676 0
-5 680 -675 -676 0
-6 -680 675 0
-6 -680 677 0
-6 680 -675 -677 0
-7 -680 675 0
-7 -680 678 0
-7 680 -675 -678 0
-8 -680 675 0
-8 680 -675 0
-9 -680 675 0
-9 680 -675 0
-10 -680 675 0
-10 680 -675 0
-81 -680 675 0
-81 680 -675 0
-676 0
-1 -681 676 0
-1 681 -676 0
-2 -676 681 0
-2 -674 681 0
-2 -681 676 674 0
-3 -681 676 0
-3 681 -676 0
-4 -681 676 0
-4 681 -676 0
-5 -676 681 0
-5 -675 681 0
-5 -681 676 675 0
-6 -681 676 0
-6 681 -676 0
-7 -681 676 0
-7 681 -676 0
-8 -681 676 0
-8 -681 677 0
-8 681 -676 -677 0
-9 -681 676 0
-9 -681 678 0
-9 681 -676 -678 0
-10 -681 676 0
-10 681 -676 0
-81 -681 676 0
-81 681 -676 0
677 0
-1 -682 677 0
-1 682 -677 0
-2 -682 677 0
-2 682 -677 0
-3 -677 682 0
-3 -674 682 0
-3 -682 677 674 0
-4 -682 677 0
-4 682 -677 0
-5 -682 677 0
-5 682 -677 0
-6 -677 682 0
-6 -675 682 0
-6 -682 677 675 0
-7 -682 677 0
-7 682 -677 0
-8 -677 682 0
-8 -676 682 0
-8 -682 677 676 0
-9 -682 677 0
-9 682 -677 0
-10 -682 677 0
-10 -682 678 0
-10 682 -677 -678 0
-81 -682 677 0
-81 682 -677 0
-678 0
-1 -683 678 0
-1 683 -678 0
-2 -683 678 0
-2 683 -678 0
-3 -683 678 0
-3 683 -678 0
-4 -678 683 0
-4 -674 683 0
-4 -683 678 674 0
-5 -683 678 0
-5 683 -678 0
-6 -683 678 0
-6 683 -678 0
-7 -678 683 0
-7 -675 683 0
-7 -683 678 675 0
-8 -683 678 0
-8 683 -678 0
-9 -678 683 0
-9 -676 683 0
-9 -683 678 676 0
-10 -678 683 0
-10 -677 683 0
-10 -683 678 677 0
-81 -683 678 0
-81 683 -678 0
-11 -684 679 0
-11 -684 680 0
-11 684 -679 -680 0
-12 -684 679 0
-12 -684 681 0
-12 684 -679 -681 0
-13 -684 679 0
-13 -684 682 0
-13 684 -679 -682 0
-14 -684 679 0
-14 -684 683 0
-14 684 -679 -683 0
-15 -684 679 0
-15 684 -679 0
-16 -684 679 0
-16 684 -679 0
-17 -684 679 0
-17 684 -679 0
-18 -684 679 0
-18 684 -679 0
-19 -684 679 0
-19 684 -679 0
-20 -684 679 0
-20 684 -679 0
-82 -684 679 0
-82 684 -679 0
-11 -680 685 0
-11 -679 685 0
-11 -685 680 679 0
-12 -685 680 0
-12 685 -680 0
-13 -685 680 0
-13 685 -680 0
-14 -685 680 0
-14 685 -680 0
-15 -685 680 0
-15 -685 681 0
-15 685 -680 -681 0
-16 -685 680 0
-16 -685 682 0
-16 685 -680 -682 0
-17 -685 680 0
-17 -685 683 0
-17 685 -680 -683 0
-18 -685 680 0
-18 685 -680 0
-19 -685 680 0
-19 685 -680 0
-20 -685 680 0
-20 685 -680 0
-82 -685 680 0
-82 685 -680 0
-11 -686 681 0
-11 686 -681 0
-12 -681 686 0
-12 -679 686 0
-12 -686 681 679 0
-13 -686 681 0
-13 686 -681 0
-14 -686 681 0
-14 686 -681 0
-15 -681 686 0
-15 -680 686 0
-15 -686 681 680 0
-16 -686 681 0
-16 686 -681 0
-17 -686 681 0
-17 686 -681 0
-18 -686 681 0
-18 -686 682 0
-18 686 -681 -682 0
-19 -686 681 0
-19 -686 683 0
-19 686 -681 -683 0
-20 -686 681 0
-20 686 -681 0
-82 -686 681 0
-82 686 -681 0
-11 -687 682 0
-11 687 -682 0
-12 -687 682 0
-12 687 -682 0
-13 -682 687 0
-13 -679 687 0
-13 -687 682 679 0
-14 -687 682 0
-14 687 -682 0
-15 -687 682 0
-15 687 -682 0
-16 -682 687 0
-16 -680 687 0
-16 -687 682 680 0
-17 -687 682 0
-17 687 -682 0
-18 -682 687 0
-18 -681 687 0
-18 -687 682 681 0
-19 -687 682 0
-19 687 -682 0
-20 -687 682 0
-20 -687 683 0
-20 687 -682 -683 0
-82 -687 682 0
-82 687 -682 0
-11 -688 683 0
-11 688 -683 0
-12 -688 683 0
-12 688 -683 0
-13 -688 683 0
-13 688 -683 0
-14 -683 688 0
-14 -679 688 0
-14 -688 683 679 0
-15 -688 683 0
-15 688 -683 0
-16 -688 683 0
-16 688 -683 0
-17 -683 688 0
-17 -680 688 0
-17 -688 683 680 0
-18 -688 683 0
-18 688 -683 0
-19 -683 688 0
-19 -681 688 0
-19 -688 683 681 0
-20 -683 688 0
-20 -682 688 0
-20 -688 683 682 0
-82 -688 683 0
-82 688 -683 0
-21 -689 684 0
-21 -689 685 0
-21 689 -684 -685 0
-22 -689 684 0
-22 -689 686 0
-22 689 -684 -686 0
-23 -689 684 0
-23 -689 687 0
-23 689 -684 -687 0
-24 -689 684 0
-24 -689 688 0
-24 689 -684 -688 0
-25 -689 684 0
-25 689 -684 0
-26 -689 684 0
-26 689 -684 0
-27 -689 684 0
-27 689 -684 0
-28 -689 684 0
-28 689 -684 0
-29 -689 684 0
-29 689 -684 0
-30 -689 684 0
-30 689 -684 0
-83 -689 684 0
-83 689 -684 0
-21 -685 690 0
-21 -684 690 0
-21 -690 685 684 0
-22 -690 685 0
-22 690 -685 0
-23 -690 685 0
-23 690 -685 0
-24 -690 685 0
-24 690 -685 0
-25 -690 685 0
-25 -690 686 0
-25 690 -685 -686 0
-26 -690 685 0
-26 -690 687 0
-26 690 -685 -687 0
-27 -690 685 0
-27 -690 688 0
-27 690 -685 -688 0
-28 -690 685 0
-28 690 -685 0
-29 -690 685 0
-29 690 -685 0
-30 -690 685 0
-30 690 -685 0
-83 -690 685 0
-83 690 -685 0
-21 -691 686 0
-21 691 -686 0
-22 -686 691 0
-22 -684 691 0
-22 -691 686 684 0
-23 -691 686 0
-23 691 -686 0
-24 -691 686 0
-24 691 -686 0
-25 -686 691 0
-25 -685 691 0
-25 -691 686 685 0
-26 -691 686 0
-26 691 -686 0
-27 -691 686 0
-27 691 -686 0
-28 -691 686 0
-28 -691 687 0
-28 691 -686 -687 0
-29 -691 686 0
-29 -691 688 0
-29 691 -686 -688 0
-30 -691 686 0
-30 691 -686 0
-83 -691 686 0
-83 691 -686 0
-21 -692 687 0
-21 692 -687 0
-22 -692 687 0
-22 692 -687 0
-23 -687 692 0
-23 -684 692 0
-23 -692 687 684 0
-24 -692 687 0
-24 692 -687 0
-25 -692 687 0
-25 692 -687 0
-26 -687 692 0
-26 -685 692 0
-26 -692 687 685 0
-27 -692 687 0
-27 692 -687 0
-28 -687 692 0
-28 -686 692 0
-28 -692 687 686 0
-29 -692 687 0
-29 692 -687 0
-30 -692 687 0
-30 -692 688 0
-30 692 -687 -688 0
-83 -692 687 0
-83 692 -687 0
-21 -693 688 0
-21 693 -688 0
-22 -693 688 0
-22 693 -688 0
-23 -693 688 0
-23 693 -688 0
-24 -688 693 0
-24 -684 693 0
-24 -693 688 684 0
-25 -693 688 0
-25 693 -688 0
-26 -693 688 0
-26 693 -688 0
-27 -688 693 0
-27 -685 693 0
-27 -693 688 685 0
-28 -693 688 0
-28 693 -688 0
-29 -688 693 0
-29 -686 693 0
-29 -693 688 686 0
-30 -688 693 0
-30 -687 693 0
-30 -693 688 687 0
-83 -693 688 0
-83 693 -688 0
-31 -694 689 0
-31 -694 690 0
-31 694 -689 -690 0
-32 -694 689 0
-32 -694 691 0
-32 694 -689 -691 0
-33 -694 689 0
-33 -694 692 0
-33 694 -689 -692 0
-34 -694 689 0
-34 -694 693 0
-34 694 -689 -693 0
-35 -694 689 0
-35 694 -689 0
-36 -694 689 0
-36 694 -689 0
-37 -694 689 0
-37 694 -689 0
-38 -694 689 0
-38 694 -689 0
-39 -694 689 0
-39 694 -689 0
-40 -694 689 0
-40 694 -689 0
-84 -694 689 0
-84 694 -689 0
-31 -690 695 0
-31 -689 695 0
-31 -695 690 689 0
-32 -695 690 0
-32 695 -690 0
-33 -695 690 0
-33 695 -690 0
-34 -695 690 0
-34 695 -690 0
-35 -695 690 0
-35 -695 691 0
-35 695 -690 -691 0
-36 -695 690 0
-36 -695 692 0
-36 695 -690 -692 0
-37 -695 690 0
-37 -695 693 0
-37 695 -690 -693 0
-38 -695 690 0
-38 695 -690 0
-39 -695 690 0
-39 695 -690 0
-40 -695 690 0
-40 695 -690 0
-84 -695 690 0
-84 695 -690 0
-31 -696 691 0
-31 696 -691 0
-32 -691 696 0
-32 -689 696 0
-32 -696 691 689 0
-33 -696 691 0
-33 696 -691 0
-34 -696 691 0
-34 696 -691 0
-35 -691 696 0
-35 -690 696 0
-35 -696 691 690 0
-36 -696 691 0
-36 696 -691 0
-37 -696 691 0
-37 696 -691 0
-38 -696 691 0
-38 -696 692 0
-38 696 -691 -692 0
-39 -696 691 0
-39 -696 693 0
-39 696 -691 -693 0
-40 -696 691 0
-40 696 -691 0
-84 -696 691 0
-84 696 -691 0
-31 -697 692 0
-31 697 -692 0
-32 -697 692 0
-32 697 -692 0
-33 -692 697 0
-33 -689 697 0
-33 -697 692 689 0
-34 -697 692 0
-34 697 -692 0
-35 -697 692 0
-35 697 -692 0
-36 -692 697 0
-36 -690 697 0
-36 -697 692 690 0
-37 -697 692 0
-37 697 -692 0
-38 -692 697 0
-38 -691 697 0
-38 -697 692 691 0
-39 -697 692 0
-39 697 -692 0
-40 -697 692 0
-40 -697 693 0
-40 697 -692 -693 0
-84 -697 692 0
-84 697 -692 0
-31 -698 693 0
-31 698 -693 0
-32 -698 693 0
-32 698 -693 0
-33 -698 693 0
-33 698 -693 0
-34 -693 698 0
-34 -689 698 0
-34 -698 693 689 0
-35 -698 693 0
-35 698 -693 0
-36 -698 693 0
-36 698 -693 0
-37 -693 698 0
-37 -690 698 0
-37 -698 693 690 0
-38 -698 693 0
-38 698 -693 0
-39 -693 698 0
-39 -691 698 0
-39 -698 693 691 0
-40 -693 698 0
-40 -692 698 0
-40 -698 693 692 0
-84 -698 693 0
-84 698 -693 0
-41 -699 694 0
-41 -699 695 0
-41 699 -694 -695 0
-42 -699 694 0
-42 -699 696 0
-42 699 -694 -696 0
-43 -699 694 0
-43 -699 697 0
-43 699 -694 -697 0
-44 -699 694 0
-44 -699 698 0
-44 699 -694 -698 0
-45 -699 694 0
-45 699 -694 0
-46 -699 694 0
-46 699 -694 0
-47 -699 694 0
-47 699 -694 0
-48 -699 694 0
-48 699 -694 0
-49 -699 694 0
-49 699 -694 0
-50 -699 694 0
-50 699 -694 0
-85 -699 694 0
-85 699 -694 0
-41 -695 700 0
-41 -694 700 0
-41 -700 695 694 0
-42 -700 695 0
-42 700 -695 0
-43 -700 695 0
-43 700 -695 0
-44 -700 695 0
-44 700 -695 0
-45 -700 695 0
-45 -700 696 0
-45 700 -695 -696 0
-46 -700 695 0
-46 -700 697 0
-46 700 -695 -697 0
-47 -700 695 0
-47 -700 698 0
-47 700 -695 -698 0
-48 -700 695 0
-48 700 -695 0
-49 -700 695 0
-49 700 -695 0
-50 -700 695 0
-50 700 -695 0
-85 -700 695 0
-85 700 -695 0
-41 -701 696 0
-41 701 -696 0
-42 -696 701 0
-42 -694 701 0
-42 -701 696 694 0
-43 -701 696 0
-43 701 -696 0
-44 -701 696 0
-44 701 -696 0
-45 -696 701 0
-45 -695 701 0
-45 -701 696 695 0
-46 -701 696 0
-46 701 -696 0
-47 -701 696 0
-47 701 -696 0
-48 -701 696 0
-48 -701 697 0
-48 701 -696 -697 0
-49 -701 696 0
-49 -701 698 0
-49 701 -696 -698 0
-50 -701 696 0
-50 701 -696 0
-85 -701 696 0
-85 701 -696 0
-41 -702 697 0
-41 702 -697 0
-42 -702 697 0
-42 702 -697 0
-43 -697 702 0
-43 -694 702 0
-43 -702 697 694 0
-44 -702 697 0
-44 702 -697 0
-45 -702 697 0
-45 702 -697 0
-46 -697 702 0
-46 -695 702 0
-46 -702 697 695 0
-47 -702 697 0
-47 702 -697 0
-48 -697 702 0
-48 -696 702 0
-48 -702 697 696 0
-49 -702 697 0
-49 702 -697 0
-50 -702 697 0
-50 -702 698 0
-50 702 -697 -698 0
-85 -702 697 0
-85 702 -697 0
-41 -703 698 0
-41 703 -698 0
-42 -703 698 0
-42 703 -698 0
-43 -703 698 0
-43 703 -698 0
-44 -698 703 0
-44 -694 703 0
-44 -703 698 694 0
-45 -703 698 0
-45 703 -698 0
-46 -703 698 0
-46 703 -698 0
-47 -698 703 0
-47 -695 703 0
-47 -703 698 695 0
-48 -703 698 0
-48 703 -698 0
-49 -698 703 0
-49 -696 703 0
-49 -703 698 696 0
-50 -698 703 0
-50 -697 703 0
-50 -703 698 697 0
-85 -703 698 0
-85 703 -698 0
-51 -704 699 0
-51 -704 700 0
-51 704 -699 -700 0
-52 -704 699 0
-52 -704 701 0
-52 704 -699 -701 0
-53 -704 699 0
-53 -704 702 0
-53 704 -699 -702 0
-54 -704 699 0
-54 -704 703 0
-54 704 -699 -703 0
-55 -704 699 0
-55 704 -699 0
-56 -704 699 0
-56 704 -699 0
-57 -704 699 0
-57 704 -699 0
-58 -704 699 0
-58 704 -699 0
-59 -704 699 0
-59 704 -699 0
-60 -704 699 0
-60 704 -699 0
-86 -704 699 0
-86 704 -699 0
-51 -700 705 0
-51 -699 705 0
-51 -705 700 699 0
-52 -705 700 0
-52 705 -700 0
-53 -705 700 0
-53 705 -700 0
-54 -705 700 0
-54 705 -700 0
-55 -705 700 0
-55 -705 701 0
-55 705 -700 -701 0
-56 -705 700 0
-56 -705 702 0
-56 705 -700 -702 0
-57 -705 700 0
-57 -705 703 0
-57 705 -700 -703 0
-58 -705 700 0
-58 705 -700 0
-59 -705 700 0
-59 705 -700 0
-60 -705 700 0
-60 705 -700 0
-86 -705 700 0
-86 705 -700 0
-51 -706 701 0
-51 706 -701 0
-52 -701 706 0
-52 -699 706 0
-52 -706 701 699 0
-53 -706 701 0
-53 706 -701 0
-54 -706 701 0
-54 706 -701 0
-55 -701 706 0
-55 -700 706 0
-55 -706 701 700 0
-56 -706 701 0
-56 706 -701 0
-57 -706 701 0
-57 706 -701 0
-58 -706 701 0
-58 -706 702 0
-58 706 -701 -702 0
-59 -706 701 0
-59 -706 703 0
-59 706 -701 -703 0
-60 -706 701 0
-60 706 -701 0
-86 -706 701 0
-86 706 -701 0
-51 -707 702 0
-51 707 -702 0
-52 -707 702 0
-52 707 -702 0
-53 -702 707 0
-53 -699 707 0
-53 -707 702 699 0
-54 -707 702 0
-54 707 -702 0
-55 -707 702 0
-55 707 -702 0
-56 -702 707 0
-56 -700 707 0
-56 -707 702 700 0
-57 -707 702 0
-57 707 -702 0
-58 -702 707 0
-58 -701 707 0
-58 -707 702 701 0
-59 -707 702 0
-59 707 -702 0
-60 -707 702 0
-60 -707 703 0
-60 707 -702 -703 0
-86 -707 702 0
-86 707 -702 0
-51 -708 703 0
-51 708 -703 0
-52 -708 703 0
-52 708 -703 0
-53 -708 703 0
-53 708 -703 0
-54 -703 708 0
-54 -699 708 0
-54 -708 703 699 0
-55 -708 703 0
-55 708 -703 0
-56 -708 703 0
-56 708 -703 0
-57 -703 708 0
-57 -700 708 0
-57 -708 703 700 0
-58 -708 703 0
-58 708 -703 0
-59 -703 708 0
-59 -701 708 0
-59 -708 703 701 0
-60 -703 708 0
-60 -702 708 0
-60 -708 703 702 0
-86 -708 703 0
-86 708 -703 0
-61 -709 704 0
-61 -709 705 0
-61 709 -704 -705 0
-62 -709 704 0
-62 -709 706 0
-62 709 -704 -706 0
-63 -709 704 0
-63 -709 707 0
-63 709 -704 -707 0
-64 -709 704 0
-64 -709 708 0
-64 709 -704 -708 0
-65 -709 704 0
-65 709 -704 0
-66 -709 704 0
-66 709 -704 0
-67 -709 704 0
-67 709 -704 0
-68 -709 704 0
-68 709 -704 0
-69 -709 704 0
-69 709 -704 0
-70 -709 704 0
-70 709 -704 0
-87 -709 704 0
-87 709 -704 0
-61 -705 710 0
-61 -704 710 0
-61 -710 705 704 0
-62 -710 705 0
-62 710 -705 0
-63 -710 705 0
-63 710 -705 0
-64 -710 705 0
-64 710 -705 0
-65 -710 705 0
-65 -710 706 0
-65 710 -705 -706 0
-66 -710 705 0
-66 -710 707 0
-66 710 -705 -707 0
-67 -710 705 0
-67 -710 708 0
-67 710 -705 -708 0
-68 -710 705 0
-68 710 -705 0
-69 -710 705 0
-69 710 -705 0
-70 -710 705 0
-70 710 -705 0
-87 -710 705 0
-87 710 -705 0
-61 -711 706 0
-61 711 -706 0
-62 -706 711 0
-62 -704 711 0
-62 -711 706 704 0
-63 -711 706 0
-63 711 -706 0
-64 -711 706 0
-64 711 -706 0
-65 -706 711 0
-65 -705 711 0
-65 -711 706 705 0
-66 -711 706 0
-66 711 -706 0
-67 -711 706 0
-67 711 -706 0
-68 -711 706 0
-68 -711 707 0
-68 711 -706 -707 0
-69 -711 706 0
-69 -711 708 0
-69 711 -706 -708 0
-70 -711 706 0
-70 711 -706 0
-87 -711 706 0
-87 711 -706 0
-61 -712 707 0
-61 712 -707 0
-62 -712 707 0
-62 712 -707 0
-63 -707 712 0
-63 -704 712 0
-63 -712 707 704 0
-64 -712 707 0
-64 712 -707 0
-65 -712 707 0
-65 712 -707 0
-66 -707 712 0
-66 -705 712 0
-66 -712 707 705 0
-67 -712 707 0
-67 712 -707 0
-68 -707 712 0
-68 -706 712 0
-68 -712 707 706 0
-69 -712 707 0
-69 712 -707 0
-70 -712 707 0
-70 -712 708 0
-70 712 -707 -708 0
-87 -712 707 0
-87 712 -707 0
-61 -713 708 0
-61 713 -708 0
-62 -713 708 0
-62 713 -708 0
-63 -713 708 0
-63 713 -708 0
-64 -708 713 0
-64 -704 713 0
-64 -713 708 704 0
-65 -713 708 0
-65 713 -708 0
-66 -713 708 0
-66 713 -708 0
-67 -708 713 0
-67 -705 713 0
-67 -713 708 705 0
-68 -713 708 0
-68 713 -708 0
-69 -708 713 0
-69 -706 713 0
-69 -713 708 706 0
-70 -708 713 0
-70 -707 713 0
-70 -713 708 707 0
-87 -713 708 0
-87 713 -708 0
-71 -714 709 0
-71 -714 710 0
-71 714 -709 -710 0
-72 -714 709 0
-72 -714 711 0
-72 714 -709 -711 0
-73 -714 709 0
-73 -714 712 0
-73 714 -709 -712 0
-74 -714 709 0
-74 -714 713 0
-74 714 -709 -713 0
-75 -714 709 0
-75 714 -709 0
-76 -714 709 0
-76 714 -709 0
-77 -714 709 0
-77 714 -709 0
-78 -714 709 0
-78 714 -709 0
-79 -714 709 0
-79 714 -709 0
-80 -714 709 0
-80 714 -709 0
-88 -714 709 0
-88 714 -709 0
-71 -710 715 0
-71 -709 715 0
-71 -715 710 709 0
-72 -715 710 0
-72 715 -710 0
-73 -715 710 0
-73 715 -710 0
-74 -715 710 0
-74 715 -710 0
-75 -715 710 0
-75 -715 711 0
-75 715 -710 -711 0
-76 -715 710 0
-76 -715 712 0
-76 715 -710 -712 0
-77 -715 710 0
-77 -715 713 0
-77 715 -710 -713 0
-78 -715 710 0
-78 715 -710 0
-79 -715 710 0
-79 715 -710 0
-80 -715 710 0
-80 715 -710 0
-88 -715 710 0
-88 715 -710 0
-71 -716 711 0
-71 716 -711 0
-72 -711 716 0
-72 -709 716 0
-72 -716 711 709 0
-73 -716 711 0
-73 716 -711 0
-74 -716 711 0
-74 716 -711 0
-75 -711 716 0
-75 -710 716 0
-75 -716 711 710 0
-76 -716 711 0
-76 716 -711 0
-77 -716 711 0
-77 716 -711 0
-78 -716 711 0
-78 -716 712 0
-78 716 -711 -712 0
-79 -716 711 0
-79 -716 713 0
-79 716 -711 -713 0
-80 -716 711 0
-80 716 -711 0
-88 -716 711 0
-88 716 -711 0
-71 -717 712 0
-71 717 -712 0
-72 -717 712 0
-72 717 -712 0
-73 -712 717 0
-73 -709 717 0
-73 -717 712 709 0
-74 -717 712 0
-74 717 -712 0
-75 -717 712 0
-75 717 -712 0
-76 -712 717 0
-76 -710 717 0
-76 -717 712 710 0
-77 -717 712 0
-77 717 -712 0
-78 -712 717 0
-78 -711 717 0
-78 -717 712 711 0
-79 -717 712 0
-79 717 -712 0
-80 -717 712 0
-80 -717 713 0
-80 717 -712 -713 0
-88 -717 712 0
-88 717 -712 0
-71 -718 713 0
-71 718 -713 0
-72 -718 713 0
-72 718 -713 0
-73 -718 713 0
-73 718 -713 0
-74 -713 718 0
-74 -709 718 0
-74 -718 713 709 0
-75 -718 713 0
-75 718 -713 0
-76 -718 713 0
-76 718 -713 0
-77 -713 718 0
-77 -710 718 0
-77 -718 713 710 0
-78 -718 713 0
-78 718 -713 0
-79 -713 718 0
-79 -711 718 0
-79 -718 713 711 0
-80 -713 718 0
-80 -712 718 0
-80 -718 713 712 0
-88 -718 713 0
-88 718 -713 0
719 0
-1 -724 719 0
-1 -724 720 0
-1 724 -719 -720 0
-2 -724 719 0
-2 -724 721 0
-2 724 -719 -721 0
-3 -724 719 0
-3 -724 722 0
-3 724 -719 -722 0
-4 -724 719 0
-4 -724 723 0
-4 724 -719 -723 0
-5 -724 719 0
-5 724 -719 0
-6 -724 719 0
-6 724 -719 0
-7 -724 719 0
-7 724 -719 0
-8 -724 719 0
-8 724 -719 0
-9 -724 719 0
-9 724 -719 0
-10 -724 719 0
-10 724 -719 0
-81 -724 719 0
-81 724 -719 0
-720 0
-1 -720 725 0
-1 -719 725 0
-1 -725 720 719 0
-2 -725 720 0
-2 725 -720 0
-3 -725 720 0
-3 725 -720 0
-4 -725 720 0
-4 725 -720 0
-5 -725 720 0
-5 -725 721 0
-5 725 -720 -721 0
-6 -725 720 0
-6 -725 722 0
-6 725 -720 -722 0
-7 -725 720 0
-7 -725 723 0
-7 725 -720 -723 0
-8 -725 720 0
-8 725 -720 0
-9 -725 720 0
-9 725 -720 0
-10 -725 720 0
-10 725 -720 0
-81 -725 720 0
-81 725 -720 0
-721 0
-1 -726 721 0
-1 726 -721 0
-2 -721 726 0
-2 -719 726 0
-2 -726 721 719 0
-3 -726 721 0
-3 726 -721 0
-4 -726 721 0
-4 726 -721 0
-5 -721 726 0
-5 -720 726 0
-5 -726 721 720 0
-6 -726 721 0
-6 726 -721 0
-7 -726 721 0
-7 726 -721 0
-8 -726 721 0
-8 -726 722 0
-8 726 -721 -722 0
-9 -726 721 0
-9 -726 723 0
-9 726 -721 -723 0
-10 -726 721 0
-10 726 -721 0
-81 -726 721 0
-81 726 -721 0
722 0
-1 -727 722 0
-1 727 -722 0
-2 -727 722 0
-2 727 -722 0
-3 -722 727 0
-3 -719 727 0
-3 -727 722 719 0
-4 -727 722 0
-4 727 -722 0
-5 -727 722 0
-5 727 -722 0
-6 -722 727 0
-6 -720 727 0
-6 -727 722 720 0
-7 -727 722 0
-7 727 -722 0
-8 -722 727 0
-8 -721 727 0
-8 -727 722 721 0
-9 -727 722 0
-9 727 -722 0
-10 -727 722 0
-10 -727 723 0
-10 727 -722 -723 0
-81 -727 722 0
-81 727 -722 0
723 0
-1 -728 723 0
-1 728 -723 0
-2 -728 723 0
-2 728 -723 0
-3 -728 723 0
-3 728 -723 0
-4 -723 728 0
-4 -719 728 0
-4 -728 723 719 0
-5 -728 723 0
-5 728 -723 0
-6 -728 723 0
-6 728 -723 0
-7 -723 728 0
-7 -720 728 0
-7 -728 723 720 0
-8 -728 723 0
-8 728 -723 0
-9 -723 728 0
-9 -721 728 0
-9 -728 723 721 0
-10 -723 728 0
-10 -722 728 0
-10 -728 723 722 0
-81 -728 723 0
-81 728 -723 0
-11 -729 724 0
-11 -729 725 0
-11 729 -724 -725 0
-12 -729 724 0
-12 -729 726 0
-12 729 -724 -726 0
-13 -729 724 0
-13 -729 727 0
-13 729 -724 -727 0
-14 -729 724 0
-14 -729 728 0
-14 729 -724 -728 0
-15 -729 724 0
-15 729 -724 0
-16 -729 724 0
-16 729 -724 0
-17 -729 724 0
-17 729 -724 0
-18 -729 724 0
-18 729 -724 0
-19 -729 724 0
-19 729 -724 0
-20 -729 724 0
-20 729 -724 0
-82 -729 724 0
-82 729 -724 0
-11 -725 730 0
-11 -724 730 0
-11 -730 725 724 0
-12 -730 725 0
-12 730 -725 0
-13 -730 725 0
-13 730 -725 0
-14 -730 725 0
-14 730 -725 0
-15 -730 725 0
-15 -730 726 0
-15 730 -725 -726 0
-16 -730 725 0
-16 -730 727 0
-16 730 -725 -727 0
-17 -730 725 0
-17 -730 728 0
-17 730 -725 -728 0
-18 -730 725 0
-18 730 -725 0
-19 -730 725 0
-19 730 -725 0
-20 -730 725 0
-20 730 -725 0
-82 -730 725 0
-82 730 -725 0
-11 -731 726 0
-11 731 -726 0
-12 -726 731 0
-12 -724 731 0
-12 -731 726 724 0
-13 -731 726 0
-13 731 -726 0
-14 -731 726 0
-14 731 -726 0
-15 -726 731 0
-15 -725 731 0
-15 -731 726 725 0
-16 -731 726 0
-16 731 -726 0
-17 -731 726 0
-17 731 -726 0
-18 -731 726 0
-18 -731 727 0
-18 731 -726 -727 0
-19 -731 726 0
-19 -731 728 0
-19 731 -726 -728 0
-20 -731 726 0
-20 731 -726 0
-82 -731 726 0
-82 731 -726 0
-11 -732 727 0
-11 732 -727 0
-12 -732 727 0
-12 732 -727 0
-13 -727 732 0
-13 -724 732 0
-13 -732 727 724 0
-14 -732 727 0
-14 732 -727 0
-15 -732 727 0
-15 732 -727 0
-16 -727 732 0
-16 -725 732 0
-16 -732 727 725 0
-17 -732 727 0
-17 732 -727 0
-18 -727 732 0
-18 -726 732 0
-18 -732 727 726 0
-19 -732 727 0
-19 732 -727 0
-20 -732 727 0
-20 -732 728 0
-20 732 -727 -728 0
-82 -732 727 0
-82 732 -727 0
-11 -733 728 0
-11 733 -728 0
-12 -733 728 0
-12 733 -728 0
-13 -733 728 0
-13 733 -728 0
-14 -728 733 0
-14 -724 733 0
-14 -733 728 724 0
-15 -733 728 0
-15 733 -728 0
-16 -733 728 0
-16 733 -728 0
-17 -728 733 0
-17 -725 733 0
-17 -733 728 725 0
-18 -733 728 0
-18 733 -728 0
-19 -728 733 0
-19 -726 733 0
-19 -733 728 726 0
-20 -728 733 0
-20 -727 733 0
-20 -733 728 727 0
-82 -733 728 0
-82 733 -728 0
-21 -734 729 0
-21 -734 730 0
-21 734 -729 -730 0
-22 -734 729 0
-22 -734 731 0
-22 734 -729 -731 0
-23 -734 729 0
-23 -734 732 0
-23 734 -729 -732 0
-24 -734 729 0
-24 -734 733 0
-24 734 -729 -733 0
-25 -734 729 0
-25 734 -729 0
-26 -734 729 0
-26 734 -729 0
-27 -734 729 0
-27 734 -729 0
-28 -734 729 0
-28 734 -729 0
-29 -734 729 0
-29 734 -729 0
-30 -734 729 0
-30 734 -729 0
-83 -734 729 0
-83 734 -729 0
-21 -730 735 0
-21 -729 735 0
-21 -735 730 729 0
-22 -735 730 0
-22 735 -730 0
-23 -735 730 0
-23 735 -730 0
-24 -735 730 0
-24 735 -730 0
-25 -735 730 0
-25 -735 731 0
-25 735 -730 -731 0
-26 -735 730 0
-26 -735 732 0
-26 735 -730 -732 0
-27 -735 730 0
-27 -735 733 0
-27 735 -730 -733 0
-28 -735 730 0
-28 735 -730 0
-29 -735 730 0
-29 735 -730 0
-30 -735 730 0
-30 735 -730 0
-83 -735 730 0
-83 735 -730 0
-21 -736 731 0
-21 736 -731 0
-22 -731 736 0
-22 -729 736 0
-22 -736 731 729 0
-23 -736 731 0
-23 736 -731 0
-24 -736 731 0
-24 736 -731 0
-25 -731 736 0
-25 -730 736 0
-25 -736 731 730 0
-26 -736 731 0
-26 736 -731 0
-27 -736 731 0
-27 736 -731 0
-28 -736 731 0
-28 -736 732 0
-28 736 -731 -732 0
-29 -736 731 0
-29 -736 733 0
-29 736 -731 -733 0
-30 -736 731 0
-30 736 -731 0
-83 -736 731 0
-83 736 -731 0
-21 -737 732 0
-21 737 -732 0
-22 -737 732 0
-22 737 -732 0
-23 -732 737 0
-23 -729 737 0
-23 -737 732 729 0
-24 -737 732 0
-24 737 -732 0
-25 -737 732 0
-25 737 -732 0
-26 -732 737 0
-26 -730 737 0
-26 -737 732 730 0
-27 -737 732 0
-27 737 -732 0
-28 -732 737 0
-28 -731 737 0
-28 -737 732 731 0
-29 -737 732 0
-29 737 -732 0
-30 -737 732 0
-30 -737 733 0
-30 737 -732 -733 0
-83 -737 732 0
-83 737 -732 0
-21 -738 733 0
-21 738 -733 0
-22 -738 733 0
-22 738 -733 0
-23 -738 733 0
-23 738 -733 0
-24 -733 738 0
-24 -729 738 0
-24 -738 733 729 0
-25 -738 733 0
-25 738 -733 0
-26 -738 733 0
-26 738 -733 0
-27 -733 738 0
-27 -730 738 0
-27 -738 733 730 0
-28 -738 733 0
-28 738 -733 0
-29 -733 738 0
-29 -731 738 0
-29 -738 733 731 0
-30 -733 738 0
-30 -732 738 0
-30 -738 733 732 0
-83 -738 733 0
-83 738 -733 0
-31 -739 734 0
-31 -739 735 0
-31 739 -734 -735 0
-32 -739 734 0
-32 -739 736 0
-32 739 -734 -736 0
-33 -739 734 0
-33 -739 737 0
-33 739 -734 -737 0
-34 -739 734 0
-34 -739 738 0
-34 739 -734 -738 0
-35 -739 734 0
-35 739 -734 0
-36 -739 734 0
-36 739 -734 0
-37 -739 734 0
-37 739 -734 0
-38 -739 734 0
-38 739 -734 0
-39 -739 734 0
-39 739 -734 0
-40 -739 734 0
-40 739 -734 0
-84 -739 734 0
-84 739 -734 0
-31 -735 740 0
-31 -734 740 0
-31 -740 735 734 0
-32 -740 735 0
-32 740 -735 0
-33 -740 735 0
-33 740 -735 0
-34 -740 735 0
-34 740 -735 0
-35 -740 735 0
-35 -740 736 0
-35 740 -735 -736 0
-36 -740 735 0
-36 -740 737 0
-36 740 -735 -737 0
-37 -740 735 0
-37 -740 738 0
-37 740 -735 -738 0
-38 -740 735 0
-38 740 -735 0
-39 -740 735 0
-39 740 -735 0
-40 -740 735 0
-40 740 -735 0
-84 -740 735 0
-84 740 -735 0
-31 -741 736 0
-31 741 -736 0
-32 -736 741 0
-32 -734 741 0
-32 -741 736 734 0
-33 -741 736 0
-33 741 -736 0
-34 -741 736 0
-34 741 -736 0
-35 -736 741 0
-35 -735 741 0
-35 -741 736 735 0
-36 -741 736 0
-36 741 -736 0
-37 -741 736 0
-37 741 -736 0
-38 -741 736 0
-38 -741 737 0
-38 741 -736 -737 0
-39 -741 736 0
-39 -741 738 0
-39 741 -736 -738 0
-40 -741 736 0
-40 741 -736 0
-84 -741 736 0
-84 741 -736 0
-31 -742 737 0
-31 742 -737 0
-32 -742 737 0
-32 742 -737 0
-33 -737 742 0
-33 -734 742 0
-33 -742 737 734 0
-34 -742 737 0
-34 742 -737 0
-35 -742 737 0
-35 742 -737 0
-36 -737 742 0
-36 -735 742 0
-36 -742 737 735 0
-37 -742 737 0
-37 742 -737 0
-38 -737 742 0
-38 -736 742 0
-38 -742 737 736 0
-39 -742 737 0
-39 742 -737 0
-40 -742 737 0
-40 -742 738 0
-40 742 -737 -738 0
-84 -742 737 0
-84 742 -737 0
-31 -743 738 0
-31 743 -738 0
-32 -743 738 0
-32 743 -738 0
-33 -743 738 0
-33 743 -738 0
-34 -738 743 0
-34 -734 743 0
-34 -743 738 734 0
-35 -743 738 0
-35 743 -738 0
-36 -743 738 0
-36 743 -738 0
-37 -738 743 0
-37 -735 743 0
-37 -743 738 735 0
-38 -743 738 0
-38 743 -738 0
-39 -738 743 0
-39 -736 743 0
-39 -743 738 736 0
-40 -738 743 0
-40 -737 743 0
-40 -743 738 737 0
-84 -743 738 0
-84 743 -738 0
-41 -744 739 0
-41 -744 740 0
-41 744 -739 -740 0
-42 -744 739 0
-42 -744 741 0
-42 744 -739 -741 0
-43 -744 739 0
-43 -744 742 0
-43 744 -739 -742 0
-44 -744 739 0
-44 -744 743 0
-44 744 -739 -743 0
-45 -744 739 0
-45 744 -739 0
-46 -744 739 0
-46 744 -739 0
-47 -744 739 0
-47 744 -739 0
-48 -744 739 0
-48 744 -739 0
-49 -744 739 0
-49 744 -739 0
-50 -744 739 0
-50 744 -739 0
-85 -744 739 0
-85 744 -739 0
-41 -740 745 0
-41 -739 745 0
-41 -745 740 739 0
-42 -745 740 0
-42 745 -740 0
-43 -745 740 0
-43 745 -740 0
-44 -745 740 0
-44 745 -740 0
-45 -745 740 0
-45 -745 741 0
-45 745 -740 -741 0
-46 -745 740 0
-46 -745 742 0
-46 745 -740 -742 0
-47 -745 740 0
-47 -745 743 0
-47 745 -740 -743 0
-48 -745 740 0
-48 745 -740 0
-49 -745 740 0
-49 745 -740 0
-50 -745 740 0
-50 745 -740 0
-85 -745 740 0
-85 745 -740 0
-41 -746 741 0
-41 746 -741 0
-42 -741 746 0
-42 -739 746 0
-42 -746 741 739 0
-43 -746 741 0
-43 746 -741 0
-44 -746 741 0
-44 746 -741 0
-45 -741 746 0
-45 -740 746 0
-45 -746 741 740 0
-46 -746 741 0
-46 746 -741 0
-47 -746 741 0
-47 746 -741 0
-48 -746 741 0
-48 -746 742 0
-48 746 -741 -742 0
-49 -746 741 0
-49 -746 743 0
-49 746 -741 -743 0
-50 -746 741 0
-50 746 -741 0
-85 -746 741 0
-85 746 -741 0
-41 -747 742 0
-41 747 -742 0
-42 -747 742 0
-42 747 -742 0
-43 -742 747 0
-43 -739 747 0
-43 -747 742 739 0
-44 -747 742 0
-44 747 -742 0
-45 -747 742 0
-45 747 -742 0
-46 -742 747 0
-46 -740 747 0
-46 -747 742 740 0
-47 -747 742 0
-47 747 -742 0
-48 -742 747 0
-48 -741 747 0
-48 -747 742 741 0
-49 -747 742 0
-49 747 -742 0
-50 -747 742 0
-50 -747 743 0
-50 747 -742 -743 0
-85 -747 742 0
-85 747 -742 0
-41 -748 743 0
-41 748 -743 0
-42 -748 743 0
-42 748 -743 0
-43 -748 743 0
-43 748 -743 0
-44 -743 748 0
-44 -739 748 0
-44 -748 743 739 0
-45 -748 743 0
-45 748 -743 0
-46 -748 743 0
-46 748 -743 0
-47 -743 748 0
-47 -740 748 0
-47 -748 743 740 0
-48 -748 743 0
-48 748 -743 0
-49 -743 748 0
-49 -741 748 0
-49 -748 743 741 0
-50 -743 748 0
-50 -742 748 0
-50 -748 743 742 0
-85 -748 743 0
-85 748 -743 0
-51 -749 744 0
-51 -749 745 0
-51 749 -744 -745 0
-52 -749 744 0
-52 -749 746 0
-52 749 -744 -746 0
-53 -749 744 0
-53 -749 747 0
-53 749 -744 -747 0
-54 -749 744 0
-54 -749 748 0
-54 749 -744 -748 0
-55 -749 744 0
-55 749 -744 0
-56 -749 744 0
-56 749 -744 0
-57 -749 744 0
-57 749 -744 0
-58 -749 744 0
-58 749 -744 0
-59 -749 744 0
-59 749 -744 0
-60 -749 744 0
-60 749 -744 0
-86 -749 744 0
-86 749 -744 0
-51 -745 750 0
-51 -744 750 0
-51 -750 745 744 0
-52 -750 745 0
-52 750 -745 0
-53 -750 745 0
-53 750 -745 0
-54 -750 745 0
-54 750 -745 0
-55 -750 745 0
-55 -750 746 0
-55 750 -745 -746 0
-56 -750 745 0
-56 -750 747 0
-56 750 -745 -747 0
-57 -750 745 0
-57 -750 748 0
-57 750 -745 -748 0
-58 -750 745 0
-58 750 -745 0
-59 -750 745 0
-59 750 -745 0
-60 -750 745 0
-60 750 -745 0
-86 -750 745 0
-86 750 -745 0
-51 -751 746 0
-51 751 -746 0
-52 -746 751 0
-52 -744 751 0
-52 -751 746 744 0
-53 -751 746 0
-53 751 -746 0
-54 -751 746 0
-54 751 -746 0
-55 -746 751 0
-55 -745 751 0
-55 -751 746 745 0
-56 -751 746 0
-56 751 -746 0
-57 -751 746 0
-57 751 -746 0
-58 -751 746 0
-58 -751 747 0
-58 751 -746 -747 0
-59 -751 746 0
-59 -751 748 0
-59 751 -746 -748 0
-60 -751 746 0
-60 751 -746 0
-86 -751 746 0
-86 751 -746 0
-51 -752 747 0
-51 752 -747 0
-52 -752 747 0
-52 752 -747 0
-53 -747 752 0
-53 -744 752 0
-53 -752 747 744 0
-54 -752 747 0
-54 752 -747 0
-55 -752 747 0
-55 752 -747 0
-56 -747 752 0
-56 -745 752 0
-56 -752 747 745 0
-57 -752 747 0
-57 752 -747 0
-58 -747 752 0
-58 -746 752 0
-58 -752 747 746 0
-59 -752 747 0
-59 752 -747 0
-60 -752 747 0
-60 -752 748 0
-60 752 -747 -748 0
-86 -752 747 0
-86 752 -747 0
-51 -753 748 0
-51 753 -748 0
-52 -753 748 0
-52 753 -748 0
-53 -753 748 0
-53 753 -748 0
-54 -748 753 0
-54 -744 753 0
-54 -753 748 744 0
-55 -753 748 0
-55 753 -748 0
-56 -753 748 0
-56 753 -748 0
-57 -748 753 0
-57 -745 753 0
-57 -753 748 745 0
-58 -753 748 0
-58 753 -748 0
-59 -748 753 0
-59 -746 753 0
-59 -753 748 746 0
-60 -748 753 0
-60 -747 753 0
-60 -753 748 747 0
-86 -753 748 0
-86 753 -748 0
-61 -754 749 0
-61 -754 750 0
-61 754 -749 -750 0
-62 -754 749 0
-62 -754 751 0
-62 754 -749 -751 0
-63 -754 749 0
-63 -754 752 0
-63 754 -749 -752 0
-64 -754 749 0
-64 -754 753 0
-64 754 -749 -753 0
-65 -754 749 0
-65 754 -749 0
-66 -754 749 0
-66 754 -749 0
-67 -754 749 0
-67 754 -749 0
-68 -754 749 0
-68 754 -749 0
-69 -754 749 0
-69 754 -749 0
-70 -754 749 0
-70 754 -749 0
-87 -754 749 0
-87 754 -749 0
-61 -750 755 0
-61 -749 755 0
-61 -755 750 749 0
-62 -755 750 0
-62 755 -750 0
-63 -755 750 0
-63 755 -750 0
-64 -755 750 0
-64 755 -750 0
-65 -755 750 0
-65 -755 751 0
-65 755 -750 -751 0
-66 -755 750 0
-66 -755 752 0
-66 755 -750 -752 0
-67 -755 750 0
-67 -755 753 0
-67 755 -750 -753 0
-68 -755 750 0
-68 755 -750 0
-69 -755 750 0
-69 755 -750 0
-70 -755 750 0
-70 755 -750 0
-87 -755 750 0
-87 755 -750 0
-61 -756 751 0
-61 756 -751 0
-62 -751 756 0
-62 -749 756 0
-62 -756 751 749 0
-63 -756 751 0
-63 756 -751 0
-64 -756 751 0
-64 756 -751 0
-65 -751 756 0
-65 -750 756 0
-65 -756 751 750 0
-66 -756 751 0
-66 756 -751 0
-67 -756 751 0
-67 756 -751 0
-68 -756 751 0
-68 -756 752 0
-68 756 -751 -752 0
-69 -756 751 0
-69 -756 753 0
-69 756 -751 -753 0
-70 -756 751 0
-70 756 -751 0
-87 -756 751 0
-87 756 -751 0
-61 -757 752 0
-61 757 -752 0
-62 -757 752 0
-62 757 -752 0
-63 -752 757 0
-63 -749 757 0
-63 -757 752 749 0
-64 -757 752 0
-64 757 -752 0
-65 -757 752 0
-65 757 -752 0
-66 -752 757 0
-66 -750 757 0
-66 -757 752 750 0
-67 -757 752 0
-67 757 -752 0
-68 -752 757 0
-68 -751 757 0
-68 -757 752 751 0
-69 -757 752 0
-69 757 -752 0
-70 -757 752 0
-70 -757 753 0
-70 757 -752 -753 0
-87 -757 752 0
-87 757 -752 0
-61 -758 753 0
-61 758 -753 0
-62 -758 753 0
-62 758 -753 0
-63 -758 753 0
-63 758 -753 0
-64 -753 758 0
-64 -749 758 0
-64 -758 753 749 0
-65 -758 753 0
-65 758 -753 0
-66 -758 753 0
-66 758 -753 0
-67 -753 758 0
-67 -750 758 0
-67 -758 753 750 0
-68 -758 753 0
-68 758 -753 0
-69 -753 758 0
-69 -751 758 0
-69 -758 753 751 0
-70 -753 758 0
-70 -752 758 0
-70 -758 753 752 0
-87 -758 753 0
-87 758 -753 0
-71 -759 754 0
-71 -759 755 0
-71 759 -754 -755 0
-72 -759 754 0
-72 -759 756 0
-72 759 -754 -756 0
-73 -759 754 0
-73 -759 757 0
-73 759 -754 -757 0
-74 -759 754 0
-74 -759 758 0
-74 759 -754 -758 0
-75 -759 754 0
-75 759 -754 0
-76 -759 754 0
-76 759 -754 0
-77 -759 754 0
-77 759 -754 0
-78 -759 754 0
-78 759 -754 0
-79 -759 754 0
-79 759 -754 0
-80 -759 754 0
-80 759 -754 0
-88 -759 754 0
-88 759 -754 0
-71 -755 760 0
-71 -754 760 0
-71 -760 755 754 0
-72 -760 755 0
-72 760 -755 0
-73 -760 755 0
-73 760 -755 0
-74 -760 755 0
-74 760 -755 0
-75 -760 755 0
-75 -760 756 0
-75 760 -755 -756 0
-76 -760 755 0
-76 -760 757 0
-76 760 -755 -757 0
-77 -760 755 0
-77 -760 758 0
-77 760 -755 -758 0
-78 -760 755 0
-78 760 -755 0
-79 -760 755 0
-79 760 -755 0
-80 -760 755 0
-80 760 -755 0
-88 -760 755 0
-88 760 -755 0
-71 -761 756 0
-71 761 -756 0
-72 -756 761 0
-72 -754 761 0
-72 -761 756 754 0
-73 -761 756 0
-73 761 -756 0
-74 -761 756 0
-74 761 -756 0
-75 -756 761 0
-75 -755 761 0
-75 -761 756 755 0
-76 -761 756 0
-76 761 -756 0
-77 -761 756 0
-77 761 -756 0
-78 -761 756 0
-78 -761 757 0
-78 761 -756 -757 0
-79 -761 756 0
-79 -761 758 0
-79 761 -756 -758 0
-80 -761 756 0
-80 761 -756 0
-88 -761 756 0
-88 761 -756 0
-71 -762 757 0
-71 762 -757 0
-72 -762 757 0
-72 762 -757 0
-73 -757 762 0
-73 -754 762 0
-73 -762 757 754 0
-74 -762 757 0
-74 762 -757 0
-75 -762 757 0
-75 762 -757 0
-76 -757 762 0
-76 -755 762 0
-76 -762 757 755 0
-77 -762 757 0
-77 762 -757 0
-78 -757 762 0
-78 -756 762 0
-78 -762 757 756 0
-79 -762 757 0
-79 762 -757 0
-80 -762 757 0
-80 -762 758 0
-80 762 -757 -758 0
-88 -762 757 0
-88 762 -757 0
-71 -763 758 0
-71 763 -758 0
-72 -763 758 0
-72 763 -758 0
-73 -763 758 0
-73 763 -758 0
-74 -758 763 0
-74 -754 763 0
-74 -763 758 754 0
-75 -763 758 0
-75 763 -758 0
-76 -763 758 0
-76 763 -758 0
-77 -758 763 0
-77 -755 763 0
-77 -763 758 755 0
-78 -763 758 0
-78 763 -758 0
-79 -758 763 0
-79 -756 763 0
-79 -763 758 756 0
-80 -758 763 0
-80 -757 763 0
-80 -763 758 757 0
-88 -763 758 0
-88 763 -758 0
764 0
-1 -769 764 0
-1 -769 765 0
-1 769 -764 -765 0
-2 -769 764 0
-2 -769 766 0
-2 769 -764 -766 0
-3 -769 764 0
-3 -769 767 0
-3 769 -764 -767 0
-4 -769 764 0
-4 -769 768 0
-4 769 -764 -768 0
-5 -769 764 0
-5 769 -764 0
-6 -769 764 0
-6 769 -764 0
-7 -769 764 0
-7 769 -764 0
-8 -769 764 0
-8 769 -764 0
-9 -769 764 0
-9 769 -764 0
-10 -769 764 0
-10 769 -764 0
-81 -769 764 0
-81 769 -764 0
-765 0
-1 -765 770 0
-1 -764 770 0
-1 -770 765 764 0
-2 -770 765 0
-2 770 -765 0
-3 -770 765 0
-3 770 -765 0
-4 -770 765 0
-4 770 -765 0
-5 -770 765 0
-5 -770 766 0
-5 770 -765 -766 0
-6 -770 765 0
-6 -770 767 0
-6 770 -765 -767 0
-7 -770 765 0
-7 -770 768 0
-7 770 -765 -768 0
-8 -770 765 0
-8 770 -765 0
-9 -770 765 0
-9 770 -765 0
-10 -770 765 0
-10 770 -765 0
-81 -770 765 0
-81 770 -765 0
766 0
-1 -771 766 0
-1 771 -766 0
-2 -766 771 0
-2 -764 771 0
-2 -771 766 764 0
-3 -771 766 0
-3 771 -766 0
-4 -771 766 0
-4 771 -766 0
-5 -766 771 0
-5 -765 771 0
-5 -771 766 765 0
-6 -771 766 0
-6 771 -766 0
-7 -771 766 0
-7 771 -766 0
-8 -771 766 0
-8 -771 767 0
-8 771 -766 -767 0
-9 -771 766 0
-9 -771 768 0
-9 771 -766 -768 0
-10 -771 766 0
-10 771 -766 0
-81 -771 766 0
-81 771 -766 0
-767 0
-1 -772 767 0
-1 772 -767 0
-2 -772 767 0
-2 772 -767 0
-3 -767 772 0
-3 -764 772 0
-3 -772 767 764 0
-4 -772 767 0
-4 772 -767 0
-5 -772 767 0
-5 772 -767 0
-6 -767 772 0
-6 -765 772 0
-6 -772 767 765 0
-7 -772 767 0
-7 772 -767 0
-8 -767 772 0
-8 -766 772 0
-8 -772 767 766 0
-9 -772 767 0
-9 772 -767 0
-10 -772 767 0
-10 -772 768 0
-10 772 -767 -768 0
-81 -772 767 0
-81 772 -767 0
-768 0
-1 -773 768 0
-1 773 -768 0
-2 -773 768 0
-2 773 -768 0
-3 -773 768 0
-3 773 -768 0
-4 -768 773 0
-4 -764 773 0
-4 -773 768 764 0
-5 -773 768 0
-5 773 -768 0
-6 -773 768 0
-6 773 -768 0
-7 -768 773 0
-7 -765 773 0
-7 -773 768 765 0
-8 -773 768 0
-8 773 -768 0
-9 -768 773 0
-9 -766 773 0
-9 -773 768 766 0
-10 -768 773 0
-10 -767 773 0
-10 -773 768 767 0
-81 -773 768 0
-81 773 -768 0
-11 -774 769 0
-11 -774 770 0
-11 774 -769 -770 0
-12 -774 769 0
-12 -774 771 0
-12 774 -769 -771 0
-13 -774 769 0
-13 -774 772 0
-13 774 -769 -772 0
-14 -774 769 0
-14 -774 773 0
-14 774 -769 -773 0
-15 -774 769 0
-15 774 -769 0
-16 -774 769 0
-16 774 -769 0
-17 -774 769 0
-17 774 -769 0
-18 -774 769 0
-18 774 -769 0
-19 -774 769 0
-19 774 -769 0
-20 -774 769 0
-20 774 -769 0
-82 -774 769 0
-82 774 -769 0
-11 -770 775 0
-11 -769 775 0
-11 -775 770 769 0
-12 -775 770 0
-12 775 -770 0
-13 -775 770 0
-13 775 -770 0
-14 -775 770 0
-14 775 -770 0
-15 -775 770 0
-15 -775 771 0
-15 775 -770 -771 0
-16 -775 770 0
-16 -775 772 0
-16 775 -770 -772 0
-17 -775 770 0
-17 -775 773 0
-17 775 -770 -773 0
-18 -775 770 0
-18 775 -770 0
-19 -775 770 0
-19 775 -770 0
-20 -775 770 0
-20 775 -770 0
-82 -775 770 0
-82 775 -770 0
-11 -776 771 0
-11 776 -771 0
-12 -771 776 0
-12 -769 776 0
-12 -776 771 769 0
-13 -776 771 0
-13 776 -771 0
-14 -776 771 0
-14 776 -771 0
-15 -771 776 0
-15 -770 776 0
-15 -776 771 770 0
-16 -776 771 0
-16 776 -771 0
-17 -776 771 0
-17 776 -771 0
-18 -776 771 0
-18 -776 772 0
-18 776 -771 -772 0
-19 -776 771 0
-19 -776 773 0
-19 776 -771 -773 0
-20 -776 771 0
-20 776 -771 0
-82 -776 771 0
-82 776 -771 0
-11 -777 772 0
-11 777 -772 0
-12 -777 772 0
-12 777 -772 0
-13 -772 777 0
-13 -769 777 0
-13 -777 772 769 0
-14 -777 772 0
-14 777 -772 0
-15 -777 772 0
-15 777 -772 0
-16 -772 777 0
-16 -770 777 0
-16 -777 772 770 0
-17 -777 772 0
-17 777 -772 0
-18 -772 777 0
-18 -771 777 0
-18 -777 772 771 0
-19 -777 772 0
-19 777 -772 0
-20 -777 772 0
-20 -777 773 0
-20 777 -772 -773 0
-82 -777 772 0
-82 777 -772 0
-11 -778 773 0
-11 778 -773 0
-12 -778 773 0
-12 778 -773 0
-13 -778 773 0
-13 778 -773 0
-14 -773 778 0
-14 -769 778 0
-14 -778 773 769 0
-15 -778 773 0
-15 778 -773 0
-16 -778 773 0
-16 778 -773 0
-17 -773 778 0
-17 -770 778 0
-17 -778 773 770 0
-18 -778 773 0
-18 778 -773 0
-19 -773 778 0
-19 -771 778 0
-19 -778 773 771 0
-20 -773 778 0
-20 -772 778 0
-20 -778 773 772 0
-82 -778 773 0
-82 778 -773 0
-21 -779 774 0
-21 -779 775 0
-21 779 -774 -775 0
-22 -779 774 0
-22 -779 776 0
-22 779 -774 -776 0
-23 -779 774 0
-23 -779 777 0
-23 779 -774 -777 0
-24 -779 774 0
-24 -779 778 0
-24 779 -774 -778 0
-25 -779 774 0
-25 779 -774 0
-26 -779 774 0
-26 779 -774 0
-27 -779 774 0
-27 779 -774 0
-28 -779 774 0
-28 779 -774 0
-29 -779 774 0
-29 779 -774 0
-30 -779 774 0
-30 779 -774 0
-83 -779 774 0
-83 779 -774 0
-21 -775 780 0
-21 -774 780 0
-21 -780 775 774 0
-22 -780 775 0
-22 780 -775 0
-23 -780 775 0
-23 780 -775 0
-24 -780 775 0
-24 780 -775 0
-25 -780 775 0
-25 -780 776 0
-25 780 -775 -776 0
-26 -780 775 0
-26 -780 777 0
-26 780 -775 -777 0
-27 -780 775 0
-27 -780 778 0
-27 780 -775 -778 0
-28 -780 775 0
-28 780 -775 0
-29 -780 775 0
-29 780 -775 0
-30 -780 775 0
-30 780 -775 0
-83 -780 775 0
-83 780 -775 0
-21 -781 776 0
-21 781 -776 0
-22 -776 781 0
-22 -774 781 0
-22 -781 776 774 0
-23 -781 776 0
-23 781 -776 0
-24 -781 776 0
-24 781 -776 0
-25 -776 781 0
-25 -775 781 0
-25 -781 776 775 0
-26 -781 776 0
-26 781 -776 0
-27 -781 776 0
-27 781 -776 0
-28 -781 776 0
-28 -781 777 0
-28 781 -776 -777 0
-29 -781 776 0
-29 -781 778 0
-29 781 -776 -778 0
-30 -781 776 0
-30 781 -776 0
-83 -781 776 0
-83 781 -776 0
-21 -782 777 0
-21 782 -777 0
-22 -782 777 0
-22 782 -777 0
-23 -777 782 0
-23 -774 782 0
-23 -782 777 774 0
-24 -782 777 0
-24 782 -777 0
-25 -782 777 0
-25 782 -777 0
-26 -777 782 0
-26 -775 782 0
-26 -782 777 775 0
-27 -782 777 0
-27 782 -777 0
-28 -777 782 0
-28 -776 782 0
-28 -782 777 776 0
-29 -782 777 0
-29 782 -777 0
-30 -782 777 0
-30 -782 778 0
-30 782 -777 -778 0
-83 -782 777 0
-83 782 -777 0
-21 -783 778 0
-21 783 -778 0
-22 -783 778 0
-22 783 -778 0
-23 -783 778 0
-23 783 -778 0
-24 -778 783 0
-24 -774 783 0
-24 -783 778 774 0
-25 -783 778 0
-25 783 -778 0
-26 -783 778 0
-26 783 -778 0
-27 -778 783 0
-27 -775 783 0
-27 -783 778 775 0
-28 -783 778 0
-28 783 -778 0
-29 -778 783 0
-29 -776 783 0
-29 -783 778 776 0
-30 -778 783 0
-30 -777 783 0
-30 -783 778 777 0
-83 -783 778 0
-83 783 -778 0
-31 -784 779 0
-31 -784 780 0
-31 784 -779 -780 0
-32 -784 779 0
-32 -784 781 0
-32 784 -779 -781 0
-33 -784 779 0
-33 -784 782 0
-33 784 -779 -782 0
-34 -784 779 0
-34 -784 783 0
-34 784 -779 -783 0
-35 -784 779 0
-35 784 -779 0
-36 -784 779 0
-36 784 -779 0
-37 -784 779 0
-37 784 -779 0
-38 -784 779 0
-38 784 -779 0
-39 -784 779 0
-39 784 -779 0
-40 -784 779 0
-40 784 -779 0
-84 -784 779 0
-84 784 -779 0
-31 -780 785 0
-31 -779 785 0
-31 -785 780 779 0
-32 -785 780 0
-32 785 -780 0
-33 -785 780 0
-33 785 -780 0
-34 -785 780 0
-34 785 -780 0
-35 -785 780 0
-35 -785 781 0
-35 785 -780 -781 0
-36 -785 780 0
-36 -785 782 0
-36 785 -780 -782 0
-37 -785 780 0
-37 -785 783 0
-37 785 -780 -783 0
-38 -785 780 0
-38 785 -780 0
-39 -785 780 0
-39 785 -780 0
-40 -785 780 0
-40 785 -780 0
-84 -785 780 0
-84 785 -780 0
-31 -786 781 0
-31 786 -781 0
-32 -781 786 0
-32 -779 786 0
-32 -786 781 779 0
-33 -786 781 0
-33 786 -781 0
-34 -786 781 0
-34 786 -781 0
-35 -781 786 0
-35 -780 786 0
-35 -786 781 780 0
-36 -786 781 0
-36 786 -781 0
-37 -786 781 0
-37 786 -781 0
-38 -786 781 0
-38 -786 782 0
-38 786 -781 -782 0
-39 -786 781 0
-39 -786 783 0
-39 786 -781 -783 0
-40 -786 781 0
-40 786 -781 0
-84 -786 781 0
-84 786 -781 0
-31 -787 782 0
-31 787 -782 0
-32 -787 782 0
-32 787 -782 0
-33 -782 787 0
-33 -779 787 0
-33 -787 782 779 0
-34 -787 782 0
-34 787 -782 0
-35 -787 782 0
-35 787 -782 0
-36 -782 787 0
-36 -780 787 0
-36 -787 782 780 0
-37 -787 782 0
-37 787 -782 0
-38 -782 787 0
-38 -781 787 0
-38 -787 782 781 0
-39 -787 782 0
-39 787 -782 0
-40 -787 782 0
-40 -787 783 0
-40 787 -782 -783 0
-84 -787 782 0
-84 787 -782 0
-31 -788 783 0
-31 788 -783 0
-32 -788 783 0
-32 788 -783 0
-33 -788 783 0
-33 788 -783 0
-34 -783 788 0
-34 -779 788 0
-34 -788 783 779 0
-35 -788 783 0
-35 788 -783 0
-36 -788 783 0
-36 788 -783 0
-37 -783 788 0
-37 -780 788 0
-37 -788 783 780 0
-38 -788 783 0
-38 788 -783 0
-39 -783 788 0
-39 -781 788 0
-39 -788 783 781 0
-40 -783 788 0
-40 -782 788 0
-40 -788 783 782 0
-84 -788 783 0
-84 788 -783 0
-41 -789 784 0
-41 -789 785 0
-41 789 -784 -785 0
-42 -789 784 0
-42 -789 786 0
-42 789 -784 -786 0
-43 -789 784 0
-43 -789 787 0
-43 789 -784 -787 0
-44 -789 784 0
-44 -789 788 0
-44 789 -784 -788 0
-45 -789 784 0
-45 789 -784 0
-46 -789 784 0
-46 789 -784 0
-47 -789 784 0
-47 789 -784 0
-48 -789 784 0
-48 789 -784 0
-49 -789 784 0
-49 789 -784 0
-50 -789 784 0
-50 789 -784 0
-85 -789 784 0
-85 789 -784 0
-41 -785 790 0
-41 -784 790 0
-41 -790 785 784 0
-42 -790 785 0
-42 790 -785 0
-43 -790 785 0
-43 790 -785 0
-44 -790 785 0
-44 790 -785 0
-45 -790 785 0
-45 -790 786 0
-45 790 -785 -786 0
-46 -790 785 0
-46 -790 787 0
-46 790 -785 -787 0
-47 -790 785 0
-47 -790 788 0
-47 790 -785 -788 0
-48 -790 785 0
-48 790 -785 0
-49 -790 785 0
-49 790 -785 0
-50 -790 785 0
-50 790 -785 0
-85 -790 785 0
-85 790 -785 0
-41 -791 786 0
-41 791 -786 0
-42 -786 791 0
-42 -784 791 0
-42 -791 786 784 0
-43 -791 786 0
-43 791 -786 0
-44 -791 786 0
-44 791 -786 0
-45 -786 791 0
-45 -785 791 0
-45 -791 786 785 0
-46 -791 786 0
-46 791 -786 0
-47 -791 786 0
-47 791 -786 0
-48 -791 786 0
-48 -791 787 0
-48 791 -786 -787 0
-49 -791 786 0
-49 -791 788 0
-49 791 -786 -788 0
-50 -791 786 0
-50 791 -786 0
-85 -791 786 0
-85 791 -786 0
-41 -792 787 0
-41 792 -787 0
-42 -792 787 0
-42 792 -787 0
-43 -787 792 0
-43 -784 792 0
-43 -792 787 784 0
-44 -792 787 0
-44 792 -787 0
-45 -792 787 0
-45 792 -787 0
-46 -787 792 0
-46 -785 792 0
-46 -792 787 785 0
-47 -792 787 0
-47 792 -787 0
-48 -787 792 0
-48 -786 792 0
-48 -792 787 786 0
-49 -792 787 0
-49 792 -787 0
-50 -792 787 0
-50 -792 788 0
-50 792 -787 -788 0
-85 -792 787 0
-85 792 -787 0
-41 -793 788 0
-41 793 -788 0
-42 -793 788 0
-42 793 -788 0
-43 -793 788 0
-43 793 -788 0
-44 -788 793 0
-44 -784 793 0
-44 -793 788 784 0
-45 -793 788 0
-45 793 -788 0
-46 -793 788 0
-46 793 -788 0
-47 -788 793 0
-47 -785 793 0
-47 -793 788 785 0
-48 -793 788 0
-48 793 -788 0
-49 -788 793 0
-49 -786 793 0
-49 -793 788 786 0
-50 -788 793 0
-50 -787 793 0
-50 -793 788 787 0
-85 -793 788 0
-85 793 -788 0
-51 -794 789 0
-51 -794 790 0
-51 794 -789 -790 0
-52 -794 789 0
-52 -794 791 0
-52 794 -789 -791 0
-53 -794 789 0
-53 -794 792 0
-53 794 -789 -792 0
-54 -794 789 0
-54 -794 793 0
-54 794 -789 -793 0
-55 -794 789 0
-55 794 -789 0
-56 -794 789 0
-56 794 -789 0
-57 -794 789 0
-57 794 -789 0
-58 -794 789 0
-58 794 -789 0
-59 -794 789 0
-59 794 -789 0
-60 -794 789 0
-60 794 -789 0
-86 -794 789 0
-86 794 -789 0
-51 -790 795 0
-51 -789 795 0
-51 -795 790 789 0
-52 -795 790 0
-52 795 -790 0
-53 -795 790 0
-53 795 -790 0
-54 -795 790 0
-54 795 -790 0
-55 -795 790 0
-55 -795 791 0
-55 795 -790 -791 0
-56 -795 790 0
-56 -795 792 0
-56 795 -790 -792 0
-57 -795 790 0
-57 -795 793 0
-57 795 -790 -793 0
-58 -795 790 0
-58 795 -790 0
-59 -795 790 0
-59 795 -790 0
-60 -795 790 0
-60 795 -790 0
-86 -795 790 0
-86 795 -790 0
-51 -796 791 0
-51 796 -791 0
-52 -791 796 0
-52 -789 796 0
-52 -796 791 789 0
-53 -796 791 0
-53 796 -791 0
-54 -796 791 0
-54 796 -791 0
-55 -791 796 0
-55 -790 796 0
-55 -796 791 790 0
-56 -796 791 0
-56 796 -791 0
-57 -796 791 0
-57 796 -791 0
-58 -796 791 0
-58 -796 792 0
-58 796 -791 -792 0
-59 -796 791 0
-59 -796 793 0
-59 796 -791 -793 0
-60 -796 791 0
-60 796 -791 0
-86 -796 791 0
-86 796 -791 0
-51 -797 792 0
-51 797 -792 0
-52 -797 792 0
-52 797 -792 0
-53 -792 797 0
-53 -789 797 0
-53 -797 792 789 0
-54 -797 792 0
-54 797 -792 0
-55 -797 792 0
-55 797 -792 0
-56 -792 797 0
-56 -790 797 0
-56 -797 792 790 0
-57 -797 792 0
-57 797 -792 0
-58 -792 797 0
-58 -791 797 0
-58 -797 792 791 0
-59 -797 792 0
-59 797 -792 0
-60 -797 792 0
-60 -797 793 0
-60 797 -792 -793 0
-86 -797 792 0
-86 797 -792 0
-51 -798 793 0
-51 798 -793 0
-52 -798 793 0
-52 798 -793 0
-53 -798 793 0
-53 798 -793 0
-54 -793 798 0
-54 -789 798 0
-54 -798 793 789 0
-55 -798 793 0
-55 798 -793 0
-56 -798 793 0
-56 798 -793 0
-57 -793 798 0
-57 -790 798 0
-57 -798 793 790 0
-58 -798 793 0
-58 798 -793 0
-59 -793 798 0
-59 -791 798 0
-59 -798 793 791 0
-60 -793 798 0
-60 -792 798 0
-60 -798 793 792 0
-86 -798 793 0
-86 798 -793 0
-61 -799 794 0
-61 -799 795 0
-61 799 -794 -795 0
-62 -799 794 0
-62 -799 796 0
-62 799 -794 -796 0
-63 -799 794 0
-63 -799 797 0
-63 799 -794 -797 0
-64 -799 794 0
-64 -799 798 0
-64 799 -794 -798 0
-65 -799 794 0
-65 799 -794 0
-66 -799 794 0
-66 799 -794 0
-67 -799 794 0
-67 799 -794 0
-68 -799 794 0
-68 799 -794 0
-69 -799 794 0
-69 799 -794 0
-70 -799 794 0
-70 799 -794 0
-87 -799 794 0
-87 799 -794 0
-61 -795 800 0
-61 -794 800 0
-61 -800 795 794 0
-62 -800 795 0
-62 800 -795 0
-63 -800 795 0
-63 800 -795 0
-64 -800 795 0
-64 800 -795 0
-65 -800 795 0
-65 -800 796 0
-65 800 -795 -796 0
-66 -800 795 0
-66 -800 797 0
-66 800 -795 -797 0
-67 -800 795 0
-67 -800 798 0
-67 800 -795 -798 0
-68 -800 795 0
-68 800 -795 0
-69 -800 795 0
-69 800 -795 0
-70 -800 795 0
-70 800 -795 0
-87 -800 795 0
-87 800 -795 0
-61 -801 796 0
-61 801 -796 0
-62 -796 801 0
-62 -794 801 0
-62 -801 796 794 0
-63 -801 796 0
-63 801 -796 0
-64 -801 796 0
-64 801 -796 0
-65 -796 801 0
-65 -795 801 0
-65 -801 796 795 0
-66 -801 796 0
-66 801 -796 0
-67 -801 796 0
-67 801 -796 0
-68 -801 796 0
-68 -801 797 0
-68 801 -796 -797 0
-69 -801 796 0
-69 -801 798 0
-69 801 -796 -798 0
-70 -801 796 0
-70 801 -796 0
-87 -801 796 0
-87 801 -796 0
-61 -802 797 0
-61 802 -797 0
-62 -802 797 0
-62 802 -797 0
-63 -797 802 0
-63 -794 802 0
-63 -802 797 794 0
-64 -802 797 0
-64 802 -797 0
-65 -802 797 0
-65 802 -797 0
-66 -797 802 0
-66 -795 802 0
-66 -802 797 795 0
-67 -802 797 0
-67 802 -797 0
-68 -797 802 0
-68 -796 802 0
-68 -802 797 796 0
-69 -802 797 0
-69 802 -797 0
-70 -802 797 0
-70 -802 798 0
-70 802 -797 -798 0
-87 -802 797 0
-87 802 -797 0
-61 -803 798 0
-61 803 -798 0
-62 -803 798 0
-62 803 -798 0
-63 -803 798 0
-63 803 -798 0
-64 -798 803 0
-64 -794 803 0
-64 -803 798 794 0
-65 -803 798 0
-65 803 -798 0
-66 -803 798 0
-66 803 -798 0
-67 -798 803 0
-67 -795 803 0
-67 -803 798 795 0
-68 -803 798 0
-68 803 -798 0
-69 -798 803 0
-69 -796 803 0
-69 -803 798 796 0
-70 -798 803 0
-70 -797 803 0
-70 -803 798 797 0
-87 -803 798 0
-87 803 -798 0
-71 -804 799 0
-71 -804 800 0
-71 804 -799 -800 0
-72 -804 799 0
-72 -804 801 0
-72 804 -799 -801 0
-73 -804 799 0
-73 -804 802 0
-73 804 -799 -802 0
-74 -804 799 0
-74 -804 803 0
-74 804 -799 -803 0
-75 -804 799 0
-75 804 -799 0
-76 -804 799 0
-76 804 -799 0
-77 -804 799 0
-77 804 -799 0
-78 -804 799 0
-78 804 -799 0
-79 -804 799 0
-79 804 -799 0
-80 -804 799 0
-80 804 -799 0
-88 -804 799 0
-88 804 -799 0
-71 -800 805 0
-71 -799 805 0
-71 -805 800 799 0
-72 -805 800 0
-72 805 -800 0
-73 -805 800 0
-73 805 -800 0
-74 -805 800 0
-74 805 -800 0
-75 -805 800 0
-75 -805 801 0
-75 805 -800 -801 0
-76 -805 800 0
-76 -805 802 0
-76 805 -800 -802 0
-77 -805 800 0
-77 -805 803 0
-77 805 -800 -803 0
-78 -805 800 0
-78 805 -800 0
-79 -805 800 0
-79 805 -800 0
-80 -805 800 0
-80 805 -800 0
-88 -805 800 0
-88 805 -800 0
-71 -806 801 0
-71 806 -801 0
-72 -801 806 0
-72 -799 806 0
-72 -806 801 799 0
-73 -806 801 0
-73 806 -801 0
-74 -806 801 0
-74 806 -801 0
-75 -801 806 0
-75 -800 806 0
-75 -806 801 800 0
-76 -806 801 0
-76 806 -801 0
-77 -806 801 0
-77 806 -801 0
-78 -806 801 0
-78 -806 802 0
-78 806 -801 -802 0
-79 -806 801 0
-79 -806 803 0
-79 806 -801 -803 0
-80 -806 801 0
-80 806 -801 0
-88 -806 801 0
-88 806 -801 0
-71 -807 802 0
-71 807 -802 0
-72 -807 802 0
-72 807 -802 0
-73 -802 807 0
-73 -799 807 0
-73 -807 802 799 0
-74 -807 802 0
-74 807 -802 0
-75 -807 802 0
-75 807 -802 0
-76 -802 807 0
-76 -800 807 0
-76 -807 802 800 0
-77 -807 802 0
-77 807 -802 0
-78 -802 807 0
-78 -801 807 0
-78 -807 802 801 0
-79 -807 802 0
-79 807 -802 0
-80 -807 802 0
-80 -807 803 0
-80 807 -802 -803 0
-88 -807 802 0
-88 807 -802 0
-71 -808 803 0
-71 808 -803 0
-72 -808 803 0
-72 808 -803 0
-73 -808 803 0
-73 808 -803 0
-74 -803 808 0
-74 -799 808 0
-74 -808 803 799 0
-75 -808 803 0
-75 808 -803 0
-76 -808 803 0
-76 808 -803 0
-77 -803 808 0
-77 -800 808 0
-77 -808 803 800 0
-78 -808 803 0
-78 808 -803 0
-79 -803 808 0
-79 -801 808 0
-79 -808 803 801 0
-80 -803 808 0
-80 -802 808 0
-80 -808 803 802 0
-88 -808 803 0
-88 808 -803 0
809 0
-1 -814 809 0
-1 -814 810 0
-1 814 -809 -810 0
-2 -814 809 0
-2 -814 811 0
-2 814 -809 -811 0
-3 -814 809 0
-3 -814 812 0
-3 814 -809 -812 0
-4 -814 809 0
-4 -814 813 0
-4 814 -809 -813 0
-5 -814 809 0
-5 814 -809 0
-6 -814 809 0
-6 814 -809 0
-7 -814 809 0
-7 814 -809 0
-8 -814 809 0
-8 814 -809 0
-9 -814 809 0
-9 814 -809 0
-10 -814 809 0
-10 814 -809 0
-81 -814 809 0
-81 814 -809 0
-810 0
-1 -810 815 0
-1 -809 815 0
-1 -815 810 809 0
-2 -815 810 0
-2 815 -810 0
-3 -815 810 0
-3 815 -810 0
-4 -815 810 0
-4 815 -810 0
-5 -815 810 0
-5 -815 811 0
-5 815 -810 -811 0
-6 -815 810 0
-6 -815 812 0
-6 815 -810 -812 0
-7 -815 810 0
-7 -815 813 0
-7 815 -810 -813 0
-8 -815 810 0
-8 815 -810 0
-9 -815 810 0
-9 815 -810 0
-10 -815 810 0
-10 815 -810 0
-81 -815 810 0
-81 815 -810 0
811 0
-1 -816 811 0
-1 816 -811 0
-2 -811 816 0
-2 -809 816 0
-2 -816 811 809 0
-3 -816 811 0
-3 816 -811 0
-4 -816 811 0
-4 816 -811 0
-5 -811 816 0
-5 -810 816 0
-5 -816 811 810 0
-6 -816 811 0
-6 816 -811 0
-7 -816 811 0
-7 816 -811 0
-8 -816 811 0
-8 -816 812 0
-8 816 -811 -812 0
-9 -816 811 0
-9 -816 813 0
-9 816 -811 -813 0
-10 -816 811 0
-10 816 -811 0
-81 -816 811 0
-81 816 -811 0
-812 0
-1 -817 812 0
-1 817 -812 0
-2 -817 812 0
-2 817 -812 0
-3 -812 817 0
-3 -809 817 0
-3 -817 812 809 0
-4 -817 812 0
-4 817 -812 0
-5 -817 812 0
-5 817 -812 0
-6 -812 817 0
-6 -810 817 0
-6 -817 812 810 0
-7 -817 812 0
-7 817 -812 0
-8 -812 817 0
-8 -811 817 0
-8 -817 812 811 0
-9 -817 812 0
-9 817 -812 0
-10 -817 812 0
-10 -817 813 0
-10 817 -812 -813 0
-81 -817 812 0
-81 817 -812 0
813 0
-1 -818 813 0
-1 818 -813 0
-2 -818 813 0
-2 818 -813 0
-3 -818 813 0
-3 818 -813 0
-4 -813 818 0
-4 -809 818 0
-4 -818 813 809 0
-5 -818 813 0
-5 818 -813 0
-6 -818 813 0
-6 818 -813 0
-7 -813 818 0
-7 -810 818 0
-7 -818 813 810 0
-8 -818 813 0
-8 818 -813 0
-9 -813 818 0
-9 -811 818 0
-9 -818 813 811 0
-10 -813 818 0
-10 -812 818 0
-10 -818 813 812 0
-81 -818 813 0
-81 818 -813 0
-11 -819 814 0
-11 -819 815 0
-11 819 -814 -815 0
-12 -819 814 0
-12 -819 816 0
-12 819 -814 -816 0
-13 -819 814 0
-13 -819 817 0
-13 819 -814 -817 0
-14 -819 814 0
-14 -819 818 0
-14 819 -814 -818 0
-15 -819 814 0
-15 819 -814 0
-16 -819 814 0
-16 819 -814 0
-17 -819 814 0
-17 819 -814 0
-18 -819 814 0
-18 819 -814 0
-19 -819 814 0
-19 819 -814 0
-20 -819 814 0
-20 819 -814 0
-82 -819 814 0
-82 819 -814 0
-11 -815 820 0
-11 -814 820 0
-11 -820 815 814 0
-12 -820 815 0
-12 820 -815 0
-13 -820 815 0
-13 820 -815 0
-14 -820 815 0
-14 820 -815 0
-15 -820 815 0
-15 -820 816 0
-15 820 -815 -816 0
-16 -820 815 0
-16 -820 817 0
-16 820 -815 -817 0
-17 -820 815 0
-17 -820 818 0
-17 820 -815 -818 0
-18 -820 815 0
-18 820 -815 0
-19 -820 815 0
-19 820 -815 0
-20 -820 815 0
-20 820 -815 0
-82 -820 815 0
-82 820 -815 0
-11 -821 816 0
-11 821 -816 0
-12 -816 821 0
-12 -814 821 0
-12 -821 816 814 0
-13 -821 816 0
-13 821 -816 0
-14 -821 816 0
-14 821 -816 0
-15 -816 821 0
-15 -815 821 0
-15 -821 816 815 0
-16 -821 816 0
-16 821 -816 0
-17 -821 816 0
-17 821 -816 0
-18 -821 816 0
-18 -821 817 0
-18 821 -816 -817 0
-19 -821 816 0
-19 -821 818 0
-19 821 -816 -818 0
-20 -821 816 0
-20 821 -816 0
-82 -821 816 0
-82 821 -816 0
-11 -822 817 0
-11 822 -817 0
-12 -822 817 0
-12 822 -817 0
-13 -817 822 0
-13 -814 822 0
-13 -822 817 814 0
-14 -822 817 0
-14 822 -817 0
-15 -822 817 0
-15 822 -817 0
-16 -817 822 0
-16 -815 822 0
-16 -822 817 815 0
-17 -822 817 0
-17 822 -817 0
-18 -817 822 0
-18 -816 822 0
-18 -822 817 816 0
-19 -822 817 0
-19 822 -817 0
-20 -822 817 0
-20 -822 818 0
-20 822 -817 -818 0
-82 -822 817 0
-82 822 -817 0
-11 -823 818 0
-11 823 -818 0
-12 -823 818 0
-12 823 -818 0
-13 -823 818 0
-13 823 -818 0
-14 -818 823 0
-14 -814 823 0
-14 -823 818 814 0
-15 -823 818 0
-15 823 -818 0
-16 -823 818 0
-16 823 -818 0
-17 -818 823 0
-17 -815 823 0
-17 -823 818 815 0
-18 -823 818 0
-18 823 -818 0
-19 -818 823 0
-19 -816 823 0
-19 -823 818 816 0
-20 -818 823 0
-20 -817 823 0
-20 -823 818 817 0
-82 -823 818 0
-82 823 -818 0
-21 -824 819 0
-21 -824 820 0
-21 824 -819 -820 0
-22 -824 819 0
-22 -824 821 0
-22 824 -819 -821 0
-23 -824 819 0
-23 -824 822 0
-23 824 -819 -822 0
-24 -824 819 0
-24 -824 823 0
-24 824 -819 -823 0
-25 -824 819 0
-25 824 -819 0
-26 -824 819 0
-26 824 -819 0
-27 -824 819 0
-27 824 -819 0
-28 -824 819 0
-28 824 -819 0
-29 -824 819 0
-29 824 -819 0
-30 -824 819 0
-30 824 -819 0
-83 -824 819 0
-83 824 -819 0
-21 -820 825 0
-21 -819 825 0
-21 -825 820 819 0
-22 -825 820 0
-22 825 -820 0
-23 -825 820 0
-23 825 -820 0
-24 -825 820 0
-24 825 -820 0
-25 -825 820 0
-25 -825 821 0
-25 825 -820 -821 0
-26 -825 820 0
-26 -825 822 0
-26 825 -820 -822 0
-27 -825 820 0
-27 -825 823 0
-27 825 -820 -823 0
-28 -825 820 0
-28 825 -820 0
-29 -825 820 0
-29 825 -820 0
-30 -825 820 0
-30 825 -820 0
-83 -825 820 0
-83 825 -820 0
-21 -826 821 0
-21 826 -821 0
-22 -821 826 0
-22 -819 826 0
-22 -826 821 819 0
-23 -826 821 0
-23 826 -821 0
-24 -826 821 0
-24 826 -821 0
-25 -821 826 0
-25 -820 826 0
-25 -826 821 820 0
-26 -826 821 0
-26 826 -821 0
-27 -826 821 0
-27 826 -821 0
-28 -826 821 0
-28 -826 822 0
-28 826 -821 -822 0
-29 -826 821 0
-29 -826 823 0
-29 826 -821 -823 0
-30 -826 821 0
-30 826 -821 0
-83 -826 821 0
-83 826 -821 0
-21 -827 822 0
-21 827 -822 0
-22 -827 822 0
-22 827 -822 0
-23 -822 827 0
-23 -819 827 0
-23 -827 822 819 0
-24 -827 822 0
-24 827 -822 0
-25 -827 822 0
-25 827 -822 0
-26 -822 827 0
-26 -820 827 0
-26 -827 822 820 0
-27 -827 822 0
-27 827 -822 0
-28 -822 827 0
-28 -821 827 0
-28 -827 822 821 0
-29 -827 822 0
-29 827 -822 0
-30 -827 822 0
-30 -827 823 0
-30 827 -822 -823 0
-83 -827 822 0
-83 827 -822 0
-21 -828 823 0
-21 828 -823 0
-22 -828 823 0
-22 828 -823 0
-23 -828 823 0
-23 828 -823 0
-24 -823 828 0
-24 -819 828 0
-24 -828 823 819 0
-25 -828 823 0
-25 828 -823 0
-26 -828 823 0
-26 828 -823 0
-27 -823 828 0
-27 -820 828 0
-27 -828 823 820 0
-28 -828 823 0
-28 828 -823 0
-29 -823 828 0
-29 -821 828 0
-29 -828 823 821 0
-30 -823 828 0
-30 -822 828 0
-30 -828 823 822 0
-83 -828 823 0
-83 828 -823 0
-31 -829 824 0
-31 -829 825 0
-31 829 -824 -825 0
-32 -829 824 0
-32 -829 826 0
-32 829 -824 -826 0
-33 -829 824 0
-33 -829 827 0
-33 829 -824 -827 0
-34 -829 824 0
-34 -829 828 0
-34 829 -824 -828 0
-35 -829 824 0
-35 829 -824 0
-36 -829 824 0
-36 829 -824 0
-37 -829 824 0
-37 829 -824 0
-38 -829 824 0
-38 829 -824 0
-39 -829 824 0
-39 829 -824 0
-40 -829 824 0
-40 829 -824 0
-84 -829 824 0
-84 829 -824 0
-31 -825 830 0
-31 -824 830 0
-31 -830 825 824 0
-32 -830 825 0
-32 830 -825 0
-33 -830 825 0
-33 830 -825 0
-34 -830 825 0
-34 830 -825 0
-35 -830 825 0
-35 -830 826 0
-35 830 -825 -826 0
-36 -830 825 0
-36 -830 827 0
-36 830 -825 -827 0
-37 -830 825 0
-37 -830 828 0
-37 830 -825 -828 0
-38 -830 825 0
-38 830 -825 0
-39 -830 825 0
-39 830 -825 0
-40 -830 825 0
-40 830 -825 0
-84 -830 825 0
-84 830 -825 0
-31 -831 826 0
-31 831 -826 0
-32 -826 831 0
-32 -824 831 0
-32 -831 826 824 0
-33 -831 826 0
-33 831 -826 0
-34 -831 826 0
-34 831 -826 0
-35 -826 831 0
-35 -825 831 0
-35 -831 826 825 0
-36 -831 826 0
-36 831 -826 0
-37 -831 826 0
-37 831 -826 0
-38 -831 826 0
-38 -831 827 0
-38 831 -826 -827 0
-39 -831 826 0
-39 -831 828 0
-39 831 -826 -828 0
-40 -831 826 0
-40 831 -826 0
-84 -831 826 0
-84 831 -826 0
-31 -832 827 0
-31 832 -827 0
-32 -832 827 0
-32 832 -827 0
-33 -827 832 0
-33 -824 832 0
-33 -832 827 824 0
-34 -832 827 0
-34 832 -827 0
-35 -832 827 0
-35 832 -827 0
-36 -827 832 0
-36 -825 832 0
-36 -832 827 825 0
-37 -832 827 0
-37 832 -827 0
-38 -827 832 0
-38 -826 832 0
-38 -832 827 826 0
-39 -832 827 0
-39 832 -827 0
-40 -832 827 0
-40 -832 828 0
-40 832 -827 -828 0
-84 -832 827 0
-84 832 -827 0
-31 -833 828 0
-31 833 -828 0
-32 -833 828 0
-32 833 -828 0
-33 -833 828 0
-33 833 -828 0
-34 -828 833 0
-34 -824 833 0
-34 -833 828 824 0
-35 -833 828 0
-35 833 -828 0
-36 -833 828 0
-36 833 -828 0
-37 -828 833 0
-37 -825 833 0
-37 -833 828 825 0
-38 -833 828 0
-38 833 -828 0
-39 -828 833 0
-39 -826 833 0
-39 -833 828 826 0
-40 -828 833 0
-40 -827 833 0
-40 -833 828 827 0
-84 -833 828 0
-84 833 -828 0
-41 -834 829 0
-41 -834 830 0
-41 834 -829 -830 0
-42 -834 829 0
-42 -834 831 0
-42 834 -829 -831 0
-43 -834 829 0
-43 -834 832 0
-43 834 -829 -832 0
-44 -834 829 0
-44 -834 833 0
-44 834 -829 -833 0
-45 -834 829 0
-45 834 -829 0
-46 -834 829 0
-46 834 -829 0
-47 -834 829 0
-47 834 -829 0
-48 -834 829 0
-48 834 -829 0
-49 -834 829 0
-49 834 -829 0
-50 -834 829 0
-50 834 -829 0
-85 -834 829 0
-85 834 -829 0
-41 -830 835 0
-41 -829 835 0
-41 -835 830 829 0
-42 -835 830 0
-42 835 -830 0
-43 -835 830 0
-43 835 -830 0
-44 -835 830 0
-44 835 -830 0
-45 -835 830 0
-45 -835 831 0
-45 835 -830 -831 0
-46 -835 830 0
-46 -835 832 0
-46 835 -830 -832 0
-47 -835 830 0
-47 -835 833 0
-47 835 -830 -833 0
-48 -835 830 0
-48 835 -830 0
-49 -835 830 0
-49 835 -830 0
-50 -835 830 0
-50 835 -830 0
-85 -835 830 0
-85 835 -830 0
-41 -836 831 0
-41 836 -831 0
-42 -831 836 0
-42 -829 836 0
-42 -836 831 829 0
-43 -836 831 0
-43 836 -831 0
-44 -836 831 0
-44 836 -831 0
-45 -831 836 0
-45 -830 836 0
-45 -836 831 830 0
-46 -836 831 0
-46 836 -831 0
-47 -836 831 0
-47 836 -831 0
-48 -836 831 0
-48 -836 832 0
-48 836 -831 -832 0
-49 -836 831 0
-49 -836 833 0
-49 836 -831 -833 0
-50 -836 831 0
-50 836 -831 0
-85 -836 831 0
-85 836 -831 0
-41 -837 832 0
-41 837 -832 0
-42 -837 832 0
-42 837 -832 0
-43 -832 837 0
-43 -829 837 0
-43 -837 832 829 0
-44 -837 832 0
-44 837 -832 0
-45 -837 832 0
-45 837 -832 0
-46 -832 837 0
-46 -830 837 0
-46 -837 832 830 0
-47 -837 832 0
-47 837 -832 0
-48 -832 837 0
-48 -831 837 0
-48 -837 832 831 0
-49 -837 832 0
-49 837 -832 0
-50 -837 832 0
-50 -837 833 0
-50 837 -832 -833 0
-85 -837 832 0
-85 837 -832 0
-41 -838 833 0
-41 838 -833 0
-42 -838 833 0
-42 838 -833 0
-43 -838 833 0
-43 838 -833 0
-44 -833 838 0
-44 -829 838 0
-44 -838 833 829 0
-45 -838 833 0
-45 838 -833 0
-46 -838 833 0
-46 838 -833 0
-47 -833 838 0
-47 -830 838 0
-47 -838 833 830 0
-48 -838 833 0
-48 838 -833 0
-49 -833 838 0
-49 -831 838 0
-49 -838 833 831 0
-50 -833 838 0
-50 -832 838 0
-50 -838 833 832 0
-85 -838 833 0
-85 838 -833 0
-51 -839 834 0
-51 -839 835 0
-51 839 -834 -835 0
-52 -839 834 0
-52 -839 836 0
-52 839 -834 -836 0
-53 -839 834 0
-53 -839 837 0
-53 839 -834 -837 0
-54 -839 834 0
-54 -839 838 0
-54 839 -834 -838 0
-55 -839 834 0
-55 839 -834 0
-56 -839 834 0
-56 839 -834 0
-57 -839 834 0
-57 839 -834 0
-58 -839 834 0
-58 839 -834 0
-59 -839 834 0
-59 839 -834 0
-60 -839 834 0
-60 839 -834 0
-86 -839 834 0
-86 839 -834 0
-51 -835 840 0
-51 -834 840 0
-51 -840 835 834 0
-52 -840 835 0
-52 840 -835 0
-53 -840 835 0
-53 840 -835 0
-54 -840 835 0
-54 840 -835 0
-55 -840 835 0
-55 -840 836 0
-55 840 -835 -836 0
-56 -840 835 0
-56 -840 837 0
-56 840 -835 -837 0
-57 -840 835 0
-57 -840 838 0
-57 840 -835 -838 0
-58 -840 835 0
-58 840 -835 0
-59 -840 835 0
-59 840 -835 0
-60 -840 835 0
-60 840 -835 0
-86 -840 835 0
-86 840 -835 0
-51 -841 836 0
-51 841 -836 0
-52 -836 841 0
-52 -834 841 0
-52 -841 836 834 0
-53 -841 836 0
-53 841 -836 0
-54 -841 836 0
-54 841 -836 0
-55 -836 841 0
-55 -835 841 0
-55 -841 836 835 0
-56 -841 836 0
-56 841 -836 0
-57 -841 836 0
-57 841 -836 0
-58 -841 836 0
-58 -841 837 0
-58 841 -836 -837 0
-59 -841 836 0
-59 -841 838 0
-59 841 -836 -838 0
-60 -841 836 0
-60 841 -836 0
-86 -841 836 0
-86 841 -836 0
-51 -842 837 0
-51 842 -837 0
-52 -842 837 0
-52 842 -837 0
-53 -837 842 0
-53 -834 842 0
-53 -842 837 834 0
-54 -842 837 0
-54 842 -837 0
-55 -842 837 0
-55 842 -837 0
-56 -837 842 0
-56 -835 842 0
-56 -842 837 835 0
-57 -842 837 0
-57 842 -837 0
-58 -837 842 0
-58 -836 842 0
-58 -842 837 836 0
-59 -842 837 0
-59 842 -837 0
-60 -842 837 0
-60 -842 838 0
-60 842 -837 -838 0
-86 -842 837 0
-86 842 -837 0
-51 -843 838 0
-51 843 -838 0
-52 -843 838 0
-52 843 -838 0
-53 -843 838 0
-53 843 -838 0
-54 -838 843 0
-54 -834 843 0
-54 -843 838 834 0
-55 -843 838 0
-55 843 -838 0
-56 -843 838 0
-56 843 -838 0
-57 -838 843 0
-57 -835 843 0
-57 -843 838 835 0
-58 -843 838 0
-58 843 -838 0
-59 -838 843 0
-59 -836 843 0
-59 -843 838 836 0
-60 -838 843 0
-60 -837 843 0
-60 -843 838 837 0
-86 -843 838 0
-86 843 -838 0
-61 -844 839 0
-61 -844 840 0
-61 844 -839 -840 0
-62 -844 839 0
-62 -844 841 0
-62 844 -839 -841 0
-63 -844 839 0
-63 -844 842 0
-63 844 -839 -842 0
-64 -844 839 0
-64 -844 843 0
-64 844 -839 -843 0
-65 -844 839 0
-65 844 -839 0
-66 -844 839 0
-66 844 -839 0
-67 -844 839 0
-67 844 -839 0
-68 -844 839 0
-68 844 -839 0
-69 -844 839 0
-69 844 -839 0
-70 -844 839 0
-70 844 -839 0
-87 -844 839 0
-87 844 -839 0
-61 -840 845 0
-61 -839 845 0
-61 -845 840 839 0
-62 -845 840 0
-62 845 -840 0
-63 -845 840 0
-63 845 -840 0
-64 -845 840 0
-64 845 -840 0
-65 -845 840 0
-65 -845 841 0
-65 845 -840 -841 0
-66 -845 840 0
-66 -845 842 0
-66 845 -840 -842 0
-67 -845 840 0
-67 -845 843 0
-67 845 -840 -843 0
-68 -845 840 0
-68 845 -840 0
-69 -845 840 0
-69 845 -840 0
-70 -845 840 0
-70 845 -840 0
-87 -845 840 0
-87 845 -840 0
-61 -846 841 0
-61 846 -841 0
-62 -841 846 0
-62 -839 846 0
-62 -846 841 839 0
-63 -846 841 0
-63 846 -841 0
-64 -846 841 0
-64 846 -841 0
-65 -841 846 0
-65 -840 846 0
-65 -846 841 840 0
-66 -846 841 0
-66 846 -841 0
-67 -846 841 0
-67 846 -841 0
-68 -846 841 0
-68 -846 842 0
-68 846 -841 -842 0
-69 -846 841 0
-69 -846 843 0
-69 846 -841 -843 0
-70 -846 841 0
-70 846 -841 0
-87 -846 841 0
-87 846 -841 0
-61 -847 842 0
-61 847 -842 0
-62 -847 842 0
-62 847 -842 0
-63 -842 847 0
-63 -839 847 0
-63 -847 842 839 0
-64 -847 842 0
-64 847 -842 0
-65 -847 842 0
-65 847 -842 0
-66 -842 847 0
-66 -840 847 0
-66 -847 842 840 0
-67 -847 842 0
-67 847 -842 0
-68 -842 847 0
-68 -841 847 0
-68 -847 842 841 0
-69 -847 842 0
-69 847 -842 0
-70 -847 842 0
-70 -847 843 0
-70 847 -842 -843 0
-87 -847 842 0
-87 847 -842 0
-61 -848 843 0
-61 848 -843 0
-62 -848 843 0
-62 848 -843 0
-63 -848 843 0
-63 848 -843 0
-64 -843 848 0
-64 -839 848 0
-64 -848 843 839 0
-65 -848 843 0
-65 848 -843 0
-66 -848 843 0
-66 848 -843 0
-67 -843 848 0
-67 -840 848 0
-67 -848 843 840 0
-68 -848 843 0
-68 848 -843 0
-69 -843 848 0
-69 -841 848 0
-69 -848 843 841 0
-70 -843 848 0
-70 -842 848 0
-70 -848 843 842 0
-87 -848 843 0
-87 848 -843 0
-71 -849 844 0
-71 -849 845 0
-71 849 -844 -845 0
-72 -849 844 0
-72 -849 846 0
-72 849 -844 -846 0
-73 -849 844 0
-73 -849 847 0
-73 849 -844 -847 0
-74 -849 844 0
-74 -849 848 0
-74 849 -844 -848 0
-75 -849 844 0
-75 849 -844 0
-76 -849 844 0
-76 849 -844 0
-77 -849 844 0
-77 849 -844 0
-78 -849 844 0
-78 849 -844 0
-79 -849 844 0
-79 849 -844 0
-80 -849 844 0
-80 849 -844 0
-88 -849 844 0
-88 849 -844 0
-71 -845 850 0
-71 -844 850 0
-71 -850 845 844 0
-72 -850 845 0
-72 850 -845 0
-73 -850 845 0
-73 850 -845 0
-74 -850 845 0
-74 850 -845 0
-75 -850 845 0
-75 -850 846 0
-75 850 -845 -846 0
-76 -850 845 0
-76 -850 847 0
-76 850 -845 -847 0
-77 -850 845 0
-77 -850 848 0
-77 850 -845 -848 0
-78 -850 845 0
-78 850 -845 0
-79 -850 845 0
-79 850 -845 0
-80 -850 845 0
-80 850 -845 0
-88 -850 845 0
-88 850 -845 0
-71 -851 846 0
-71 851 -846 0
-72 -846 851 0
-72 -844 851 0
-72 -851 846 844 0
-73 -851 846 0
-73 851 -846 0
-74 -851 846 0
-74 851 -846 0
-75 -846 851 0
-75 -845 851 0
-75 -851 846 845 0
-76 -851 846 0
-76 851 -846 0
-77 -851 846 0
-77 851 -846 0
-78 -851 846 0
-78 -851 847 0
-78 851 -846 -847 0
-79 -851 846 0
-79 -851 848 0
-79 851 -846 -848 0
-80 -851 846 0
-80 851 -846 0
-88 -851 846 0
-88 851 -846 0
-71 -852 847 0
-71 852 -847 0
-72 -852 847 0
-72 852 -847 0
-73 -847 852 0
-73 -844 852 0
-73 -852 847 844 0
-74 -852 847 0
-74 852 -847 0
-75 -852 847 0
-75 852 -847 0
-76 -847 852 0
-76 -845 852 0
-76 -852 847 845 0
-77 -852 847 0
-77 852 -847 0
-78 -847 852 0
-78 -846 852 0
-78 -852 847 846 0
-79 -852 847 0
-79 852 -847 0
-80 -852 847 0
-80 -852 848 0
-80 852 -847 -848 0
-88 -852 847 0
-88 852 -847 0
-71 -853 848 0
-71 853 -848 0
-72 -853 848 0
-72 853 -848 0
-73 -853 848 0
-73 853 -848 0
-74 -848 853 0
-74 -844 853 0
-74 -853 848 844 0
-75 -853 848 0
-75 853 -848 0
-76 -853 848 0
-76 853 -848 0
-77 -848 853 0
-77 -845 853 0
-77 -853 848 845 0
-78 -853 848 0
-78 853 -848 0
-79 -848 853 0
-79 -846 853 0
-79 -853 848 846 0
-80 -848 853 0
-80 -847 853 0
-80 -853 848 847 0
-88 -853 848 0
-88 853 -848 0
854 0
-1 -859 854 0
-1 -859 855 0
-1 859 -854 -855 0
-2 -859 854 0
-2 -859 856 0
-2 859 -854 -856 0
-3 -859 854 0
-3 -859 857 0
-3 859 -854 -857 0
-4 -859 854 0
-4 -859 858 0
-4 859 -854 -858 0
-5 -859 854 0
-5 859 -854 0
-6 -859 854 0
-6 859 -854 0
-7 -859 854 0
-7 859 -854 0
-8 -859 854 0
-8 859 -854 0
-9 -859 854 0
-9 859 -854 0
-10 -859 854 0
-10 859 -854 0
-81 -859 854 0
-81 859 -854 0
-855 0
-1 -855 860 0
-1 -854 860 0
-1 -860 855 854 0
-2 -860 855 0
-2 860 -855 0
-3 -860 855 0
-3 860 -855 0
-4 -860 855 0
-4 860 -855 0
-5 -860 855 0
-5 -860 856 0
-5 860 -855 -856 0
-6 -860 855 0
-6 -860 857 0
-6 860 -855 -857 0
-7 -860 855 0
-7 -860 858 0
-7 860 -855 -858 0
-8 -860 855 0
-8 860 -855 0
-9 -860 855 0
-9 860 -855 0
-10 -860 855 0
-10 860 -855 0
-81 -860 855 0
-81 860 -855 0
856 0
-1 -861 856 0
-1 861 -856 0
-2 -856 861 0
-2 -854 861 0
-2 -861 856 854 0
-3 -861 856 0
-3 861 -856 0
-4 -861 856 0
-4 861 -856 0
-5 -856 861 0
-5 -855 861 0
-5 -861 856 855 0
-6 -861 856 0
-6 861 -856 0
-7 -861 856 0
-7 861 -856 0
-8 -861 856 0
-8 -861 857 0
-8 861 -856 -857 0
-9 -861 856 0
-9 -861 858 0
-9 861 -856 -858 0
-10 -861 856 0
-10 861 -856 0
-81 -861 856 0
-81 861 -856 0
857 0
-1 -862 857 0
-1 862 -857 0
-2 -862 857 0
-2 862 -857 0
-3 -857 862 0
-3 -854 862 0
-3 -862 857 854 0
-4 -862 857 0
-4 862 -857 0
-5 -862 857 0
-5 862 -857 0
-6 -857 862 0
-6 -855 862 0
-6 -862 857 855 0
-7 -862 857 0
-7 862 -857 0
-8 -857 862 0
-8 -856 862 0
-8 -862 857 856 0
-9 -862 857 0
-9 862 -857 0
-10 -862 857 0
-10 -862 858 0
-10 862 -857 -858 0
-81 -862 857 0
-81 862 -857 0
-858 0
-1 -863 858 0
-1 863 -858 0
-2 -863 858 0
-2 863 -858 0
-3 -863 858 0
-3 863 -858 0
-4 -858 863 0
-4 -854 863 0
-4 -863 858 854 0
-5 -863 858 0
-5 863 -858 0
-6 -863 858 0
-6 863 -858 0
-7 -858 863 0
-7 -855 863 0
-7 -863 858 855 0
-8 -863 858 0
-8 863 -858 0
-9 -858 863 0
-9 -856 863 0
-9 -863 858 856 0
-10 -858 863 0
-10 -857 863 0
-10 -863 858 857 0
-81 -863 858 0
-81 863 -858 0
-11 -864 859 0
-11 -864 860 0
-11 864 -859 -860 0
-12 -864 859 0
-12 -864 861 0
-12 864 -859 -861 0
-13 -864 859 0
-13 -864 862 0
-13 864 -859 -862 0
-14 -864 859 0
-14 -864 863 0
-14 864 -859 -863 0
-15 -864 859 0
-15 864 -859 0
-16 -864 859 0
-16 864 -859 0
-17 -864 859 0
-17 864 -859 0
-18 -864 859 0
-18 864 -859 0
-19 -864 859 0
-19 864 -859 0
-20 -864 859 0
-20 864 -859 0
-82 -864 859 0
-82 864 -859 0
-11 -860 865 0
-11 -859 865 0
-11 -865 860 859 0
-12 -865 860 0
-12 865 -860 0
-13 -865 860 0
-13 865 -860 0
-14 -865 860 0
-14 865 -860 0
-15 -865 860 0
-15 -865 861 0
-15 865 -860 -861 0
-16 -865 860 0
-16 -865 862 0
-16 865 -860 -862 0
-17 -865 860 0
-17 -865 863 0
-17 865 -860 -863 0
-18 -865 860 0
-18 865 -860 0
-19 -865 860 0
-19 865 -860 0
-20 -865 860 0
-20 865 -860 0
-82 -865 860 0
-82 865 -860 0
-11 -866 861 0
-11 866 -861 0
-12 -861 866 0
-12 -859 866 0
-12 -866 861 859 0
-13 -866 861 0
-13 866 -861 0
-14 -866 861 0
-14 866 -861 0
-15 -861 866 0
-15 -860 866 0
-15 -866 861 860 0
-16 -866 861 0
-16 866 -861 0
-17 -866 861 0
-17 866 -861 0
-18 -866 861 0
-18 -866 862 0
-18 866 -861 -862 0
-19 -866 861 0
-19 -866 863 0
-19 866 -861 -863 0
-20 -866 861 0
-20 866 -861 0
-82 -866 861 0
-82 866 -861 0
-11 -867 862 0
-11 867 -862 0
-12 -867 862 0
-12 867 -862 0
-13 -862 867 0
-13 -859 867 0
-13 -867 862 859 0
-14 -867 862 0
-14 867 -862 0
-15 -867 862 0
-15 867 -862 0
-16 -862 867 0
-16 -860 867 0
-16 -867 862 860 0
-17 -867 862 0
-17 867 -862 0
-18 -862 867 0
-18 -861 867 0
-18 -867 862 861 0
-19 -867 862 0
-19 867 -862 0
-20 -867 862 0
-20 -867 863 0
-20 867 -862 -863 0
-82 -867 862 0
-82 867 -862 0
-11 -868 863 0
-11 868 -863 0
-12 -868 863 0
-12 868 -863 0
-13 -868 863 0
-13 868 -863 0
-14 -863 868 0
-14 -859 868 0
-14 -868 863 859 0
-15 -868 863 0
-15 868 -863 0
-16 -868 863 0
-16 868 -863 0
-17 -863 868 0
-17 -860 868 0
-17 -868 863 860 0
-18 -868 863 0
-18 868 -863 0
-19 -863 868 0
-19 -861 868 0
-19 -868 863 861 0
-20 -863 868 0
-20 -862 868 0
-20 -868 863 862 0
-82 -868 863 0
-82 868 -863 0
-21 -869 864 0
-21 -869 865 0
-21 869 -864 -865 0
-22 -869 864 0
-22 -869 866 0
-22 869 -864 -866 0
-23 -869 864 0
-23 -869 867 0
-23 869 -864 -867 0
-24 -869 864 0
-24 -869 868 0
-24 869 -864 -868 0
-25 -869 864 0
-25 869 -864 0
-26 -869 864 0
-26 869 -864 0
-27 -869 864 0
-27 869 -864 0
-28 -869 864 0
-28 869 -864 0
-29 -869 864 0
-29 869 -864 0
-30 -869 864 0
-30 869 -864 0
-83 -869 864 0
-83 869 -864 0
-21 -865 870 0
-21 -864 870 0
-21 -870 865 864 0
-22 -870 865 0
-22 870 -865 0
-23 -870 865 0
-23 870 -865 0
-24 -870 865 0
-24 870 -865 0
-25 -870 865 0
-25 -870 866 0
-25 870 -865 -866 0
-26 -870 865 0
-26 -870 867 0
-26 870 -865 -867 0
-27 -870 865 0
-27 -870 868 0
-27 870 -865 -868 0
-28 -870 865 0
-28 870 -865 0
-29 -870 865 0
-29 870 -865 0
-30 -870 865 0
-30 870 -865 0
-83 -870 865 0
-83 870 -865 0
-21 -871 866 0
-21 871 -866 0
-22 -866 871 0
-22 -864 871 0
-22 -871 866 864 0
-23 -871 866 0
-23 871 -866 0
-24 -871 866 0
-24 871 -866 0
-25 -866 871 0
-25 -865 871 0
-25 -871 866 865 0
-26 -871 866 0
-26 871 -866 0
-27 -871 866 0
-27 871 -866 0
-28 -871 866 0
-28 -871 867 0
-28 871 -866 -867 0
-29 -871 866 0
-29 -871 868 0
-29 871 -866 -868 0
-30 -871 866 0
-30 871 -866 0
-83 -871 866 0
-83 871 -866 0
-21 -872 867 0
-21 872 -867 0
-22 -872 867 0
-22 872 -867 0
-23 -867 872 0
-23 -864 872 0
-23 -872 867 864 0
-24 -872 867 0
-24 872 -867 0
-25 -872 867 0
-25 872 -867 0
-26 -867 872 0
-26 -865 872 0
-26 -872 867 865 0
-27 -872 867 0
-27 872 -867 0
-28 -867 872 0
-28 -866 872 0
-28 -872 867 866 0
-29 -872 867 0
-29 872 -867 0
-30 -872 867 0
-30 -872 868 0
-30 872 -867 -868 0
-83 -872 867 0
-83 872 -867 0
-21 -873 868 0
-21 873 -868 0
-22 -873 868 0
-22 873 -868 0
-23 -873 868 0
-23 873 -868 0
-24 -868 873 0
-24 -864 873 0
-24 -873 868 864 0
-25 -873 868 0
-25 873 -868 0
-26 -873 868 0
-26 873 -868 0
-27 -868 873 0
-27 -865 873 0
-27 -873 868 865 0
-28 -873 868 0
-28 873 -868 0
-29 -868 873 0
-29 -866 873 0
-29 -873 868 866 0
-30 -868 873 0
-30 -867 873 0
-30 -873 868 867 0
-83 -873 868 0
-83 873 -868 0
-31 -874 869 0
-31 -874 870 0
-31 874 -869 -870 0
-32 -874 869 0
-32 -874 871 0
-32 874 -869 -871 0
-33 -874 869 0
-33 -874 872 0
-33 874 -869 -872 0
-34 -874 869 0
-34 -874 873 0
-34 874 -869 -873 0
-35 -874 869 0
-35 874 -869 0
-36 -874 869 0
-36 874 -869 0
-37 -874 869 0
-37 874 -869 0
-38 -874 869 0
-38 874 -869 0
-39 -874 869 0
-39 874 -869 0
-40 -874 869 0
-40 874 -869 0
-84 -874 869 0
-84 874 -869 0
-31 -870 875 0
-31 -869 875 0
-31 -875 870 869 0
-32 -875 870 0
-32 875 -870 0
-33 -875 870 0
-33 875 -870 0
-34 -875 870 0
-34 875 -870 0
-35 -875 870 0
-35 -875 871 0
-35 875 -870 -871 0
-36 -875 870 0
-36 -875 872 0
-36 875 -870 -872 0
-37 -875 870 0
-37 -875 873 0
-37 875 -870 -873 0
-38 -875 870 0
-38 875 -870 0
-39 -875 870 0
-39 875 -870 0
-40 -875 870 0
-40 875 -870 0
-84 -875 870 0
-84 875 -870 0
-31 -876 871 0
-31 876 -871 0
-32 -871 876 0
-32 -869 876 0
-32 -876 871 869 0
-33 -876 871 0
-33 876 -871 0
-34 -876 871 0
-34 876 -871 0
-35 -871 876 0
-35 -870 876 0
-35 -876 871 870 0
-36 -876 871 0
-36 876 -871 0
-37 -876 871 0
-37 876 -871 0
-38 -876 871 0
-38 -876 872 0
-38 876 -871 -872 0
-39 -876 871 0
-39 -876 873 0
-39 876 -871 -873 0
-40 -876 871 0
-40 876 -871 0
-84 -876 871 0
-84 876 -871 0
-31 -877 872 0
-31 877 -872 0
-32 -877 872 0
-32 877 -872 0
-33 -872 877 0
-33 -869 877 0
-33 -877 872 869 0
-34 -877 872 0
-34 877 -872 0
-35 -877 872 0
-35 877 -872 0
-36 -872 877 0
-36 -870 877 0
-36 -877 872 870 0
-37 -877 872 0
-37 877 -872 0
-38 -872 877 0
-38 -871 877 0
-38 -877 872 871 0
-39 -877 872 0
-39 877 -872 0
-40 -877 872 0
-40 -877 873 0
-40 877 -872 -873 0
-84 -877 872 0
-84 877 -872 0
-31 -878 873 0
-31 878 -873 0
-32 -878 873 0
-32 878 -873 0
-33 -878 873 0
-33 878 -873 0
-34 -873 878 0
-34 -869 878 0
-34 -878 873 869 0
-35 -878 873 0
-35 878 -873 0
-36 -878 873 0
-36 878 -873 0
-37 -873 878 0
-37 -870 878 0
-37 -878 873 870 0
-38 -878 873 0
-38 878 -873 0
-39 -873 878 0
-39 -871 878 0
-39 -878 873 871 0
-40 -873 878 0
-40 -872 878 0
-40 -878 873 872 0
-84 -878 873 0
-84 878 -873 0
-41 -879 874 0
-41 -879 875 0
-41 879 -874 -875 0
-42 -879 874 0
-42 -879 876 0
-42 879 -874 -876 0
-43 -879 874 0
-43 -879 877 0
-43 879 -874 -877 0
-44 -879 874 0
-44 -879 878 0
-44 879 -874 -878 0
-45 -879 874 0
-45 879 -874 0
-46 -879 874 0
-46 879 -874 0
-47 -879 874 0
-47 879 -874 0
-48 -879 874 0
-48 879 -874 0
-49 -879 874 0
-49 879 -874 0
-50 -879 874 0
-50 879 -874 0
-85 -879 874 0
-85 879 -874 0
-41 -875 880 0
-41 -874 880 0
-41 -880 875 874 0
-42 -880 875 0
-42 880 -875 0
-43 -880 875 0
-43 880 -875 0
-44 -880 875 0
-44 880 -875 0
-45 -880 875 0
-45 -880 876 0
-45 880 -875 -876 0
-46 -880 875 0
-46 -880 877 0
-46 880 -875 -877 0
-47 -880 875 0
-47 -880 878 0
-47 880 -875 -878 0
-48 -880 875 0
-48 880 -875 0
-49 -880 875 0
-49 880 -875 0
-50 -880 875 0
-50 880 -875 0
-85 -880 875 0
-85 880 -875 0
-41 -881 876 0
-41 881 -876 0
-42 -876 881 0
-42 -874 881 0
-42 -881 876 874 0
-43 -881 876 0
-43 881 -876 0
-44 -881 876 0
-44 881 -876 0
-45 -876 881 0
-45 -875 881 0
-45 -881 876 875 0
-46 -881 876 0
-46 881 -876 0
-47 -881 876 0
-47 881 -876 0
-48 -881 876 0
-48 -881 877 0
-48 881 -876 -877 0
-49 -881 876 0
-49 -881 878 0
-49 881 -876 -878 0
-50 -881 876 0
-50 881 -876 0
-85 -881 876 0
-85 881 -876 0
-41 -882 877 0
-41 882 -877 0
-42 -882 877 0
-42 882 -877 0
-43 -877 882 0
-43 -874 882 0
-43 -882 877 874 0
-44 -882 877 0
-44 882 -877 0
-45 -882 877 0
-45 882 -877 0
-46 -877 882 0
-46 -875 882 0
-46 -882 877 875 0
-47 -882 877 0
-47 882 -877 0
-48 -877 882 0
-48 -876 882 0
-48 -882 877 876 0
-49 -882 877 0
-49 882 -877 0
-50 -882 877 0
-50 -882 878 0
-50 882 -877 -878 0
-85 -882 877 0
-85 882 -877 0
-41 -883 878 0
-41 883 -878 0
-42 -883 878 0
-42 883 -878 0
-43 -883 878 0
-43 883 -878 0
-44 -878 883 0
-44 -874 883 0
-44 -883 878 874 0
-45 -883 878 0
-45 883 -878 0
-46 -883 878 0
-46 883 -878 0
-47 -878 883 0
-47 -875 883 0
-47 -883 878 875 0
-48 -883 878 0
-48 883 -878 0
-49 -878 883 0
-49 -876 883 0
-49 -883 878 876 0
-50 -878 883 0
-50 -877 883 0
-50 -883 878 877 0
-85 -883 878 0
-85 883 -878 0
-51 -884 879 0
-51 -884 880 0
-51 884 -879 -880 0
-52 -884 879 0
-52 -884 881 0
-52 884 -879 -881 0
-53 -884 879 0
-53 -884 882 0
-53 884 -879 -882 0
-54 -884 879 0
-54 -884 883 0
-54 884 -879 -883 0
-55 -884 879 0
-55 884 -879 0
-56 -884 879 0
-56 884 -879 0
-57 -884 879 0
-57 884 -879 0
-58 -884 879 0
-58 884 -879 0
-59 -884 879 0
-59 884 -879 0
-60 -884 879 0
-60 884 -879 0
-86 -884 879 0
-86 884 -879 0
-51 -880 885 0
-51 -879 885 0
-51 -885 880 879 0
-52 -885 880 0
-52 885 -880 0
-53 -885 880 0
-53 885 -880 0
-54 -885 880 0
-54 885 -880 0
-55 -885 880 0
-55 -885 881 0
-55 885 -880 -881 0
-56 -885 880 0
-56 -885 882 0
-56 885 -880 -882 0
-57 -885 880 0
-57 -885 883 0
-57 885 -880 -883 0
-58 -885 880 0
-58 885 -880 0
-59 -885 880 0
-59 885 -880 0
-60 -885 880 0
-60 885 -880 0
-86 -885 880 0
-86 885 -880 0
-51 -886 881 0
-51 886 -881 0
-52 -881 886 0
-52 -879 886 0
-52 -886 881 879 0
-53 -886 881 0
-53 886 -881 0
-54 -886 881 0
-54 886 -881 0
-55 -881 886 0
-55 -880 886 0
-55 -886 881 880 0
-56 -886 881 0
-56 886 -881 0
-57 -886 881 0
-57 886 -881 0
-58 -886 881 0
-58 -886 882 0
-58 886 -881 -882 0
-59 -886 881 0
-59 -886 883 0
-59 886 -881 -883 0
-60 -886 881 0
-60 886 -881 0
-86 -886 881 0
-86 886 -881 0
-51 -887 882 0
-51 887 -882 0
-52 -887 882 0
-52 887 -882 0
-53 -882 887 0
-53 -879 887 0
-53 -887 882 879 0
-54 -887 882 0
-54 887 -882 0
-55 -887 882 0
-55 887 -882 0
-56 -882 887 0
-56 -880 887 0
-56 -887 882 880 0
-57 -887 882 0
-57 887 -882 0
-58 -882 887 0
-58 -881 887 0
-58 -887 882 881 0
-59 -887 882 0
-59 887 -882 0
-60 -887 882 0
-60 -887 883 0
-60 887 -882 -883 0
-86 -887 882 0
-86 887 -882 0
-51 -888 883 0
-51 888 -883 0
-52 -888 883 0
-52 888 -883 0
-53 -888 883 0
-53 888 -883 0
-54 -883 888 0
-54 -879 888 0
-54 -888 883 879 0
-55 -888 883 0
-55 888 -883 0
-56 -888 883 0
-56 888 -883 0
-57 -883 888 0
-57 -880 888 0
-57 -888 883 880 0
-58 -888 883 0
-58 888 -883 0
-59 -883 888 0
-59 -881 888 0
-59 -888 883 881 0
-60 -883 888 0
-60 -882 888 0
-60 -888 883 882 0
-86 -888 883 0
-86 888 -883 0
-61 -889 884 0
-61 -889 885 0
-61 889 -884 -885 0
-62 -889 884 0
-62 -889 886 0
-62 889 -884 -886 0
-63 -889 884 0
-63 -889 887 0
-63 889 -884 -887 0
-64 -889 884 0
-64 -889 888 0
-64 889 -884 -888 0
-65 -889 884 0
-65 889 -884 0
-66 -889 884 0
-66 889 -884 0
-67 -889 884 0
-67 889 -884 0
-68 -889 884 0
-68 889 -884 0
-69 -889 884 0
-69 889 -884 0
-70 -889 884 0
-70 889 -884 0
-87 -889 884 0
-87 889 -884 0
-61 -885 890 0
-61 -884 890 0
-61 -890 885 884 0
-62 -890 885 0
-62 890 -885 0
-63 -890 885 0
-63 890 -885 0
-64 -890 885 0
-64 890 -885 0
-65 -890 885 0
-65 -890 886 0
-65 890 -885 -886 0
-66 -890 885 0
-66 -890 887 0
-66 890 -885 -887 0
-67 -890 885 0
-67 -890 888 0
-67 890 -885 -888 0
-68 -890 885 0
-68 890 -885 0
-69 -890 885 0
-69 890 -885 0
-70 -890 885 0
-70 890 -885 0
-87 -890 885 0
-87 890 -885 0
-61 -891 886 0
-61 891 -886 0
-62 -886 891 0
-62 -884 891 0
-62 -891 886 884 0
-63 -891 886 0
-63 891 -886 0
-64 -891 886 0
-64 891 -886 0
-65 -886 891 0
-65 -885 891 0
-65 -891 886 885 0
-66 -891 886 0
-66 891 -886 0
-67 -891 886 0
-67 891 -886 0
-68 -891 886 0
-68 -891 887 0
-68 891 -886 -887 0
-69 -891 886 0
-69 -891 888 0
-69 891 -886 -888 0
-70 -891 886 0
-70 891 -886 0
-87 -891 886 0
-87 891 -886 0
-61 -892 887 0
-61 892 -887 0
-62 -892 887 0
-62 892 -887 0
-63 -887 892 0
-63 -884 892 0
-63 -892 887 884 0
-64 -892 887 0
-64 892 -887 0
-65 -892 887 0
-65 892 -887 0
-66 -887 892 0
-66 -885 892 0
-66 -892 887 885 0
-67 -892 887 0
-67 892 -887 0
-68 -887 892 0
-68 -886 892 0
-68 -892 887 886 0
-69 -892 887 0
-69 892 -887 0
-70 -892 887 0
-70 -892 888 0
-70 892 -887 -888 0
-87 -892 887 0
-87 892 -887 0
-61 -893 888 0
-61 893 -888 0
-62 -893 888 0
-62 893 -888 0
-63 -893 888 0
-63 893 -888 0
-64 -888 893 0
-64 -884 893 0
-64 -893 888 884 0
-65 -893 888 0
-65 893 -888 0
-66 -893 888 0
-66 893 -888 0
-67 -888 893 0
-67 -885 893 0
-67 -893 888 885 0
-68 -893 888 0
-68 893 -888 0
-69 -888 893 0
-69 -886 893 0
-69 -893 888 886 0
-70 -888 893 0
-70 -887 893 0
-70 -893 888 887 0
-87 -893 888 0
-87 893 -888 0
-71 -894 889 0
-71 -894 890 0
-71 894 -889 -890 0
-72 -894 889 0
-72 -894 891 0
-72 894 -889 -891 0
-73 -894 889 0
-73 -894 892 0
-73 894 -889 -892 0
-74 -894 889 0
-74 -894 893 0
-74 894 -889 -893 0
-75 -894 889 0
-75 894 -889 0
-76 -894 889 0
-76 894 -889 0
-77 -894 889 0
-77 894 -889 0
-78 -894 889 0
-78 894 -889 0
-79 -894 889 0
-79 894 -889 0
-80 -894 889 0
-80 894 -889 0
-88 -894 889 0
-88 894 -889 0
-71 -890 895 0
-71 -889 895 0
-71 -895 890 889 0
-72 -895 890 0
-72 895 -890 0
-73 -895 890 0
-73 895 -890 0
-74 -895 890 0
-74 895 -890 0
-75 -895 890 0
-75 -895 891 0
-75 895 -890 -891 0
-76 -895 890 0
-76 -895 892 0
-76 895 -890 -892 0
-77 -895 890 0
-77 -895 893 0
-77 895 -890 -893 0
-78 -895 890 0
-78 895 -890 0
-79 -895 890 0
-79 895 -890 0
-80 -895 890 0
-80 895 -890 0
-88 -895 890 0
-88 895 -890 0
-71 -896 891 0
-71 896 -891 0
-72 -891 896 0
-72 -889 896 0
-72 -896 891 889 0
-73 -896 891 0
-73 896 -891 0
-74 -896 891 0
-74 896 -891 0
-75 -891 896 0
-75 -890 896 0
-75 -896 891 890 0
-76 -896 891 0
-76 896 -891 0
-77 -896 891 0
-77 896 -891 0
-78 -896 891 0
-78 -896 892 0
-78 896 -891 -892 0
-79 -896 891 0
-79 -896 893 0
-79 896 -891 -893 0
-80 -896 891 0
-80 896 -891 0
-88 -896 891 0
-88 896 -891 0
-71 -897 892 0
-71 897 -892 0
-72 -897 892 0
-72 897 -892 0
-73 -892 897 0
-73 -889 897 0
-73 -897 892 889 0
-74 -897 892 0
-74 897 -892 0
-75 -897 892 0
-75 897 -892 0
-76 -892 897 0
-76 -890 897 0
-76 -897 892 890 0
-77 -897 892 0
-77 897 -892 0
-78 -892 897 0
-78 -891 897 0
-78 -897 892 891 0
-79 -897 892 0
-79 897 -892 0
-80 -897 892 0
-80 -897 893 0
-80 897 -892 -893 0
-88 -897 892 0
-88 897 -892 0
-71 -898 893 0
-71 898 -893 0
-72 -898 893 0
-72 898 -893 0
-73 -898 893 0
-73 898 -893 0
-74 -893 898 0
-74 -889 898 0
-74 -898 893 889 0
-75 -898 893 0
-75 898 -893 0
-76 -898 893 0
-76 898 -893 0
-77 -893 898 0
-77 -890 898 0
-77 -898 893 890 0
-78 -898 893 0
-78 898 -893 0
-79 -893 898 0
-79 -891 898 0
-79 -898 893 891 0
-80 -893 898 0
-80 -892 898 0
-80 -898 893 892 0
-88 -898 893 0
-88 898 -893 0
899 0
-1 -904 899 0
-1 -904 900 0
-1 904 -899 -900 0
-2 -904 899 0
-2 -904 901 0
-2 904 -899 -901 0
-3 -904 899 0
-3 -904 902 0
-3 904 -899 -902 0
-4 -904 899 0
-4 -904 903 0
-4 904 -899 -903 0
-5 -904 899 0
-5 904 -899 0
-6 -904 899 0
-6 904 -899 0
-7 -904 899 0
-7 904 -899 0
-8 -904 899 0
-8 904 -899 0
-9 -904 899 0
-9 904 -899 0
-10 -904 899 0
-10 904 -899 0
-81 -904 899 0
-81 904 -899 0
-900 0
-1 -900 905 0
-1 -899 905 0
-1 -905 900 899 0
-2 -905 900 0
-2 905 -900 0
-3 -905 900 0
-3 905 -900 0
-4 -905 900 0
-4 905 -900 0
-5 -905 900 0
-5 -905 901 0
-5 905 -900 -901 0
-6 -905 900 0
-6 -905 902 0
-6 905 -900 -902 0
-7 -905 900 0
-7 -905 903 0
-7 905 -900 -903 0
-8 -905 900 0
-8 905 -900 0
-9 -905 900 0
-9 905 -900 0
-10 -905 900 0
-10 905 -900 0
-81 -905 900 0
-81 905 -900 0
901 0
-1 -906 901 0
-1 906 -901 0
-2 -901 906 0
-2 -899 906 0
-2 -906 901 899 0
-3 -906 901 0
-3 906 -901 0
-4 -906 901 0
-4 906 -901 0
-5 -901 906 0
-5 -900 906 0
-5 -906 901 900 0
-6 -906 901 0
-6 906 -901 0
-7 -906 901 0
-7 906 -901 0
-8 -906 901 0
-8 -906 902 0
-8 906 -901 -902 0
-9 -906 901 0
-9 -906 903 0
-9 906 -901 -903 0
-10 -906 901 0
-10 906 -901 0
-81 -906 901 0
-81 906 -901 0
902 0
-1 -907 902 0
-1 907 -902 0
-2 -907 902 0
-2 907 -902 0
-3 -902 907 0
-3 -899 907 0
-3 -907 902 899 0
-4 -907 902 0
-4 907 -902 0
-5 -907 902 0
-5 907 -902 0
-6 -902 907 0
-6 -900 907 0
-6 -907 902 900 0
-7 -907 902 0
-7 907 -902 0
-8 -902 907 0
-8 -901 907 0
-8 -907 902 901 0
-9 -907 902 0
-9 907 -902 0
-10 -907 902 0
-10 -907 903 0
-10 907 -902 -903 0
-81 -907 902 0
-81 907 -902 0
903 0
-1 -908 903 0
-1 908 -903 0
-2 -908 903 0
-2 908 -903 0
-3 -908 903 0
-3 908 -903 0
-4 -903 908 0
-4 -899 908 0
-4 -908 903 899 0
-5 -908 903 0
-5 908 -903 0
-6 -908 903 0
-6 908 -903 0
-7 -903 908 0
-7 -900 908 0
-7 -908 903 900 0
-8 -908 903 0
-8 908 -903 0
-9 -903 908 0
-9 -901 908 0
-9 -908 903 901 0
-10 -903 908 0
-10 -902 908 0
-10 -908 903 902 0
-81 -908 903 0
-81 908 -903 0
-11 -909 904 0
-11 -909 905 0
-11 909 -904 -905 0
-12 -909 904 0
-12 -909 906 0
-12 909 -904 -906 0
-13 -909 904 0
-13 -909 907 0
-13 909 -904 -907 0
-14 -909 904 0
-14 -909 908 0
-14 909 -904 -908 0
-15 -909 904 0
-15 909 -904 0
-16 -909 904 0
-16 909 -904 0
-17 -909 904 0
-17 909 -904 0
-18 -909 904 0
-18 909 -904 0
-19 -909 904 0
-19 909 -904 0
-20 -909 904 0
-20 909 -904 0
-82 -909 904 0
-82 909 -904 0
-11 -905 910 0
-11 -904 910 0
-11 -910 905 904 0
-12 -910 905 0
-12 910 -905 0
-13 -910 905 0
-13 910 -905 0
-14 -910 905 0
-14 910 -905 0
-15 -910 905 0
-15 -910 906 0
-15 910 -905 -906 0
-16 -910 905 0
-16 -910 907 0
-16 910 -905 -907 0
-17 -910 905 0
-17 -910 908 0
-17 910 -905 -908 0
-18 -910 905 0
-18 910 -905 0
-19 -910 905 0
-19 910 -905 0
-20 -910 905 0
-20 910 -905 0
-82 -910 905 0
-82 910 -905 0
-11 -911 906 0
-11 911 -906 0
-12 -906 911 0
-12 -904 911 0
-12 -911 906 904 0
-13 -911 906 0
-13 911 -906 0
-14 -911 906 0
-14 911 -906 0
-15 -906 911 0
-15 -905 911 0
-15 -911 906 905 0
-16 -911 906 0
-16 911 -906 0
-17 -911 906 0
-17 911 -906 0
-18 -911 906 0
-18 -911 907 0
-18 911 -906 -907 0
-19 -911 906 0
-19 -911 908 0
-19 911 -906 -908 0
-20 -911 906 0
-20 911 -906 0
-82 -911 906 0
-82 911 -906 0
-11 -912 907 0
-11 912 -907 0
-12 -912 907 0
-12 912 -907 0
-13 -907 912 0
-13 -904 912 0
-13 -912 907 904 0
-14 -912 907 0
-14 912 -907 0
-15 -912 907 0
-15 912 -907 0
-16 -907 912 0
-16 -905 912 0
-16 -912 907 905 0
-17 -912 907 0
-17 912 -907 0
-18 -907 912 0
-18 -906 912 0
-18 -912 907 906 0
-19 -912 907 0
-19 912 -907 0
-20 -912 907 0
-20 -912 908 0
-20 912 -907 -908 0
-82 -912 907 0
-82 912 -907 0
-11 -913 908 0
-11 913 -908 0
-12 -913 908 0
-12 913 -908 0
-13 -913 908 0
-13 913 -908 0
-14 -908 913 0
-14 -904 913 0
-14 -913 908 904 0
-15 -913 908 0
-15 913 -908 0
-16 -913 908 0
-16 913 -908 0
-17 -908 913 0
-17 -905 913 0
-17 -913 908 905 0
-18 -913 908 0
-18 913 -908 0
-19 -908 913 0
-19 -906 913 0
-19 -913 908 906 0
-20 -908 913 0
-20 -907 913 0
-20 -913 908 907 0
-82 -913 908 0
-82 913 -908 0
-21 -914 909 0
-21 -914 910 0
-21 914 -909 -910 0
-22 -914 909 0
-22 -914 911 0
-22 914 -909 -911 0
-23 -914 909 0
-23 -914 912 0
-23 914 -909 -912 0
-24 -914 909 0
-24 -914 913 0
-24 914 -909 -913 0
-25 -914 909 0
-25 914 -909 0
-26 -914 909 0
-26 914 -909 0
-27 -914 909 0
-27 914 -909 0
-28 -914 909 0
-28 914 -909 0
-29 -914 909 0
-29 914 -909 0
-30 -914 909 0
-30 914 -909 0
-83 -914 909 0
-83 914 -909 0
-21 -910 915 0
-21 -909 915 0
-21 -915 910 909 0
-22 -915 910 0
-22 915 -910 0
-23 -915 910 0
-23 915 -910 0
-24 -915 910 0
-24 915 -910 0
-25 -915 910 0
-25 -915 911 0
-25 915 -910 -911 0
-26 -915 910 0
-26 -915 912 0
-26 915 -910 -912 0
-27 -915 910 0
-27 -915 913 0
-27 915 -910 -913 0
-28 -915 910 0
-28 915 -910 0
-29 -915 910 0
-29 915 -910 0
-30 -915 910 0
-30 915 -910 0
-83 -915 910 0
-83 915 -910 0
-21 -916 911 0
-21 916 -911 0
-22 -911 916 0
-22 -909 916 0
-22 -916 911 909 0
-23 -916 911 0
-23 916 -911 0
-24 -916 911 0
-24 916 -911 0
-25 -911 916 0
-25 -910 916 0
-25 -916 911 910 0
-26 -916 911 0
-26 916 -911 0
-27 -916 911 0
-27 916 -911 0
-28 -916 911 0
-28 -916 912 0
-28 916 -911 -912 0
-29 -916 911 0
-29 -916 913 0
-29 916 -911 -913 0
-30 -916 911 0
-30 916 -911 0
-83 -916 911 0
-83 916 -911 0
-21 -917 912 0
-21 917 -912 0
-22 -917 912 0
-22 917 -912 0
-23 -912 917 0
-23 -909 917 0
-23 -917 912 909 0
-24 -917 912 0
-24 917 -912 0
-25 -917 912 0
-25 917 -912 0
-26 -912 917 0
-26 -910 917 0
-26 -917 912 910 0
-27 -917 912 0
-27 917 -912 0
-28 -912 917 0
-28 -911 917 0
-28 -917 912 911 0
-29 -917 912 0
-29 917 -912 0
-30 -917 912 0
-30 -917 913 0
-30 917 -912 -913 0
-83 -917 912 0
-83 917 -912 0
-21 -918 913 0
-21 918 -913 0
-22 -918 913 0
-22 918 -913 0
-23 -918 913 0
-23 918 -913 0
-24 -913 918 0
-24 -909 918 0
-24 -918 913 909 0
-25 -918 913 0
-25 918 -913 0
-26 -918 913 0
-26 918 -913 0
-27 -913 918 0
-27 -910 918 0
-27 -918 913 910 0
-28 -918 913 0
-28 918 -913 0
-29 -913 918 0
-29 -911 918 0
-29 -918 913 911 0
-30 -913 918 0
-30 -912 918 0
-30 -918 913 912 0
-83 -918 913 0
-83 918 -913 0
-31 -919 914 0
-31 -919 915 0
-31 919 -914 -915 0
-32 -919 914 0
-32 -919 916 0
-32 919 -914 -916 0
-33 -919 914 0
-33 -919 917 0
-33 919 -914 -917 0
-34 -919 914 0
-34 -919 918 0
-34 919 -914 -918 0
-35 -919 914 0
-35 919 -914 0
-36 -919 914 0
-36 919 -914 0
-37 -919 914 0
-37 919 -914 0
-38 -919 914 0
-38 919 -914 0
-39 -919 914 0
-39 919 -914 0
-40 -919 914 0
-40 919 -914 0
-84 -919 914 0
-84 919 -914 0
-31 -915 920 0
-31 -914 920 0
-31 -920 915 914 0
-32 -920 915 0
-32 920 -915 0
-33 -920 915 0
-33 920 -915 0
-34 -920 915 0
-34 920 -915 0
-35 -920 915 0
-35 -920 916 0
-35 920 -915 -916 0
-36 -920 915 0
-36 -920 917 0
-36 920 -915 -917 0
-37 -920 915 0
-37 -920 918 0
-37 920 -915 -918 0
-38 -920 915 0
-38 920 -915 0
-39 -920 915 0
-39 920 -915 0
-40 -920 915 0
-40 920 -915 0
-84 -920 915 0
-84 920 -915 0
-31 -921 916 0
-31 921 -916 0
-32 -916 921 0
-32 -914 921 0
-32 -921 916 914 0
-33 -921 916 0
-33 921 -916 0
-34 -921 916 0
-34 921 -916 0
-35 -916 921 0
-35 -915 921 0
-35 -921 916 915 0
-36 -921 916 0
-36 921 -916 0
-37 -921 916 0
-37 921 -916 0
-38 -921 916 0
-38 -921 917 0
-38 921 -916 -917 0
-39 -921 916 0
-39 -921 918 0
-39 921 -916 -918 0
-40 -921 916 0
-40 921 -916 0
-84 -921 916 0
-84 921 -916 0
-31 -922 917 0
-31 922 -917 0
-32 -922 917 0
-32 922 -917 0
-33 -917 922 0
-33 -914 922 0
-33 -922 917 914 0
-34 -922 917 0
-34 922 -917 0
-35 -922 917 0
-35 922 -917 0
-36 -917 922 0
-36 -915 922 0
-36 -922 917 915 0
-37 -922 917 0
-37 922 -917 0
-38 -917 922 0
-38 -916 922 0
-38 -922 917 916 0
-39 -922 917 0
-39 922 -917 0
-40 -922 917 0
-40 -922 918 0
-40 922 -917 -918 0
-84 -922 917 0
-84 922 -917 0
-31 -923 918 0
-31 923 -918 0
-32 -923 918 0
-32 923 -918 0
-33 -923 918 0
-33 923 -918 0
-34 -918 923 0
-34 -914 923 0
-34 -923 918 914 0
-35 -923 918 0
-35 923 -918 0
-36 -923 918 0
-36 923 -918 0
-37 -918 923 0
-37 -915 923 0
-37 -923 918 915 0
-38 -923 918 0
-38 923 -918 0
-39 -918 923 0
-39 -916 923 0
-39 -923 918 916 0
-40 -918 923 0
-40 -917 923 0
-40 -923 918 917 0
-84 -923 918 0
-84 923 -918 0
-41 -924 919 0
-41 -924 920 0
-41 924 -919 -920 0
-42 -924 919 0
-42 -924 921 0
-42 924 -919 -921 0
-43 -924 919 0
-43 -924 922 0
-43 924 -919 -922 0
-44 -924 919 0
-44 -924 923 0
-44 924 -919 -923 0
-45 -924 919 0
-45 924 -919 0
-46 -924 919 0
-46 924 -919 0
-47 -924 919 0
-47 924 -919 0
-48 -924 919 0
-48 924 -919 0
-49 -924 919 0
-49 924 -919 0
-50 -924 919 0
-50 924 -919 0
-85 -924 919 0
-85 924 -919 0
-41 -920 925 0
-41 -919 925 0
-41 -925 920 919 0
-42 -925 920 0
-42 925 -920 0
-43 -925 920 0
-43 925 -920 0
-44 -925 920 0
-44 925 -920 0
-45 -925 920 0
-45 -925 921 0
-45 925 -920 -921 0
-46 -925 920 0
-46 -925 922 0
-46 925 -920 -922 0
-47 -925 920 0
-47 -925 923 0
-47 925 -920 -923 0
-48 -925 920 0
-48 925 -920 0
-49 -925 920 0
-49 925 -920 0
-50 -925 920 0
-50 925 -920 0
-85 -925 920 0
-85 925 -920 0
-41 -926 921 0
-41 926 -921 0
-42 -921 926 0
-42 -919 926 0
-42 -926 921 919 0
-43 -926 921 0
-43 926 -921 0
-44 -926 921 0
-44 926 -921 0
-45 -921 926 0
-45 -920 926 0
-45 -926 921 920 0
-46 -926 921 0
-46 926 -921 0
-47 -926 921 0
-47 926 -921 0
-48 -926 921 0
-48 -926 922 0
-48 926 -921 -922 0
-49 -926 921 0
-49 -926 923 0
-49 926 -921 -923 0
-50 -926 921 0
-50 926 -921 0
-85 -926 921 0
-85 926 -921 0
-41 -927 922 0
-41 927 -922 0
-42 -927 922 0
-42 927 -922 0
-43 -922 927 0
-43 -919 927 0
-43 -927 922 919 0
-44 -927 922 0
-44 927 -922 0
-45 -927 922 0
-45 927 -922 0
-46 -922 927 0
-46 -920 927 0
-46 -927 922 920 0
-47 -927 922 0
-47 927 -922 0
-48 -922 927 0
-48 -921 927 0
-48 -927 922 921 0
-49 -927 922 0
-49 927 -922 0
-50 -927 922 0
-50 -927 923 0
-50 927 -922 -923 0
-85 -927 922 0
-85 927 -922 0
-41 -928 923 0
-41 928 -923 0
-42 -928 923 0
-42 928 -923 0
-43 -928 923 0
-43 928 -923 0
-44 -923 928 0
-44 -919 928 0
-44 -928 923 919 0
-45 -928 923 0
-45 928 -923 0
-46 -928 923 0
-46 928 -923 0
-47 -923 928 0
-47 -920 928 0
-47 -928 923 920 0
-48 -928 923 0
-48 928 -923 0
-49 -923 928 0
-49 -921 928 0
-49 -928 923 921 0
-50 -923 928 0
-50 -922 928 0
-50 -928 923 922 0
-85 -928 923 0
-85 928 -923 0
-51 -929 924 0
-51 -929 925 0
-51 929 -924 -925 0
-52 -929 924 0
-52 -929 926 0
-52 929 -924 -926 0
-53 -929 924 0
-53 -929 927 0
-53 929 -924 -927 0
-54 -929 924 0
-54 -929 928 0
-54 929 -924 -928 0
-55 -929 924 0
-55 929 -924 0
-56 -929 924 0
-56 929 -924 0
-57 -929 924 0
-57 929 -924 0
-58 -929 924 0
-58 929 -924 0
-59 -929 924 0
-59 929 -924 0
-60 -929 924 0
-60 929 -924 0
-86 -929 924 0
-86 929 -924 0
-51 -925 930 0
-51 -924 930 0
-51 -930 925 924 0
-52 -930 925 0
-52 930 -925 0
-53 -930 925 0
-53 930 -925 0
-54 -930 925 0
-54 930 -925 0
-55 -930 925 0
-55 -930 926 0
-55 930 -925 -926 0
-56 -930 925 0
-56 -930 927 0
-56 930 -925 -927 0
-57 -930 925 0
-57 -930 928 0
-57 930 -925 -928 0
-58 -930 925 0
-58 930 -925 0
-59 -930 925 0
-59 930 -925 0
-60 -930 925 0
-60 930 -925 0
-86 -930 925 0
-86 930 -925 0
-51 -931 926 0
-51 931 -926 0
-52 -926 931 0
-52 -924 931 0
-52 -931 926 924 0
-53 -931 926 0
-53 931 -926 0
-54 -931 926 0
-54 931 -926 0
-55 -926 931 0
-55 -925 931 0
-55 -931 926 925 0
-56 -931 926 0
-56 931 -926 0
-57 -931 926 0
-57 931 -926 0
-58 -931 926 0
-58 -931 927 0
-58 931 -926 -927 0
-59 -931 926 0
-59 -931 928 0
-59 931 -926 -928 0
-60 -931 926 0
-60 931 -926 0
-86 -931 926 0
-86 931 -926 0
-51 -932 927 0
-51 932 -927 0
-52 -932 927 0
-52 932 -927 0
-53 -927 932 0
-53 -924 932 0
-53 -932 927 924 0
-54 -932 927 0
-54 932 -927 0
-55 -932 927 0
-55 932 -927 0
-56 -927 932 0
-56 -925 932 0
-56 -932 927 925 0
-57 -932 927 0
-57 932 -927 0
-58 -927 932 0
-58 -926 932 0
-58 -932 927 926 0
-59 -932 927 0
-59 932 -927 0
-60 -932 927 0
-60 -932 928 0
-60 932 -927 -928 0
-86 -932 927 0
-86 932 -927 0
-51 -933 928 0
-51 933 -928 0
-52 -933 928 0
-52 933 -928 0
-53 -933 928 0
-53 933 -928 0
-54 -928 933 0
-54 -924 933 0
-54 -933 928 924 0
-55 -933 928 0
-55 933 -928 0
-56 -933 928 0
-56 933 -928 0
-57 -928 933 0
-57 -925 933 0
-57 -933 928 925 0
-58 -933 928 0
-58 933 -928 0
-59 -928 933 0
-59 -926 933 0
-59 -933 928 926 0
-60 -928 933 0
-60 -927 933 0
-60 -933 928 927 0
-86 -933 928 0
-86 933 -928 0
-61 -934 929 0
-61 -934 930 0
-61 934 -929 -930 0
-62 -934 929 0
-62 -934 931 0
-62 934 -929 -931 0
-63 -934 929 0
-63 -934 932 0
-63 934 -929 -932 0
-64 -934 929 0
-64 -934 933 0
-64 934 -929 -933 0
-65 -934 929 0
-65 934 -929 0
-66 -934 929 0
-66 934 -929 0
-67 -934 929 0
-67 934 -929 0
-68 -934 929 0
-68 934 -929 0
-69 -934 929 0
-69 934 -929 0
-70 -934 929 0
-70 934 -929 0
-87 -934 929 0
-87 934 -929 0
-61 -930 935 0
-61 -929 935 0
-61 -935 930 929 0
-62 -935 930 0
-62 935 -930 0
-63 -935 930 0
-63 935 -930 0
-64 -935 930 0
-64 935 -930 0
-65 -935 930 0
-65 -935 931 0
-65 935 -930 -931 0
-66 -935 930 0
-66 -935 932 0
-66 935 -930 -932 0
-67 -935 930 0
-67 -935 933 0
-67 935 -930 -933 0
-68 -935 930 0
-68 935 -930 0
-69 -935 930 0
-69 935 -930 0
-70 -935 930 0
-70 935 -930 0
-87 -935 930 0
-87 935 -930 0
-61 -936 931 0
-61 936 -931 0
-62 -931 936 0
-62 -929 936 0
-62 -936 931 929 0
-63 -936 931 0
-63 936 -931 0
-64 -936 931 0
-64 936 -931 0
-65 -931 936 0
-65 -930 936 0
-65 -936 931 930 0
-66 -936 931 0
-66 936 -931 0
-67 -936 931 0
-67 936 -931 0
-68 -936 931 0
-68 -936 932 0
-68 936 -931 -932 0
-69 -936 931 0
-69 -936 933 0
-69 936 -931 -933 0
-70 -936 931 0
-70 936 -931 0
-87 -936 931 0
-87 936 -931 0
-61 -937 932 0
-61 937 -932 0
-62 -937 932 0
-62 937 -932 0
-63 -932 937 0
-63 -929 937 0
-63 -937 932 929 0
-64 -937 932 0
-64 937 -932 0
-65 -937 932 0
-65 937 -932 0
-66 -932 937 0
-66 -930 937 0
-66 -937 932 930 0
-67 -937 932 0
-67 937 -932 0
-68 -932 937 0
-68 -931 937 0
-68 -937 932 931 0
-69 -937 932 0
-69 937 -932 0
-70 -937 932 0
-70 -937 933 0
-70 937 -932 -933 0
-87 -937 932 0
-87 937 -932 0
-61 -938 933 0
-61 938 -933 0
-62 -938 933 0
-62 938 -933 0
-63 -938 933 0
-63 938 -933 0
-64 -933 938 0
-64 -929 938 0
-64 -938 933 929 0
-65 -938 933 0
-65 938 -933 0
-66 -938 933 0
-66 938 -933 0
-67 -933 938 0
-67 -930 938 0
-67 -938 933 930 0
-68 -938 933 0
-68 938 -933 0
-69 -933 938 0
-69 -931 938 0
-69 -938 933 931 0
-70 -933 938 0
-70 -932 938 0
-70 -938 933 932 0
-87 -938 933 0
-87 938 -933 0
-71 -939 934 0
-71 -939 935 0
-71 939 -934 -935 0
-72 -939 934 0
-72 -939 936 0
-72 939 -934 -936 0
-73 -939 934 0
-73 -939 937 0
-73 939 -934 -937 0
-74 -939 934 0
-74 -939 938 0
-74 939 -934 -938 0
-75 -939 934 0
-75 939 -934 0
-76 -939 934 0
-76 939 -934 0
-77 -939 934 0
-77 939 -934 0
-78 -939 934 0
-78 939 -934 0
-79 -939 934 0
-79 939 -934 0
-80 -939 934 0
-80 939 -934 0
-88 -939 934 0
-88 939 -934 0
-71 -935 940 0
-71 -934 940 0
-71 -940 935 934 0
-72 -940 935 0
-72 940 -935 0
-73 -940 935 0
-73 940 -935 0
-74 -940 935 0
-74 940 -935 0
-75 -940 935 0
-75 -940 936 0
-75 940 -935 -936 0
-76 -940 935 0
-76 -940 937 0
-76 940 -935 -937 0
-77 -940 935 0
-77 -940 938 0
-77 940 -935 -938 0
-78 -940 935 0
-78 940 -935 0
-79 -940 935 0
-79 940 -935 0
-80 -940 935 0
-80 940 -935 0
-88 -940 935 0
-88 940 -935 0
-71 -941 936 0
-71 941 -936 0
-72 -936 941 0
-72 -934 941 0
-72 -941 936 934 0
-73 -941 936 0
-73 941 -936 0
-74 -941 936 0
-74 941 -936 0
-75 -936 941 0
-75 -935 941 0
-75 -941 936 935 0
-76 -941 936 0
-76 941 -936 0
-77 -941 936 0
-77 941 -936 0
-78 -941 936 0
-78 -941 937 0
-78 941 -936 -937 0
-79 -941 936 0
-79 -941 938 0
-79 941 -936 -938 0
-80 -941 936 0
-80 941 -936 0
-88 -941 936 0
-88 941 -936 0
-71 -942 937 0
-71 942 -937 0
-72 -942 937 0
-72 942 -937 0
-73 -937 942 0
-73 -934 942 0
-73 -942 937 934 0
-74 -942 937 0
-74 942 -937 0
-75 -942 937 0
-75 942 -937 0
-76 -937 942 0
-76 -935 942 0
-76 -942 937 935 0
-77 -942 937 0
-77 942 -937 0
-78 -937 942 0
-78 -936 942 0
-78 -942 937 936 0
-79 -942 937 0
-79 942 -937 0
-80 -942 937 0
-80 -942 938 0
-80 942 -937 -938 0
-88 -942 937 0
-88 942 -937 0
-71 -943 938 0
-71 943 -938 0
-72 -943 938 0
-72 943 -938 0
-73 -943 938 0
-73 943 -938 0
-74 -938 943 0
-74 -934 943 0
-74 -943 938 934 0
-75 -943 938 0
-75 943 -938 0
-76 -943 938 0
-76 943 -938 0
-77 -938 943 0
-77 -935 943 0
-77 -943 938 935 0
-78 -943 938 0
-78 943 -938 0
-79 -938 943 0
-79 -936 943 0
-79 -943 938 936 0
-80 -938 943 0
-80 -937 943 0
-80 -943 938 937 0
-88 -943 938 0
-88 943 -938 0
944 0
-1 -949 944 0
-1 -949 945 0
-1 949 -944 -945 0
-2 -949 944 0
-2 -949 946 0
-2 949 -944 -946 0
-3 -949 944 0
-3 -949 947 0
-3 949 -944 -947 0
-4 -949 944 0
-4 -949 948 0
-4 949 -944 -948 0
-5 -949 944 0
-5 949 -944 0
-6 -949 944 0
-6 949 -944 0
-7 -949 944 0
-7 949 -944 0
-8 -949 944 0
-8 949 -944 0
-9 -949 944 0
-9 949 -944 0
-10 -949 944 0
-10 949 -944 0
-81 -949 944 0
-81 949 -944 0
945 0
-1 -945 950 0
-1 -944 950 0
-1 -950 945 944 0
-2 -950 945 0
-2 950 -945 0
-3 -950 945 0
-3 950 -945 0
-4 -950 945 0
-4 950 -945 0
-5 -950 945 0
-5 -950 946 0
-5 950 -945 -946 0
-6 -950 945 0
-6 -950 947 0
-6 950 -945 -947 0
-7 -950 945 0
-7 -950 948 0
-7 950 -945 -948 0
-8 -950 945 0
-8 950 -945 0
-9 -950 945 0
-9 950 -945 0
-10 -950 945 0
-10 950 -945 0
-81 -950 945 0
-81 950 -945 0
-946 0
-1 -951 946 0
-1 951 -946 0
-2 -946 951 0
-2 -944 951 0
-2 -951 946 944 0
-3 -951 946 0
-3 951 -946 0
-4 -951 946 0
-4 951 -946 0
-5 -946 951 0
-5 -945 951 0
-5 -951 946 945 0
-6 -951 946 0
-6 951 -946 0
-7 -951 946 0
-7 951 -946 0
-8 -951 946 0
-8 -951 947 0
-8 951 -946 -947 0
-9 -951 946 0
-9 -951 948 0
-9 951 -946 -948 0
-10 -951 946 0
-10 951 -946 0
-81 -951 946 0
-81 951 -946 0
-947 0
-1 -952 947 0
-1 952 -947 0
-2 -952 947 0
-2 952 -947 0
-3 -947 952 0
-3 -944 952 0
-3 -952 947 944 0
-4 -952 947 0
-4 952 -947 0
-5 -952 947 0
-5 952 -947 0
-6 -947 952 0
-6 -945 952 0
-6 -952 947 945 0
-7 -952 947 0
-7 952 -947 0
-8 -947 952 0
-8 -946 952 0
-8 -952 947 946 0
-9 -952 947 0
-9 952 -947 0
-10 -952 947 0
-10 -952 948 0
-10 952 -947 -948 0
-81 -952 947 0
-81 952 -947 0
-948 0
-1 -953 948 0
-1 953 -948 0
-2 -953 948 0
-2 953 -948 0
-3 -953 948 0
-3 953 -948 0
-4 -948 953 0
-4 -944 953 0
-4 -953 948 944 0
-5 -953 948 0
-5 953 -948 0
-6 -953 948 0
-6 953 -948 0
-7 -948 953 0
-7 -945 953 0
-7 -953 948 945 0
-8 -953 948 0
-8 953 -948 0
-9 -948 953 0
-9 -946 953 0
-9 -953 948 946 0
-10 -948 953 0
-10 -947 953 0
-10 -953 948 947 0
-81 -953 948 0
-81 953 -948 0
-11 -954 949 0
-11 -954 950 0
-11 954 -949 -950 0
-12 -954 949 0
-12 -954 951 0
-12 954 -949 -951 0
-13 -954 949 0
-13 -954 952 0
-13 954 -949 -952 0
-14 -954 949 0
-14 -954 953 0
-14 954 -949 -953 0
-15 -954 949 0
-15 954 -949 0
-16 -954 949 0
-16 954 -949 0
-17 -954 949 0
-17 954 -949 0
-18 -954 949 0
-18 954 -949 0
-19 -954 949 0
-19 954 -949 0
-20 -954 949 0
-20 954 -949 0
-82 -954 949 0
-82 954 -949 0
-11 -950 955 0
-11 -949 955 0
-11 -955 950 949 0
-12 -955 950 0
-12 955 -950 0
-13 -955 950 0
-13 955 -950 0
-14 -955 950 0
-14 955 -950 0
-15 -955 950 0
-15 -955 951 0
-15 955 -950 -951 0
-16 -955 950 0
-16 -955 952 0
-16 955 -950 -952 0
-17 -955 950 0
-17 -955 953 0
-17 955 -950 -953 0
-18 -955 950 0
-18 955 -950 0
-19 -955 950 0
-19 955 -950 0
-20 -955 950 0
-20 955 -950 0
-82 -955 950 0
-82 955 -950 0
-11 -956 951 0
-11 956 -951 0
-12 -951 956 0
-12 -949 956 0
-12 -956 951 949 0
-13 -956 951 0
-13 956 -951 0
-14 -956 951 0
-14 956 -951 0
-15 -951 956 0
-15 -950 956 0
-15 -956 951 950 0
-16 -956 951 0
-16 956 -951 0
-17 -956 951 0
-17 956 -951 0
-18 -956 951 0
-18 -956 952 0
-18 956 -951 -952 0
-19 -956 951 0
-19 -956 953 0
-19 956 -951 -953 0
-20 -956 951 0
-20 956 -951 0
-82 -956 951 0
-82 956 -951 0
-11 -957 952 0
-11 957 -952 0
-12 -957 952 0
-12 957 -952 0
-13 -952 957 0
-13 -949 957 0
-13 -957 952 949 0
-14 -957 952 0
-14 957 -952 0
-15 -957 952 0
-15 957 -952 0
-16 -952 957 0
-16 -950 957 0
-16 -957 952 950 0
-17 -957 952 0
-17 957 -952 0
-18 -952 957 0
-18 -951 957 0
-18 -957 952 951 0
-19 -957 952 0
-19 957 -952 0
-20 -957 952 0
-20 -957 953 0
-20 957 -952 -953 0
-82 -957 952 0
-82 957 -952 0
-11 -958 953 0
-11 958 -953 0
-12 -958 953 0
-12 958 -953 0
-13 -958 953 0
-13 958 -953 0
-14 -953 958 0
-14 -949 958 0
-14 -958 953 949 0
-15 -958 953 0
-15 958 -953 0
-16 -958 953 0
-16 958 -953 0
-17 -953 958 0
-17 -950 958 0
-17 -958 953 950 0
-18 -958 953 0
-18 958 -953 0
-19 -953 958 0
-19 -951 958 0
-19 -958 953 951 0
-20 -953 958 0
-20 -952 958 0
-20 -958 953 952 0
-82 -958 953 0
-82 958 -953 0
-21 -959 954 0
-21 -959 955 0
-21 959 -954 -955 0
-22 -959 954 0
-22 -959 956 0
-22 959 -954 -956 0
-23 -959 954 0
-23 -959 957 0
-23 959 -954 -957 0
-24 -959 954 0
-24 -959 958 0
-24 959 -954 -958 0
-25 -959 954 0
-25 959 -954 0
-26 -959 954 0
-26 959 -954 0
-27 -959 954 0
-27 959 -954 0
-28 -959 954 0
-28 959 -954 0
-29 -959 954 0
-29 959 -954 0
-30 -959 954 0
-30 959 -954 0
-83 -959 954 0
-83 959 -954 0
-21 -955 960 0
-21 -954 960 0
-21 -960 955 954 0
-22 -960 955 0
-22 960 -955 0
-23 -960 955 0
-23 960 -955 0
-24 -960 955 0
-24 960 -955 0
-25 -960 955 0
-25 -960 956 0
-25 960 -955 -956 0
-26 -960 955 0
-26 -960 957 0
-26 960 -955 -957 0
-27 -960 955 0
-27 -960 958 0
-27 960 -955 -958 0
-28 -960 955 0
-28 960 -955 0
-29 -960 955 0
-29 960 -955 0
-30 -960 955 0
-30 960 -955 0
-83 -960 955 0
-83 960 -955 0
-21 -961 956 0
-21 961 -956 0
-22 -956 961 0
-22 -954 961 0
-22 -961 956 954 0
-23 -961 956 0
-23 961 -956 0
-24 -961 956 0
-24 961 -956 0
-25 -956 961 0
-25 -955 961 0
-25 -961 956 955 0
-26 -961 956 0
-26 961 -956 0
-27 -961 956 0
-27 961 -956 0
-28 -961 956 0
-28 -961 957 0
-28 961 -956 -957 0
-29 -961 956 0
-29 -961 958 0
-29 961 -956 -958 0
-30 -961 956 0
-30 961 -956 0
-83 -961 956 0
-83 961 -956 0
-21 -962 957 0
-21 962 -957 0
-22 -962 957 0
-22 962 -957 0
-23 -957 962 0
-23 -954 962 0
-23 -962 957 954 0
-24 -962 957 0
-24 962 -957 0
-25 -962 957 0
-25 962 -957 0
-26 -957 962 0
-26 -955 962 0
-26 -962 957 955 0
-27 -962 957 0
-27 962 -957 0
-28 -957 962 0
-28 -956 962 0
-28 -962 957 956 0
-29 -962 957 0
-29 962 -957 0
-30 -962 957 0
-30 -962 958 0
-30 962 -957 -958 0
-83 -962 957 0
-83 962 -957 0
-21 -963 958 0
-21 963 -958 0
-22 -963 958 0
-22 963 -958 0
-23 -963 958 0
-23 963 -958 0
-24 -958 963 0
-24 -954 963 0
-24 -963 958 954 0
-25 -963 958 0
-25 963 -958 0
-26 -963 958 0
-26 963 -958 0
-27 -958 963 0
-27 -955 963 0
-27 -963 958 955 0
-28 -963 958 0
-28 963 -958 0
-29 -958 963 0
-29 -956 963 0
-29 -963 958 956 0
-30 -958 963 0
-30 -957 963 0
-30 -963 958 957 0
-83 -963 958 0
-83 963 -958 0
-31 -964 959 0
-31 -964 960 0
-31 964 -959 -960 0
-32 -964 959 0
-32 -964 961 0
-32 964 -959 -961 0
-33 -964 959 0
-33 -964 962 0
-33 964 -959 -962 0
-34 -964 959 0
-34 -964 963 0
-34 964 -959 -963 0
-35 -964 959 0
-35 964 -959 0
-36 -964 959 0
-36 964 -959 0
-37 -964 959 0
-37 964 -959 0
-38 -964 959 0
-38 964 -959 0
-39 -964 959 0
-39 964 -959 0
-40 -964 959 0
-40 964 -959 0
-84 -964 959 0
-84 964 -959 0
-31 -960 965 0
-31 -959 965 0
-31 -965 960 959 0
-32 -965 960 0
-32 965 -960 0
-33 -965 960 0
-33 965 -960 0
-34 -965 960 0
-34 965 -960 0
-35 -965 960 0
-35 -965 961 0
-35 965 -960 -961 0
-36 -965 960 0
-36 -965 962 0
-36 965 -960 -962 0
-37 -965 960 0
-37 -965 963 0
-37 965 -960 -963 0
-38 -965 960 0
-38 965 -960 0
-39 -965 960 0
-39 965 -960 0
-40 -965 960 0
-40 965 -960 0
-84 -965 960 0
-84 965 -960 0
-31 -966 961 0
-31 966 -961 0
-32 -961 966 0
-32 -959 966 0
-32 -966 961 959 0
-33 -966 961 0
-33 966 -961 0
-34 -966 961 0
-34 966 -961 0
-35 -961 966 0
-35 -960 966 0
-35 -966 961 960 0
-36 -966 961 0
-36 966 -961 0
-37 -966 961 0
-37 966 -961 0
-38 -966 961 0
-38 -966 962 0
-38 966 -961 -962 0
-39 -966 961 0
-39 -966 963 0
-39 966 -961 -963 0
-40 -966 961 0
-40 966 -961 0
-84 -966 961 0
-84 966 -961 0
-31 -967 962 0
-31 967 -962 0
-32 -967 962 0
-32 967 -962 0
-33 -962 967 0
-33 -959 967 0
-33 -967 962 959 0
-34 -967 962 0
-34 967 -962 0
-35 -967 962 0
-35 967 -962 0
-36 -962 967 0
-36 -960 967 0
-36 -967 962 960 0
-37 -967 962 0
-37 967 -962 0
-38 -962 967 0
-38 -961 967 0
-38 -967 962 961 0
-39 -967 962 0
-39 967 -962 0
-40 -967 962 0
-40 -967 963 0
-40 967 -962 -963 0
-84 -967 962 0
-84 967 -962 0
-31 -968 963 0
-31 968 -963 0
-32 -968 963 0
-32 968 -963 0
-33 -968 963 0
-33 968 -963 0
-34 -963 968 0
-34 -959 968 0
-34 -968 963 959 0
-35 -968 963 0
-35 968 -963 0
-36 -968 963 0
-36 968 -963 0
-37 -963 968 0
-37 -960 968 0
-37 -968 963 960 0
-38 -968 963 0
-38 968 -963 0
-39 -963 968 0
-39 -961 968 0
-39 -968 963 961 0
-40 -963 968 0
-40 -962 968 0
-40 -968 963 962 0
-84 -968 963 0
-84 968 -963 0
-41 -969 964 0
-41 -969 965 0
-41 969 -964 -965 0
-42 -969 964 0
-42 -969 966 0
-42 969 -964 -966 0
-43 -969 964 0
-43 -969 967 0
-43 969 -964 -967 0
-44 -969 964 0
-44 -969 968 0
-44 969 -964 -968 0
-45 -969 964 0
-45 969 -964 0
-46 -969 964 0
-46 969 -964 0
-47 -969 964 0
-47 969 -964 0
-48 -969 964 0
-48 969 -964 0
-49 -969 964 0
-49 969 -964 0
-50 -969 964 0
-50 969 -964 0
-85 -969 964 0
-85 969 -964 0
-41 -965 970 0
-41 -964 970 0
-41 -970 965 964 0
-42 -970 965 0
-42 970 -965 0
-43 -970 965 0
-43 970 -965 0
-44 -970 965 0
-44 970 -965 0
-45 -970 965 0
-45 -970 966 0
-45 970 -965 -966 0
-46 -970 965 0
-46 -970 967 0
-46 970 -965 -967 0
-47 -970 965 0
-47 -970 968 0
-47 970 -965 -968 0
-48 -970 965 0
-48 970 -965 0
-49 -970 965 0
-49 970 -965 0
-50 -970 965 0
-50 970 -965 0
-85 -970 965 0
-85 970 -965 0
-41 -971 966 0
-41 971 -966 0
-42 -966 971 0
-42 -964 971 0
-42 -971 966 964 0
-43 -971 966 0
-43 971 -966 0
-44 -971 966 0
-44 971 -966 0
-45 -966 971 0
-45 -965 971 0
-45 -971 966 965 0
-46 -971 966 0
-46 971 -966 0
-47 -971 966 0
-47 971 -966 0
-48 -971 966 0
-48 -971 967 0
-48 971 -966 -967 0
-49 -971 966 0
-49 -971 968 0
-49 971 -966 -968 0
-50 -971 966 0
-50 971 -966 0
-85 -971 966 0
-85 971 -966 0
-41 -972 967 0
-41 972 -967 0
-42 -972 967 0
-42 972 -967 0
-43 -967 972 0
-43 -964 972 0
-43 -972 967 964 0
-44 -972 967 0
-44 972 -967 0
-45 -972 967 0
-45 972 -967 0
-46 -967 972 0
-46 -965 972 0
-46 -972 967 965 0
-47 -972 967 0
-47 972 -967 0
-48 -967 972 0
-48 -966 972 0
-48 -972 967 966 0
-49 -972 967 0
-49 972 -967 0
-50 -972 967 0
-50 -972 968 0
-50 972 -967 -968 0
-85 -972 967 0
-85 972 -967 0
-41 -973 968 0
-41 973 -968 0
-42 -973 968 0
-42 973 -968 0
-43 -973 968 0
-43 973 -968 0
-44 -968 973 0
-44 -964 973 0
-44 -973 968 964 0
-45 -973 968 0
-45 973 -968 0
-46 -973 968 0
-46 973 -968 0
-47 -968 973 0
-47 -965 973 0
-47 -973 968 965 0
-48 -973 968 0
-48 973 -968 0
-49 -968 973 0
-49 -966 973 0
-49 -973 968 966 0
-50 -968 973 0
-50 -967 973 0
-50 -973 968 967 0
-85 -973 968 0
-85 973 -968 0
-51 -974 969 0
-51 -974 970 0
-51 974 -969 -970 0
-52 -974 969 0
-52 -974 971 0
-52 974 -969 -971 0
-53 -974 969 0
-53 -974 972 0
-53 974 -969 -972 0
-54 -974 969 0
-54 -974 973 0
-54 974 -969 -973 0
-55 -974 969 0
-55 974 -969 0
-56 -974 969 0
-56 974 -969 0
-57 -974 969 0
-57 974 -969 0
-58 -974 969 0
-58 974 -969 0
-59 -974 969 0
-59 974 -969 0
-60 -974 969 0
-60 974 -969 0
-86 -974 969 0
-86 974 -969 0
-51 -970 975 0
-51 -969 975 0
-51 -975 970 969 0
-52 -975 970 0
-52 975 -970 0
-53 -975 970 0
-53 975 -970 0
-54 -975 970 0
-54 975 -970 0
-55 -975 970 0
-55 -975 971 0
-55 975 -970 -971 0
-56 -975 970 0
-56 -975 972 0
-56 975 -970 -972 0
-57 -975 970 0
-57 -975 973 0
-57 975 -970 -973 0
-58 -975 970 0
-58 975 -970 0
-59 -975 970 0
-59 975 -970 0
-60 -975 970 0
-60 975 -970 0
-86 -975 970 0
-86 975 -970 0
-51 -976 971 0
-51 976 -971 0
-52 -971 976 0
-52 -969 976 0
-52 -976 971 969 0
-53 -976 971 0
-53 976 -971 0
-54 -976 971 0
-54 976 -971 0
-55 -971 976 0
-55 -970 976 0
-55 -976 971 970 0
-56 -976 971 0
-56 976 -971 0
-57 -976 971 0
-57 976 -971 0
-58 -976 971 0
-58 -976 972 0
-58 976 -971 -972 0
-59 -976 971 0
-59 -976 973 0
-59 976 -971 -973 0
-60 -976 971 0
-60 976 -971 0
-86 -976 971 0
-86 976 -971 0
-51 -977 972 0
-51 977 -972 0
-52 -977 972 0
-52 977 -972 0
-53 -972 977 0
-53 -969 977 0
-53 -977 972 969 0
-54 -977 972 0
-54 977 -972 0
-55 -977 972 0
-55 977 -972 0
-56 -972 977 0
-56 -970 977 0
-56 -977 972 970 0
-57 -977 972 0
-57 977 -972 0
-58 -972 977 0
-58 -971 977 0
-58 -977 972 971 0
-59 -977 972 0
-59 977 -972 0
-60 -977 972 0
-60 -977 973 0
-60 977 -972 -973 0
-86 -977 972 0
-86 977 -972 0
-51 -978 973 0
-51 978 -973 0
-52 -978 973 0
-52 978 -973 0
-53 -978 973 0
-53 978 -973 0
-54 -973 978 0
-54 -969 978 0
-54 -978 973 969 0
-55 -978 973 0
-55 978 -973 0
-56 -978 973 0
-56 978 -973 0
-57 -973 978 0
-57 -970 978 0
-57 -978 973 970 0
-58 -978 973 0
-58 978 -973 0
-59 -973 978 0
-59 -971 978 0
-59 -978 973 971 0
-60 -973 978 0
-60 -972 978 0
-60 -978 973 972 0
-86 -978 973 0
-86 978 -973 0
-61 -979 974 0
-61 -979 975 0
-61 979 -974 -975 0
-62 -979 974 0
-62 -979 976 0
-62 979 -974 -976 0
-63 -979 974 0
-63 -979 977 0
-63 979 -974 -977 0
-64 -979 974 0
-64 -979 978 0
-64 979 -974 -978 0
-65 -979 974 0
-65 979 -974 0
-66 -979 974 0
-66 979 -974 0
-67 -979 974 0
-67 979 -974 0
-68 -979 974 0
-68 979 -974 0
-69 -979 974 0
-69 979 -974 0
-70 -979 974 0
-70 979 -974 0
-87 -979 974 0
-87 979 -974 0
-61 -975 980 0
-61 -974 980 0
-61 -980 975 974 0
-62 -980 975 0
-62 980 -975 0
-63 -980 975 0
-63 980 -975 0
-64 -980 975 0
-64 980 -975 0
-65 -980 975 0
-65 -980 976 0
-65 980 -975 -976 0
-66 -980 975 0
-66 -980 977 0
-66 980 -975 -977 0
-67 -980 975 0
-67 -980 978 0
-67 980 -975 -978 0
-68 -980 975 0
-68 980 -975 0
-69 -980 975 0
-69 980 -975 0
-70 -980 975 0
-70 980 -975 0
-87 -980 975 0
-87 980 -975 0
-61 -981 976 0
-61 981 -976 0
-62 -976 981 0
-62 -974 981 0
-62 -981 976 974 0
-63 -981 976 0
-63 981 -976 0
-64 -981 976 0
-64 981 -976 0
-65 -976 981 0
-65 -975 981 0
-65 -981 976 975 0
-66 -981 976 0
-66 981 -976 0
-67 -981 976 0
-67 981 -976 0
-68 -981 976 0
-68 -981 977 0
-68 981 -976 -977 0
-69 -981 976 0
-69 -981 978 0
-69 981 -976 -978 0
-70 -981 976 0
-70 981 -976 0
-87 -981 976 0
-87 981 -976 0
-61 -982 977 0
-61 982 -977 0
-62 -982 977 0
-62 982 -977 0
-63 -977 982 0
-63 -974 982 0
-63 -982 977 974 0
-64 -982 977 0
-64 982 -977 0
-65 -982 977 0
-65 982 -977 0
-66 -977 982 0
-66 -975 982 0
-66 -982 977 975 0
-67 -982 977 0
-67 982 -977 0
-68 -977 982 0
-68 -976 982 0
-68 -982 977 976 0
-69 -982 977 0
-69 982 -977 0
-70 -982 977 0
-70 -982 978 0
-70 982 -977 -978 0
-87 -982 977 0
-87 982 -977 0
-61 -983 978 0
-61 983 -978 0
-62 -983 978 0
-62 983 -978 0
-63 -983 978 0
-63 983 -978 0
-64 -978 983 0
-64 -974 983 0
-64 -983 978 974 0
-65 -983 978 0
-65 983 -978 0
-66 -983 978 0
-66 983 -978 0
-67 -978 983 0
-67 -975 983 0
-67 -983 978 975 0
-68 -983 978 0
-68 983 -978 0
-69 -978 983 0
-69 -976 983 0
-69 -983 978 976 0
-70 -978 983 0
-70 -977 983 0
-70 -983 978 977 0
-87 -983 978 0
-87 983 -978 0
-71 -984 979 0
-71 -984 980 0
-71 984 -979 -980 0
-72 -984 979 0
-72 -984 981 0
-72 984 -979 -981 0
-73 -984 979 0
-73 -984 982 0
-73 984 -979 -982 0
-74 -984 979 0
-74 -984 983 0
-74 984 -979 -983 0
-75 -984 979 0
-75 984 -979 0
-76 -984 979 0
-76 984 -979 0
-77 -984 979 0
-77 984 -979 0
-78 -984 979 0
-78 984 -979 0
-79 -984 979 0
-79 984 -979 0
-80 -984 979 0
-80 984 -979 0
-88 -984 979 0
-88 984 -979 0
-71 -980 985 0
-71 -979 985 0
-71 -985 980 979 0
-72 -985 980 0
-72 985 -980 0
-73 -985 980 0
-73 985 -980 0
-74 -985 980 0
-74 985 -980 0
-75 -985 980 0
-75 -985 981 0
-75 985 -980 -981 0
-76 -985 980 0
-76 -985 982 0
-76 985 -980 -982 0
-77 -985 980 0
-77 -985 983 0
-77 985 -980 -983 0
-78 -985 980 0
-78 985 -980 0
-79 -985 980 0
-79 985 -980 0
-80 -985 980 0
-80 985 -980 0
-88 -985 980 0
-88 985 -980 0
-71 -986 981 0
-71 986 -981 0
-72 -981 986 0
-72 -979 986 0
-72 -986 981 979 0
-73 -986 981 0
-73 986 -981 0
-74 -986 981 0
-74 986 -981 0
-75 -981 986 0
-75 -980 986 0
-75 -986 981 980 0
-76 -986 981 0
-76 986 -981 0
-77 -986 981 0
-77 986 -981 0
-78 -986 981 0
-78 -986 982 0
-78 986 -981 -982 0
-79 -986 981 0
-79 -986 983 0
-79 986 -981 -983 0
-80 -986 981 0
-80 986 -981 0
-88 -986 981 0
-88 986 -981 0
-71 -987 982 0
-71 987 -982 0
-72 -987 982 0
-72 987 -982 0
-73 -982 987 0
-73 -979 987 0
-73 -987 982 979 0
-74 -987 982 0
-74 987 -982 0
-75 -987 982 0
-75 987 -982 0
-76 -982 987 0
-76 -980 987 0
-76 -987 982 980 0
-77 -987 982 0
-77 987 -982 0
-78 -982 987 0
-78 -981 987 0
-78 -987 982 981 0
-79 -987 982 0
-79 987 -982 0
-80 -987 982 0
-80 -987 983 0
-80 987 -982 -983 0
-88 -987 982 0
-88 987 -982 0
-71 -988 983 0
-71 988 -983 0
-72 -988 983 0
-72 988 -983 0
-73 -988 983 0
-73 988 -983 0
-74 -983 988 0
-74 -979 988 0
-74 -988 983 979 0
-75 -988 983 0
-75 988 -983 0
-76 -988 983 0
-76 988 -983 0
-77 -983 988 0
-77 -980 988 0
-77 -988 983 980 0
-78 -988 983 0
-78 988 -983 0
-79 -983 988 0
-79 -981 988 0
-79 -988 983 981 0
-80 -983 988 0
-80 -982 988 0
-80 -988 983 982 0
-88 -988 983 0
-88 988 -983 0
989 0
-1 -994 989 0
-1 -994 990 0
-1 994 -989 -990 0
-2 -994 989 0
-2 -994 991 0
-2 994 -989 -991 0
-3 -994 989 0
-3 -994 992 0
-3 994 -989 -992 0
-4 -994 989 0
-4 -994 993 0
-4 994 -989 -993 0
-5 -994 989 0
-5 994 -989 0
-6 -994 989 0
-6 994 -989 0
-7 -994 989 0
-7 994 -989 0
-8 -994 989 0
-8 994 -989 0
-9 -994 989 0
-9 994 -989 0
-10 -994 989 0
-10 994 -989 0
-81 -994 989 0
-81 994 -989 0
990 0
-1 -990 995 0
-1 -989 995 0
-1 -995 990 989 0
-2 -995 990 0
-2 995 -990 0
-3 -995 990 0
-3 995 -990 0
-4 -995 990 0
-4 995 -990 0
-5 -995 990 0
-5 -995 991 0
-5 995 -990 -991 0
-6 -995 990 0
-6 -995 992 0
-6 995 -990 -992 0
-7 -995 990 0
-7 -995 993 0
-7 995 -990 -993 0
-8 -995 990 0
-8 995 -990 0
-9 -995 990 0
-9 995 -990 0
-10 -995 990 0
-10 995 -990 0
-81 -995 990 0
-81 995 -990 0
-991 0
-1 -996 991 0
-1 996 -991 0
-2 -991 996 0
-2 -989 996 0
-2 -996 991 989 0
-3 -996 991 0
-3 996 -991 0
-4 -996 991 0
-4 996 -991 0
-5 -991 996 0
-5 -990 996 0
-5 -996 991 990 0
-6 -996 991 0
-6 996 -991 0
-7 -996 991 0
-7 996 -991 0
-8 -996 991 0
-8 -996 992 0
-8 996 -991 -992 0
-9 -996 991 0
-9 -996 993 0
-9 996 -991 -993 0
-10 -996 991 0
-10 996 -991 0
-81 -996 991 0
-81 996 -991 0
-992 0
-1 -997 992 0
-1 997 -992 0
-2 -997 992 0
-2 997 -992 0
-3 -992 997 0
-3 -989 997 0
-3 -997 992 989 0
-4 -997 992 0
-4 997 -992 0
-5 -997 992 0
-5 997 -992 0
-6 -992 997 0
-6 -990 997 0
-6 -997 992 990 0
-7 -997 992 0
-7 997 -992 0
-8 -992 997 0
-8 -991 997 0
-8 -997 992 991 0
-9 -997 992 0
-9 997 -992 0
-10 -997 992 0
-10 -997 993 0
-10 997 -992 -993 0
-81 -997 992 0
-81 997 -992 0
993 0
-1 -998 993 0
-1 998 -993 0
-2 -998 993 0
-2 998 -993 0
-3 -998 993 0
-3 998 -993 0
-4 -993 998 0
-4 -989 998 0
-4 -998 993 989 0
-5 -998 993 0
-5 998 -993 0
-6 -998 993 0
-6 998 -993 0
-7 -993 998 0
-7 -990 998 0
-7 -998 993 990 0
-8 -998 993 0
-8 998 -993 0
-9 -993 998 0
-9 -991 998 0
-9 -998 993 991 0
-10 -993 998 0
-10 -992 998 0
-10 -998 993 992 0
-81 -998 993 0
-81 998 -993 0
-11 -999 994 0
-11 -999 995 0
-11 999 -994 -995 0
-12 -999 994 0
-12 -999 996 0
-12 999 -994 -996 0
-13 -999 994 0
-13 -999 997 0
-13 999 -994 -997 0
-14 -999 994 0
-14 -999 998 0
-14 999 -994 -998 0
-15 -999 994 0
-15 999 -994 0
-16 -999 994 0
-16 999 -994 0
-17 -999 994 0
-17 999 -994 0
-18 -999 994 0
-18 999 -994 0
-19 -999 994 0
-19 999 -994 0
-20 -999 994 0
-20 999 -994 0
-82 -999 994 0
-82 999 -994 0
-11 -995 1000 0
-11 -994 1000 0
-11 -1000 995 994 0
-12 -1000 995 0
-12 1000 -995 0
-13 -1000 995 0
-13 1000 -995 0
-14 -1000 995 0
-14 1000 -995 0
-15 -1000 995 0
-15 -1000 996 0
-15 1000 -995 -996 0
-16 -1000 995 0
-16 -1000 997 0
-16 1000 -995 -997 0
-17 -1000 995 0
-17 -1000 998 0
-17 1000 -995 -998 0
-18 -1000 995 0
-18 1000 -995 0
-19 -1000 995 0
-19 1000 -995 0
-20 -1000 995 0
-20 1000 -995 0
-82 -1000 995 0
-82 1000 -995 0
-11 -1001 996 0
-11 1001 -996 0
-12 -996 1001 0
-12 -994 1001 0
-12 -1001 996 994 0
-13 -1001 996 0
-13 1001 -996 0
-14 -1001 996 0
-14 1001 -996 0
-15 -996 1001 0
-15 -995 1001 0
-15 -1001 996 995 0
-16 -1001 996 0
-16 1001 -996 0
-17 -1001 996 0
-17 1001 -996 0
-18 -1001 996 0
-18 -1001 997 0
-18 1001 -996 -997 0
-19 -1001 996 0
-19 -1001 998 0
-19 1001 -996 -998 0
-20 -1001 996 0
-20 1001 -996 0
-82 -1001 996 0
-82 1001 -996 0
-11 -1002 997 0
-11 1002 -997 0
-12 -1002 997 0
-12 1002 -997 0
-13 -997 1002 0
-13 -994 1002 0
-13 -1002 997 994 0
-14 -1002 997 0
-14 1002 -997 0
-15 -1002 997 0
-15 1002 -997 0
-16 -997 1002 0
-16 -995 1002 0
-16 -1002 997 995 0
-17 -1002 997 0
-17 1002 -997 0
-18 -997 1002 0
-18 -996 1002 0
-18 -1002 997 996 0
-19 -1002 997 0
-19 1002 -997 0
-20 -1002 997 0
-20 -1002 998 0
-20 1002 -997 -998 0
-82 -1002 997 0
-82 1002 -997 0
-11 -1003 998 0
-11 1003 -998 0
-12 -1003 998 0
-12 1003 -998 0
-13 -1003 998 0
-13 1003 -998 0
-14 -998 1003 0
-14 -994 1003 0
-14 -1003 998 994 0
-15 -1003 998 0
-15 1003 -998 0
-16 -1003 998 0
-16 1003 -998 0
-17 -998 1003 0
-17 -995 1003 0
-17 -1003 998 995 0
-18 -1003 998 0
-18 1003 -998 0
-19 -998 1003 0
-19 -996 1003 0
-19 -1003 998 996 0
-20 -998 1003 0
-20 -997 1003 0
-20 -1003 998 997 0
-82 -1003 998 0
-82 1003 -998 0
-21 -1004 999 0
-21 -1004 1000 0
-21 1004 -999 -1000 0
-22 -1004 999 0
-22 -1004 1001 0
-22 1004 -999 -1001 0
-23 -1004 999 0
-23 -1004 1002 0
-23 1004 -999 -1002 0
-24 -1004 999 0
-24 -1004 1003 0
-24 1004 -999 -1003 0
-25 -1004 999 0
-25 1004 -999 0
-26 -1004 999 0
-26 1004 -999 0
-27 -1004 999 0
-27 1004 -999 0
-28 -1004 999 0
-28 1004 -999 0
-29 -1004 999 0
-29 1004 -999 0
-30 -1004 999 0
-30 1004 -999 0
-83 -1004 999 0
-83 1004 -999 0
-21 -1000 1005 0
-21 -999 1005 0
-21 -1005 1000 999 0
-22 -1005 1000 0
-22 1005 -1000 0
-23 -1005 1000 0
-23 1005 -1000 0
-24 -1005 1000 0
-24 1005 -1000 0
-25 -1005 1000 0
-25 -1005 1001 0
-25 1005 -1000 -1001 0
-26 -1005 1000 0
-26 -1005 1002 0
-26 1005 -1000 -1002 0
-27 -1005 1000 0
-27 -1005 1003 0
-27 1005 -1000 -1003 0
-28 -1005 1000 0
-28 1005 -1000 0
-29 -1005 1000 0
-29 1005 -1000 0
-30 -1005 1000 0
-30 1005 -1000 0
-83 -1005 1000 0
-83 1005 -1000 0
-21 -1006 1001 0
-21 1006 -1001 0
-22 -1001 1006 0
-22 -999 1006 0
-22 -1006 1001 999 0
-23 -1006 1001 0
-23 1006 -1001 0
-24 -1006 1001 0
-24 1006 -1001 0
-25 -1001 1006 0
-25 -1000 1006 0
-25 -1006 1001 1000 0
-26 -1006 1001 0
-26 1006 -1001 0
-27 -1006 1001 0
-27 1006 -1001 0
-28 -1006 1001 0
-28 -1006 1002 0
-28 1006 -1001 -1002 0
-29 -1006 1001 0
-29 -1006 1003 0
-29 1006 -1001 -1003 0
-30 -1006 1001 0
-30 1006 -1001 0
-83 -1006 1001 0
-83 1006 -1001 0
-21 -1007 1002 0
-21 1007 -1002 0
-22 -1007 1002 0
-22 1007 -1002 0
-23 -1002 1007 0
-23 -999 1007 0
-23 -1007 1002 999 0
-24 -1007 1002 0
-24 1007 -1002 0
-25 -1007 1002 0
-25 1007 -1002 0
-26 -1002 1007 0
-26 -1000 1007 0
-26 -1007 1002 1000 0
-27 -1007 1002 0
-27 1007 -1002 0
-28 -1002 1007 0
-28 -1001 1007 0
-28 -1007 1002 1001 0
-29 -1007 1002 0
-29 1007 -1002 0
-30 -1007 1002 0
-30 -1007 1003 0
-30 1007 -1002 -1003 0
-83 -1007 1002 0
-83 1007 -1002 0
-21 -1008 1003 0
-21 1008 -1003 0
-22 -1008 1003 0
-22 1008 -1003 0
-23 -1008 1003 0
-23 1008 -1003 0
-24 -1003 1008 0
-24 -999 1008 0
-24 -1008 1003 999 0
-25 -1008 1003 0
-25 1008 -1003 0
-26 -1008 1003 0
-26 1008 -1003 0
-27 -1003 1008 0
-27 -1000 1008 0
-27 -1008 1003 1000 0
-28 -1008 1003 0
-28 1008 -1003 0
-29 -1003 1008 0
-29 -1001 1008 0
-29 -1008 1003 1001 0
-30 -1003 1008 0
-30 -1002 1008 0
-30 -1008 1003 1002 0
-83 -1008 1003 0
-83 1008 -1003 0
-31 -1009 1004 0
-31 -1009 1005 0
-31 1009 -1004 -1005 0
-32 -1009 1004 0
-32 -1009 1006 0
-32 1009 -1004 -1006 0
-33 -1009 1004 0
-33 -1009 1007 0
-33 1009 -1004 -1007 0
-34 -1009 1004 0
-34 -1009 1008 0
-34 1009 -1004 -1008 0
-35 -1009 1004 0
-35 1009 -1004 0
-36 -1009 1004 0
-36 1009 -1004 0
-37 -1009 1004 0
-37 1009 -1004 0
-38 -1009 1004 0
-38 1009 -1004 0
-39 -1009 1004 0
-39 1009 -1004 0
-40 -1009 1004 0
-40 1009 -1004 0
-84 -1009 1004 0
-84 1009 -1004 0
-31 -1005 1010 0
-31 -1004 1010 0
-31 -1010 1005 1004 0
-32 -1010 1005 0
-32 1010 -1005 0
-33 -1010 1005 0
-33 1010 -1005 0
-34 -1010 1005 0
-34 1010 -1005 0
-35 -1010 1005 0
-35 -1010 1006 0
-35 1010 -1005 -1006 0
-36 -1010 1005 0
-36 -1010 1007 0
-36 1010 -1005 -1007 0
-37 -1010 1005 0
-37 -1010 1008 0
-37 1010 -1005 -1008 0
-38 -1010 1005 0
-38 1010 -1005 0
-39 -1010 1005 0
-39 1010 -1005 0
-40 -1010 1005 0
-40 1010 -1005 0
-84 -1010 1005 0
-84 1010 -1005 0
-31 -1011 1006 0
-31 1011 -1006 0
-32 -1006 1011 0
-32 -1004 1011 0
-32 -1011 1006 1004 0
-33 -1011 1006 0
-33 1011 -1006 0
-34 -1011 1006 0
-34 1011 -1006 0
-35 -1006 1011 0
-35 -1005 1011 0
-35 -1011 1006 1005 0
-36 -1011 1006 0
-36 1011 -1006 0
-37 -1011 1006 0
-37 1011 -1006 0
-38 -1011 1006 0
-38 -1011 1007 0
-38 1011 -1006 -1007 0
-39 -1011 1006 0
-39 -1011 1008 0
-39 1011 -1006 -1008 0
-40 -1011 1006 0
-40 1011 -1006 0
-84 -1011 1006 0
-84 1011 -1006 0
-31 -1012 1007 0
-31 1012 -1007 0
-32 -1012 1007 0
-32 1012 -1007 0
-33 -1007 1012 0
-33 -1004 1012 0
-33 -1012 1007 1004 0
-34 -1012 1007 0
-34 1012 -1007 0
-35 -1012 1007 0
-35 1012 -1007 0
-36 -1007 1012 0
-36 -1005 1012 0
-36 -1012 1007 1005 0
-37 -1012 1007 0
-37 1012 -1007 0
-38 -1007 1012 0
-38 -1006 1012 0
-38 -1012 1007 1006 0
-39 -1012 1007 0
-39 1012 -1007 0
-40 -1012 1007 0
-40 -1012 1008 0
-40 1012 -1007 -1008 0
-84 -1012 1007 0
-84 1012 -1007 0
-31 -1013 1008 0
-31 1013 -1008 0
-32 -1013 1008 0
-32 1013 -1008 0
-33 -1013 1008 0
-33 1013 -1008 0
-34 -1008 1013 0
-34 -1004 1013 0
-34 -1013 1008 1004 0
-35 -1013 1008 0
-35 1013 -1008 0
-36 -1013 1008 0
-36 1013 -1008 0
-37 -1008 1013 0
-37 -1005 1013 0
-37 -1013 1008 1005 0
-38 -1013 1008 0
-38 1013 -1008 0
-39 -1008 1013 0
-39 -1006 1013 0
-39 -1013 1008 1006 0
-40 -1008 1013 0
-40 -1007 1013 0
-40 -1013 1008 1007 0
-84 -1013 1008 0
-84 1013 -1008 0
-41 -1014 1009 0
-41 -1014 1010 0
-41 1014 -1009 -1010 0
-42 -1014 1009 0
-42 -1014 1011 0
-42 1014 -1009 -1011 0
-43 -1014 1009 0
-43 -1014 1012 0
-43 1014 -1009 -1012 0
-44 -1014 1009 0
-44 -1014 1013 0
-44 1014 -1009 -1013 0
-45 -1014 1009 0
-45 1014 -1009 0
-46 -1014 1009 0
-46 1014 -1009 0
-47 -1014 1009 0
-47 1014 -1009 0
-48 -1014 1009 0
-48 1014 -1009 0
-49 -1014 1009 0
-49 1014 -1009 0
-50 -1014 1009 0
-50 1014 -1009 0
-85 -1014 1009 0
-85 1014 -1009 0
-41 -1010 1015 0
-41 -1009 1015 0
-41 -1015 1010 1009 0
-42 -1015 1010 0
-42 1015 -1010 0
-43 -1015 1010 0
-43 1015 -1010 0
-44 -1015 1010 0
-44 1015 -1010 0
-45 -1015 1010 0
-45 -1015 1011 0
-45 1015 -1010 -1011 0
-46 -1015 1010 0
-46 -1015 1012 0
-46 1015 -1010 -1012 0
-47 -1015 1010 0
-47 -1015 1013 0
-47 1015 -1010 -1013 0
-48 -1015 1010 0
-48 1015 -1010 0
-49 -1015 1010 0
-49 1015 -1010 0
-50 -1015 1010 0
-50 1015 -1010 0
-85 -1015 1010 0
-85 1015 -1010 0
-41 -1016 1011 0
-41 1016 -1011 0
-42 -1011 1016 0
-42 -1009 1016 0
-42 -1016 1011 1009 0
-43 -1016 1011 0
-43 1016 -1011 0
-44 -1016 1011 0
-44 1016 -1011 0
-45 -1011 1016 0
-45 -1010 1016 0
-45 -1016 1011 1010 0
-46 -1016 1011 0
-46 1016 -1011 0
-47 -1016 1011 0
-47 1016 -1011 0
-48 -1016 1011 0
-48 -1016 1012 0
-48 1016 -1011 -1012 0
-49 -1016 1011 0
-49 -1016 1013 0
-49 1016 -1011 -1013 0
-50 -1016 1011 0
-50 1016 -1011 0
-85 -1016 1011 0
-85 1016 -1011 0
-41 -1017 1012 0
-41 1017 -1012 0
-42 -1017 1012 0
-42 1017 -1012 0
-43 -1012 1017 0
-43 -1009 1017 0
-43 -1017 1012 1009 0
-44 -1017 1012 0
-44 1017 -1012 0
-45 -1017 1012 0
-45 1017 -1012 0
-46 -1012 1017 0
-46 -1010 1017 0
-46 -1017 1012 1010 0
-47 -1017 1012 0
-47 1017 -1012 0
-48 -1012 1017 0
-48 -1011 1017 0
-48 -1017 1012 1011 0
-49 -1017 1012 0
-49 1017 -1012 0
-50 -1017 1012 0
-50 -1017 1013 0
-50 1017 -1012 -1013 0
-85 -1017 1012 0
-85 1017 -1012 0
-41 -1018 1013 0
-41 1018 -1013 0
-42 -1018 1013 0
-42 1018 -1013 0
-43 -1018 1013 0
-43 1018 -1013 0
-44 -1013 1018 0
-44 -1009 1018 0
-44 -1018 1013 1009 0
-45 -1018 1013 0
-45 1018 -1013 0
-46 -1018 1013 0
-46 1018 -1013 0
-47 -1013 1018 0
-47 -1010 1018 0
-47 -1018 1013 1010 0
-48 -1018 1013 0
-48 1018 -1013 0
-49 -1013 1018 0
-49 -1011 1018 0
-49 -1018 1013 1011 0
-50 -1013 1018 0
-50 -1012 1018 0
-50 -1018 1013 1012 0
-85 -1018 1013 0
-85 1018 -1013 0
-51 -1019 1014 0
-51 -1019 1015 0
-51 1019 -1014 -1015 0
-52 -1019 1014 0
-52 -1019 1016 0
-52 1019 -1014 -1016 0
-53 -1019 1014 0
-53 -1019 1017 0
-53 1019 -1014 -1017 0
-54 -1019 1014 0
-54 -1019 1018 0
-54 1019 -1014 -1018 0
-55 -1019 1014 0
-55 1019 -1014 0
-56 -1019 1014 0
-56 1019 -1014 0
-57 -1019 1014 0
-57 1019 -1014 0
-58 -1019 1014 0
-58 1019 -1014 0
-59 -1019 1014 0
-59 1019 -1014 0
-60 -1019 1014 0
-60 1019 -1014 0
-86 -1019 1014 0
-86 1019 -1014 0
-51 -1015 1020 0
-51 -1014 1020 0
-51 -1020 1015 1014 0
-52 -1020 1015 0
-52 1020 -1015 0
-53 -1020 1015 0
-53 1020 -1015 0
-54 -1020 1015 0
-54 1020 -1015 0
-55 -1020 1015 0
-55 -1020 1016 0
-55 1020 -1015 -1016 0
-56 -1020 1015 0
-56 -1020 1017 0
-56 1020 -1015 -1017 0
-57 -1020 1015 0
-57 -1020 1018 0
-57 1020 -1015 -1018 0
-58 -1020 1015 0
-58 1020 -1015 0
-59 -1020 1015 0
-59 1020 -1015 0
-60 -1020 1015 0
-60 1020 -1015 0
-86 -1020 1015 0
-86 1020 -1015 0
-51 -1021 1016 0
-51 1021 -1016 0
-52 -1016 1021 0
-52 -1014 1021 0
-52 -1021 1016 1014 0
-53 -1021 1016 0
-53 1021 -1016 0
-54 -1021 1016 0
-54 1021 -1016 0
-55 -1016 1021 0
-55 -1015 1021 0
-55 -1021 1016 1015 0
-56 -1021 1016 0
-56 1021 -1016 0
-57 -1021 1016 0
-57 1021 -1016 0
-58 -1021 1016 0
-58 -1021 1017 0
-58 1021 -1016 -1017 0
-59 -1021 1016 0
-59 -1021 1018 0
-59 1021 -1016 -1018 0
-60 -1021 1016 0
-60 1021 -1016 0
-86 -1021 1016 0
-86 1021 -1016 0
-51 -1022 1017 0
-51 1022 -1017 0
-52 -1022 1017 0
-52 1022 -1017 0
-53 -1017 1022 0
-53 -1014 1022 0
-53 -1022 1017 1014 0
-54 -1022 1017 0
-54 1022 -1017 0
-55 -1022 1017 0
-55 1022 -1017 0
-56 -1017 1022 0
-56 -1015 1022 0
-56 -1022 1017 1015 0
-57 -1022 1017 0
-57 1022 -1017 0
-58 -1017 1022 0
-58 -1016 1022 0
-58 -1022 1017 1016 0
-59 -1022 1017 0
-59 1022 -1017 0
-60 -1022 1017 0
-60 -1022 1018 0
-60 1022 -1017 -1018 0
-86 -1022 1017 0
-86 1022 -1017 0
-51 -1023 1018 0
-51 1023 -1018 0
-52 -1023 1018 0
-52 1023 -1018 0
-53 -1023 1018 0
-53 1023 -1018 0
-54 -1018 1023 0
-54 -1014 1023 0
-54 -1023 1018 1014 0
-55 -1023 1018 0
-55 1023 -1018 0
-56 -1023 1018 0
-56 1023 -1018 0
-57 -1018 1023 0
-57 -1015 1023 0
-57 -1023 1018 1015 0
-58 -1023 1018 0
-58 1023 -1018 0
-59 -1018 1023 0
-59 -1016 1023 0
-59 -1023 1018 1016 0
-60 -1018 1023 0
-60 -1017 1023 0
-60 -1023 1018 1017 0
-86 -1023 1018 0
-86 1023 -1018 0
-61 -1024 1019 0
-61 -1024 1020 0
-61 1024 -1019 -1020 0
-62 -1024 1019 0
-62 -1024 1021 0
-62 1024 -1019 -1021 0
-63 -1024 1019 0
-63 -1024 1022 0
-63 1024 -1019 -1022 0
-64 -1024 1019 0
-64 -1024 1023 0
-64 1024 -1019 -1023 0
-65 -1024 1019 0
-65 1024 -1019 0
-66 -1024 1019 0
-66 1024 -1019 0
-67 -1024 1019 0
-67 1024 -1019 0
-68 -1024 1019 0
-68 1024 -1019 0
-69 -1024 1019 0
-69 1024 -1019 0
-70 -1024 1019 0
-70 1024 -1019 0
-87 -1024 1019 0
-87 1024 -1019 0
-61 -1020 1025 0
-61 -1019 1025 0
-61 -1025 1020 1019 0
-62 -1025 1020 0
-62 1025 -1020 0
-63 -1025 1020 0
-63 1025 -1020 0
-64 -1025 1020 0
-64 1025 -1020 0
-65 -1025 1020 0
-65 -1025 1021 0
-65 1025 -1020 -1021 0
-66 -1025 1020 0
-66 -1025 1022 0
-66 1025 -1020 -1022 0
-67 -1025 1020 0
-67 -1025 1023 0
-67 1025 -1020 -1023 0
-68 -1025 1020 0
-68 1025 -1020 0
-69 -1025 1020 0
-69 1025 -1020 0
-70 -1025 1020 0
-70 1025 -1020 0
-87 -1025 1020 0
-87 1025 -1020 0
-61 -1026 1021 0
-61 1026 -1021 0
-62 -1021 1026 0
-62 -1019 1026 0
-62 -1026 1021 1019 0
-63 -1026 1021 0
-63 1026 -1021 0
-64 -1026 1021 0
-64 1026 -1021 0
-65 -1021 1026 0
-65 -1020 1026 0
-65 -1026 1021 1020 0
-66 -1026 1021 0
-66 1026 -1021 0
-67 -1026 1021 0
-67 1026 -1021 0
-68 -1026 1021 0
-68 -1026 1022 0
-68 1026 -1021 -1022 0
-69 -1026 1021 0
-69 -1026 1023 0
-69 1026 -1021 -1023 0
-70 -1026 1021 0
-70 1026 -1021 0
-87 -1026 1021 0
-87 1026 -1021 0
-61 -1027 1022 0
-61 1027 -1022 0
-62 -1027 1022 0
-62 1027 -1022 0
-63 -1022 1027 0
-63 -1019 1027 0
-63 -1027 1022 1019 0
-64 -1027 1022 0
-64 1027 -1022 0
-65 -1027 1022 0
-65 1027 -1022 0
-66 -1022 1027 0
-66 -1020 1027 0
-66 -1027 1022 1020 0
-67 -1027 1022 0
-67 1027 -1022 0
-68 -1022 1027 0
-68 -1021 1027 0
-68 -1027 1022 1021 0
-69 -1027 1022 0
-69 1027 -1022 0
-70 -1027 1022 0
-70 -1027 1023 0
-70 1027 -1022 -1023 0
-87 -1027 1022 0
-87 1027 -1022 0
-61 -1028 1023 0
-61 1028 -1023 0
-62 -1028 1023 0
-62 1028 -1023 0
-63 -1028 1023 0
-63 1028 -1023 0
-64 -1023 1028 0
-64 -1019 1028 0
-64 -1028 1023 1019 0
-65 -1028 1023 0
-65 1028 -1023 0
-66 -1028 1023 0
-66 1028 -1023 0
-67 -1023 1028 0
-67 -1020 1028 0
-67 -1028 1023 1020 0
-68 -1028 1023 0
-68 1028 -1023 0
-69 -1023 1028 0
-69 -1021 1028 0
-69 -1028 1023 1021 0
-70 -1023 1028 0
-70 -1022 1028 0
-70 -1028 1023 1022 0
-87 -1028 1023 0
-87 1028 -1023 0
-71 -1029 1024 0
-71 -1029 1025 0
-71 1029 -1024 -1025 0
-72 -1029 1024 0
-72 -1029 1026 0
-72 1029 -1024 -1026 0
-73 -1029 1024 0
-73 -1029 1027 0
-73 1029 -1024 -1027 0
-74 -1029 1024 0
-74 -1029 1028 0
-74 1029 -1024 -1028 0
-75 -1029 1024 0
-75 1029 -1024 0
-76 -1029 1024 0
-76 1029 -1024 0
-77 -1029 1024 0
-77 1029 -1024 0
-78 -1029 1024 0
-78 1029 -1024 0
-79 -1029 1024 0
-79 1029 -1024 0
-80 -1029 1024 0
-80 1029 -1024 0
-88 -1029 1024 0
-88 1029 -1024 0
-71 -1025 1030 0
-71 -1024 1030 0
-71 -1030 1025 1024 0
-72 -1030 1025 0
-72 1030 -1025 0
-73 -1030 1025 0
-73 1030 -1025 0
-74 -1030 1025 0
-74 1030 -1025 0
-75 -1030 1025 0
-75 -1030 1026 0
-75 1030 -1025 -1026 0
-76 -1030 1025 0
-76 -1030 1027 0
-76 1030 -1025 -1027 0
-77 -1030 1025 0
-77 -1030 1028 0
-77 1030 -1025 -1028 0
-78 -1030 1025 0
-78 1030 -1025 0
-79 -1030 1025 0
-79 1030 -1025 0
-80 -1030 1025 0
-80 1030 -1025 0
-88 -1030 1025 0
-88 1030 -1025 0
-71 -1031 1026 0
-71 1031 -1026 0
-72 -1026 1031 0
-72 -1024 1031 0
-72 -1031 1026 1024 0
-73 -1031 1026 0
-73 1031 -1026 0
-74 -1031 1026 0
-74 1031 -1026 0
-75 -1026 1031 0
-75 -1025 1031 0
-75 -1031 1026 1025 0
-76 -1031 1026 0
-76 1031 -1026 0
-77 -1031 1026 0
-77 1031 -1026 0
-78 -1031 1026 0
-78 -1031 1027 0
-78 1031 -1026 -1027 0
-79 -1031 1026 0
-79 -1031 1028 0
-79 1031 -1026 -1028 0
-80 -1031 1026 0
-80 1031 -1026 0
-88 -1031 1026 0
-88 1031 -1026 0
-71 -1032 1027 0
-71 1032 -1027 0
-72 -1032 1027 0
-72 1032 -1027 0
-73 -1027 1032 0
-73 -1024 1032 0
-73 -1032 1027 1024 0
-74 -1032 1027 0
-74 1032 -1027 0
-75 -1032 1027 0
-75 1032 -1027 0
-76 -1027 1032 0
-76 -1025 1032 0
-76 -1032 1027 1025 0
-77 -1032 1027 0
-77 1032 -1027 0
-78 -1027 1032 0
-78 -1026 1032 0
-78 -1032 1027 1026 0
-79 -1032 1027 0
-79 1032 -1027 0
-80 -1032 1027 0
-80 -1032 1028 0
-80 1032 -1027 -1028 0
-88 -1032 1027 0
-88 1032 -1027 0
-71 -1033 1028 0
-71 1033 -1028 0
-72 -1033 1028 0
-72 1033 -1028 0
-73 -1033 1028 0
-73 1033 -1028 0
-74 -1028 1033 0
-74 -1024 1033 0
-74 -1033 1028 1024 0
-75 -1033 1028 0
-75 1033 -1028 0
-76 -1033 1028 0
-76 1033 -1028 0
-77 -1028 1033 0
-77 -1025 1033 0
-77 -1033 1028 1025 0
-78 -1033 1028 0
-78 1033 -1028 0
-79 -1028 1033 0
-79 -1026 1033 0
-79 -1033 1028 1026 0
-80 -1028 1033 0
-80 -1027 1033 0
-80 -1033 1028 1027 0
-88 -1033 1028 0
-88 1033 -1028 0
1034 0
-1 -1039 1034 0
-1 -1039 1035 0
-1 1039 -1034 -1035 0
-2 -1039 1034 0
-2 -1039 1036 0
-2 1039 -1034 -1036 0
-3 -1039 1034 0
-3 -1039 1037 0
-3 1039 -1034 -1037 0
-4 -1039 1034 0
-4 -1039 1038 0
-4 1039 -1034 -1038 0
-5 -1039 1034 0
-5 1039 -1034 0
-6 -1039 1034 0
-6 1039 -1034 0
-7 -1039 1034 0
-7 1039 -1034 0
-8 -1039 1034 0
-8 1039 -1034 0
-9 -1039 1034 0
-9 1039 -1034 0
-10 -1039 1034 0
-10 1039 -1034 0
-81 -1039 1034 0
-81 1039 -1034 0
1035 0
-1 -1035 1040 0
-1 -1034 1040 0
-1 -1040 1035 1034 0
-2 -1040 1035 0
-2 1040 -1035 0
-3 -1040 1035 0
-3 1040 -1035 0
-4 -1040 1035 0
-4 1040 -1035 0
-5 -1040 1035 0
-5 -1040 1036 0
-5 1040 -1035 -1036 0
-6 -1040 1035 0
-6 -1040 1037 0
-6 1040 -1035 -1037 0
-7 -1040 1035 0
-7 -1040 1038 0
-7 1040 -1035 -1038 0
-8 -1040 1035 0
-8 1040 -1035 0
-9 -1040 1035 0
-9 1040 -1035 0
-10 -1040 1035 0
-10 1040 -1035 0
-81 -1040 1035 0
-81 1040 -1035 0
-1036 0
-1 -1041 1036 0
-1 1041 -1036 0
-2 -1036 1041 0
-2 -1034 1041 0
-2 -1041 1036 1034 0
-3 -1041 1036 0
-3 1041 -1036 0
-4 -1041 1036 0
-4 1041 -1036 0
-5 -1036 1041 0
-5 -1035 1041 0
-5 -1041 1036 1035 0
-6 -1041 1036 0
-6 1041 -1036 0
-7 -1041 1036 0
-7 1041 -1036 0
-8 -1041 1036 0
-8 -1041 1037 0
-8 1041 -1036 -1037 0
-9 -1041 1036 0
-9 -1041 1038 0
-9 1041 -1036 -1038 0
-10 -1041 1036 0
-10 1041 -1036 0
-81 -1041 1036 0
-81 1041 -1036 0
1037 0
-1 -1042 1037 0
-1 1042 -1037 0
-2 -1042 1037 0
-2 1042 -1037 0
-3 -1037 1042 0
-3 -1034 1042 0
-3 -1042 1037 1034 0
-4 -1042 1037 0
-4 1042 -1037 0
-5 -1042 1037 0
-5 1042 -1037 0
-6 -1037 1042 0
-6 -1035 1042 0
-6 -1042 1037 1035 0
-7 -1042 1037 0
-7 1042 -1037 0
-8 -1037 1042 0
-8 -1036 1042 0
-8 -1042 1037 1036 0
-9 -1042 1037 0
-9 1042 -1037 0
-10 -1042 1037 0
-10 -1042 1038 0
-10 1042 -1037 -1038 0
-81 -1042 1037 0
-81 1042 -1037 0
-1038 0
-1 -1043 1038 0
-1 1043 -1038 0
-2 -1043 1038 0
-2 1043 -1038 0
-3 -1043 1038 0
-3 1043 -1038 0
-4 -1038 1043 0
-4 -1034 1043 0
-4 -1043 1038 1034 0
-5 -1043 1038 0
-5 1043 -1038 0
-6 -1043 1038 0
-6 1043 -1038 0
-7 -1038 1043 0
-7 -1035 1043 0
-7 -1043 1038 1035 0
-8 -1043 1038 0
-8 1043 -1038 0
-9 -1038 1043 0
-9 -1036 1043 0
-9 -1043 1038 1036 0
-10 -1038 1043 0
-10 -1037 1043 0
-10 -1043 1038 1037 0
-81 -1043 1038 0
-81 1043 -1038 0
-11 -1044 1039 0
-11 -1044 1040 0
-11 1044 -1039 -1040 0
-12 -1044 1039 0
-12 -1044 1041 0
-12 1044 -1039 -1041 0
-13 -1044 1039 0
-13 -1044 1042 0
-13 1044 -1039 -1042 0
-14 -1044 1039 0
-14 -1044 1043 0
-14 1044 -1039 -1043 0
-15 -1044 1039 0
-15 1044 -1039 0
-16 -1044 1039 0
-16 1044 -1039 0
-17 -1044 1039 0
-17 1044 -1039 0
-18 -1044 1039 0
-18 1044 -1039 0
-19 -1044 1039 0
-19 1044 -1039 0
-20 -1044 1039 0
-20 1044 -1039 0
-82 -1044 1039 0
-82 1044 -1039 0
-11 -1040 1045 0
-11 -1039 1045 0
-11 -1045 1040 1039 0
-12 -1045 1040 0
-12 1045 -1040 0
-13 -1045 1040 0
-13 1045 -1040 0
-14 -1045 1040 0
-14 1045 -1040 0
-15 -1045 1040 0
-15 -1045 1041 0
-15 1045 -1040 -1041 0
-16 -1045 1040 0
-16 -1045 1042 0
-16 1045 -1040 -1042 0
-17 -1045 1040 0
-17 -1045 1043 0
-17 1045 -1040 -1043 0
-18 -1045 1040 0
-18 1045 -1040 0
-19 -1045 1040 0
-19 1045 -1040 0
-20 -1045 1040 0
-20 1045 -1040 0
-82 -1045 1040 0
-82 1045 -1040 0
-11 -1046 1041 0
-11 1046 -1041 0
-12 -1041 1046 0
-12 -1039 1046 0
-12 -1046 1041 1039 0
-13 -1046 1041 0
-13 1046 -1041 0
-14 -1046 1041 0
-14 1046 -1041 0
-15 -1041 1046 0
-15 -1040 1046 0
-15 -1046 1041 1040 0
-16 -1046 1041 0
-16 1046 -1041 0
-17 -1046 1041 0
-17 1046 -1041 0
-18 -1046 1041 0
-18 -1046 1042 0
-18 1046 -1041 -1042 0
-19 -1046 1041 0
-19 -1046 1043 0
-19 1046 -1041 -1043 0
-20 -1046 1041 0
-20 1046 -1041 0
-82 -1046 1041 0
-82 1046 -1041 0
-11 -1047 1042 0
-11 1047 -1042 0
-12 -1047 1042 0
-12 1047 -1042 0
-13 -1042 1047 0
-13 -1039 1047 0
-13 -1047 1042 1039 0
-14 -1047 1042 0
-14 1047 -1042 0
-15 -1047 1042 0
-15 1047 -1042 0
-16 -1042 1047 0
-16 -1040 1047 0
-16 -1047 1042 1040 0
-17 -1047 1042 0
-17 1047 -1042 0
-18 -1042 1047 0
-18 -1041 1047 0
-18 -1047 1042 1041 0
-19 -1047 1042 0
-19 1047 -1042 0
-20 -1047 1042 0
-20 -1047 1043 0
-20 1047 -1042 -1043 0
-82 -1047 1042 0
-82 1047 -1042 0
-11 -1048 1043 0
-11 1048 -1043 0
-12 -1048 1043 0
-12 1048 -1043 0
-13 -1048 1043 0
-13 1048 -1043 0
-14 -1043 1048 0
-14 -1039 1048 0
-14 -1048 1043 1039 0
-15 -1048 1043 0
-15 1048 -1043 0
-16 -1048 1043 0
-16 1048 -1043 0
-17 -1043 1048 0
-17 -1040 1048 0
-17 -1048 1043 1040 0
-18 -1048 1043 0
-18 1048 -1043 0
-19 -1043 1048 0
-19 -1041 1048 0
-19 -1048 1043 1041 0
-20 -1043 1048 0
-20 -1042 1048 0
-20 -1048 1043 1042 0
-82 -1048 1043 0
-82 1048 -1043 0
-21 -1049 1044 0
-21 -1049 1045 0
-21 1049 -1044 -1045 0
-22 -1049 1044 0
-22 -1049 1046 0
-22 1049 -1044 -1046 0
-23 -1049 1044 0
-23 -1049 1047 0
-23 1049 -1044 -1047 0
-24 -1049 1044 0
-24 -1049 1048 0
-24 1049 -1044 -1048 0
-25 -1049 1044 0
-25 1049 -1044 0
-26 -1049 1044 0
-26 1049 -1044 0
-27 -1049 1044 0
-27 1049 -1044 0
-28 -1049 1044 0
-28 1049 -1044 0
-29 -1049 1044 0
-29 1049 -1044 0
-30 -1049 1044 0
-30 1049 -1044 0
-83 -1049 1044 0
-83 1049 -1044 0
-21 -1045 1050 0
-21 -1044 1050 0
-21 -1050 1045 1044 0
-22 -1050 1045 0
-22 1050 -1045 0
-23 -1050 1045 0
-23 1050 -1045 0
-24 -1050 1045 0
-24 1050 -1045 0
-25 -1050 1045 0
-25 -1050 1046 0
-25 1050 -1045 -1046 0
-26 -1050 1045 0
-26 -1050 1047 0
-26 1050 -1045 -1047 0
-27 -1050 1045 0
-27 -1050 1048 0
-27 1050 -1045 -1048 0
-28 -1050 1045 0
-28 1050 -1045 0
-29 -1050 1045 0
-29 1050 -1045 0
-30 -1050 1045 0
-30 1050 -1045 0
-83 -1050 1045 0
-83 1050 -1045 0
-21 -1051 1046 0
-21 1051 -1046 0
-22 -1046 1051 0
-22 -1044 1051 0
-22 -1051 1046 1044 0
-23 -1051 1046 0
-23 1051 -1046 0
-24 -1051 1046 0
-24 1051 -1046 0
-25 -1046 1051 0
-25 -1045 1051 0
-25 -1051 1046 1045 0
-26 -1051 1046 0
-26 1051 -1046 0
-27 -1051 1046 0
-27 1051 -1046 0
-28 -1051 1046 0
-28 -1051 1047 0
-28 1051 -1046 -1047 0
-29 -1051 1046 0
-29 -1051 1048 0
-29 1051 -1046 -1048 0
-30 -1051 1046 0
-30 1051 -1046 0
-83 -1051 1046 0
-83 1051 -1046 0
-21 -1052 1047 0
-21 1052 -1047 0
-22 -1052 1047 0
-22 1052 -1047 0
-23 -1047 1052 0
-23 -1044 1052 0
-23 -1052 1047 1044 0
-24 -1052 1047 0
-24 1052 -1047 0
-25 -1052 1047 0
-25 1052 -1047 0
-26 -1047 1052 0
-26 -1045 1052 0
-26 -1052 1047 1045 0
-27 -1052 1047 0
-27 1052 -1047 0
-28 -1047 1052 0
-28 -1046 1052 0
-28 -1052 1047 1046 0
-29 -1052 1047 0
-29 1052 -1047 0
-30 -1052 1047 0
-30 -1052 1048 0
-30 1052 -1047 -1048 0
-83 -1052 1047 0
-83 1052 -1047 0
-21 -1053 1048 0
-21 1053 -1048 0
-22 -1053 1048 0
-22 1053 -1048 0
-23 -1053 1048 0
-23 1053 -1048 0
-24 -1048 1053 0
-24 -1044 1053 0
-24 -1053 1048 1044 0
-25 -1053 1048 0
-25 1053 -1048 0
-26 -1053 1048 0
-26 1053 -1048 0
-27 -1048 1053 0
-27 -1045 1053 0
-27 -1053 1048 1045 0
-28 -1053 1048 0
-28 1053 -1048 0
-29 -1048 1053 0
-29 -1046 1053 0
-29 -1053 1048 1046 0
-30 -1048 1053 0
-30 -1047 1053 0
-30 -1053 1048 1047 0
-83 -1053 1048 0
-83 1053 -1048 0
-31 -1054 1049 0
-31 -1054 1050 0
-31 1054 -1049 -1050 0
-32 -1054 1049 0
-32 -1054 1051 0
-32 1054 -1049 -1051 0
-33 -1054 1049 0
-33 -1054 1052 0
-33 1054 -1049 -1052 0
-34 -1054 1049 0
-34 -1054 1053 0
-34 1054 -1049 -1053 0
-35 -1054 1049 0
-35 1054 -1049 0
-36 -1054 1049 0
-36 1054 -1049 0
-37 -1054 1049 0
-37 1054 -1049 0
-38 -1054 1049 0
-38 1054 -1049 0
-39 -1054 1049 0
-39 1054 -1049 0
-40 -1054 1049 0
-40 1054 -1049 0
-84 -1054 1049 0
-84 1054 -1049 0
-31 -1050 1055 0
-31 -1049 1055 0
-31 -1055 1050 1049 0
-32 -1055 1050 0
-32 1055 -1050 0
-33 -1055 1050 0
-33 1055 -1050 0
-34 -1055 1050 0
-34 1055 -1050 0
-35 -1055 1050 0
-35 -1055 1051 0
-35 1055 -1050 -1051 0
-36 -1055 1050 0
-36 -1055 1052 0
-36 1055 -1050 -1052 0
-37 -1055 1050 0
-37 -1055 1053 0
-37 1055 -1050 -1053 0
-38 -1055 1050 0
-38 1055 -1050 0
-39 -1055 1050 0
-39 1055 -1050 0
-40 -1055 1050 0
-40 1055 -1050 0
-84 -1055 1050 0
-84 1055 -1050 0
-31 -1056 1051 0
-31 1056 -1051 0
-32 -1051 1056 0
-32 -1049 1056 0
-32 -1056 1051 1049 0
-33 -1056 1051 0
-33 1056 -1051 0
-34 -1056 1051 0
-34 1056 -1051 0
-35 -1051 1056 0
-35 -1050 1056 0
-35 -1056 1051 1050 0
-36 -1056 1051 0
-36 1056 -1051 0
-37 -1056 1051 0
-37 1056 -1051 0
-38 -1056 1051 0
-38 -1056 1052 0
-38 1056 -1051 -1052 0
-39 -1056 1051 0
-39 -1056 1053 0
-39 1056 -1051 -1053 0
-40 -1056 1051 0
-40 1056 -1051 0
-84 -1056 1051 0
-84 1056 -1051 0
-31 -1057 1052 0
-31 1057 -1052 0
-32 -1057 1052 0
-32 1057 -1052 0
-33 -1052 1057 0
-33 -1049 1057 0
-33 -1057 1052 1049 0
-34 -1057 1052 0
-34 1057 -1052 0
-35 -1057 1052 0
-35 1057 -1052 0
-36 -1052 1057 0
-36 -1050 1057 0
-36 -1057 1052 1050 0
-37 -1057 1052 0
-37 1057 -1052 0
-38 -1052 1057 0
-38 -1051 1057 0
-38 -1057 1052 1051 0
-39 -1057 1052 0
-39 1057 -1052 0
-40 -1057 1052 0
-40 -1057 1053 0
-40 1057 -1052 -1053 0
-84 -1057 1052 0
-84 1057 -1052 0
-31 -1058 1053 0
-31 1058 -1053 0
-32 -1058 1053 0
-32 1058 -1053 0
-33 -1058 1053 0
-33 1058 -1053 0
-34 -1053 1058 0
-34 -1049 1058 0
-34 -1058 1053 1049 0
-35 -1058 1053 0
-35 1058 -1053 0
-36 -1058 1053 0
-36 1058 -1053 0
-37 -1053 1058 0
-37 -1050 1058 0
-37 -1058 1053 1050 0
-38 -1058 1053 0
-38 1058 -1053 0
-39 -1053 1058 0
-39 -1051 1058 0
-39 -1058 1053 1051 0
-40 -1053 1058 0
-40 -1052 1058 0
-40 -1058 1053 1052 0
-84 -1058 1053 0
-84 1058 -1053 0
-41 -1059 1054 0
-41 -1059 1055 0
-41 1059 -1054 -1055 0
-42 -1059 1054 0
-42 -1059 1056 0
-42 1059 -1054 -1056 0
-43 -1059 1054 0
-43 -1059 1057 0
-43 1059 -1054 -1057 0
-44 -1059 1054 0
-44 -1059 1058 0
-44 1059 -1054 -1058 0
-45 -1059 1054 0
-45 1059 -1054 0
-46 -1059 1054 0
-46 1059 -1054 0
-47 -1059 1054 0
-47 1059 -1054 0
-48 -1059 1054 0
-48 1059 -1054 0
-49 -1059 1054 0
-49 1059 -1054 0
-50 -1059 1054 0
-50 1059 -1054 0
-85 -1059 1054 0
-85 1059 -1054 0
-41 -1055 1060 0
-41 -1054 1060 0
-41 -1060 1055 1054 0
-42 -1060 1055 0
-42 1060 -1055 0
-43 -1060 1055 0
-43 1060 -1055 0
-44 -1060 1055 0
-44 1060 -1055 0
-45 -1060 1055 0
-45 -1060 1056 0
-45 1060 -1055 -1056 0
-46 -1060 1055 0
-46 -1060 1057 0
-46 1060 -1055 -1057 0
-47 -1060 1055 0
-47 -1060 1058 0
-47 1060 -1055 -1058 0
-48 -1060 1055 0
-48 1060 -1055 0
-49 -1060 1055 0
-49 1060 -1055 0
-50 -1060 1055 0
-50 1060 -1055 0
-85 -1060 1055 0
-85 1060 -1055 0
-41 -1061 1056 0
-41 1061 -1056 0
-42 -1056 1061 0
-42 -1054 1061 0
-42 -1061 1056 1054 0
-43 -1061 1056 0
-43 1061 -1056 0
-44 -1061 1056 0
-44 1061 -1056 0
-45 -1056 1061 0
-45 -1055 1061 0
-45 -1061 1056 1055 0
-46 -1061 1056 0
-46 1061 -1056 0
-47 -1061 1056 0
-47 1061 -1056 0
-48 -1061 1056 0
-48 -1061 1057 0
-48 1061 -1056 -1057 0
-49 -1061 1056 0
-49 -1061 1058 0
-49 1061 -1056 -1058 0
-50 -1061 1056 0
-50 1061 -1056 0
-85 -1061 1056 0
-85 1061 -1056 0
-41 -1062 1057 0
-41 1062 -1057 0
-42 -1062 1057 0
-42 1062 -1057 0
-43 -1057 1062 0
-43 -1054 1062 0
-43 -1062 1057 1054 0
-44 -1062 1057 0
-44 1062 -1057 0
-45 -1062 1057 0
-45 1062 -1057 0
-46 -1057 1062 0
-46 -1055 1062 0
-46 -1062 1057 1055 0
-47 -1062 1057 0
-47 1062 -1057 0
-48 -1057 1062 0
-48 -1056 1062 0
-48 -1062 1057 1056 0
-49 -1062 1057 0
-49 1062 -1057 0
-50 -1062 1057 0
-50 -1062 1058 0
-50 1062 -1057 -1058 0
-85 -1062 1057 0
-85 1062 -1057 0
-41 -1063 1058 0
-41 1063 -1058 0
-42 -1063 1058 0
-42 1063 -1058 0
-43 -1063 1058 0
-43 1063 -1058 0
-44 -1058 1063 0
-44 -1054 1063 0
-44 -1063 1058 1054 0
-45 -1063 1058 0
-45 1063 -1058 0
-46 -1063 1058 0
-46 1063 -1058 0
-47 -1058 1063 0
-47 -1055 1063 0
-47 -1063 1058 1055 0
-48 -1063 1058 0
-48 1063 -1058 0
-49 -1058 1063 0
-49 -1056 1063 0
-49 -1063 1058 1056 0
-50 -1058 1063 0
-50 -1057 1063 0
-50 -1063 1058 1057 0
-85 -1063 1058 0
-85 1063 -1058 0
-51 -1064 1059 0
-51 -1064 1060 0
-51 1064 -1059 -1060 0
-52 -1064 1059 0
-52 -1064 1061 0
-52 1064 -1059 -1061 0
-53 -1064 1059 0
-53 -1064 1062 0
-53 1064 -1059 -1062 0
-54 -1064 1059 0
-54 -1064 1063 0
-54 1064 -1059 -1063 0
-55 -1064 1059 0
-55 1064 -1059 0
-56 -1064 1059 0
-56 1064 -1059 0
-57 -1064 1059 0
-57 1064 -1059 0
-58 -1064 1059 0
-58 1064 -1059 0
-59 -1064 1059 0
-59 1064 -1059 0
-60 -1064 1059 0
-60 1064 -1059 0
-86 -1064 1059 0
-86 1064 -1059 0
-51 -1060 1065 0
-51 -1059 1065 0
-51 -1065 1060 1059 0
-52 -1065 1060 0
-52 1065 -1060 0
-53 -1065 1060 0
-53 1065 -1060 0
-54 -1065 1060 0
-54 1065 -1060 0
-55 -1065 1060 0
-55 -1065 1061 0
-55 1065 -1060 -1061 0
-56 -1065 1060 0
-56 -1065 1062 0
-56 1065 -1060 -1062 0
-57 -1065 1060 0
-57 -1065 1063 0
-57 1065 -1060 -1063 0
-58 -1065 1060 0
-58 1065 -1060 0
-59 -1065 1060 0
-59 1065 -1060 0
-60 -1065 1060 0
-60 1065 -1060 0
-86 -1065 1060 0
-86 1065 -1060 0
-51 -1066 1061 0
-51 1066 -1061 0
-52 -1061 1066 0
-52 -1059 1066 0
-52 -1066 1061 1059 0
-53 -1066 1061 0
-53 1066 -1061 0
-54 -1066 1061 0
-54 1066 -1061 0
-55 -1061 1066 0
-55 -1060 1066 0
-55 -1066 1061 1060 0
-56 -1066 1061 0
-56 1066 -1061 0
-57 -1066 1061 0
-57 1066 -1061 0
-58 -1066 1061 0
-58 -1066 1062 0
-58 1066 -1061 -1062 0
-59 -1066 1061 0
-59 -1066 1063 0
-59 1066 -1061 -1063 0
-60 -1066 1061 0
-60 1066 -1061 0
-86 -1066 1061 0
-86 1066 -1061 0
-51 -1067 1062 0
-51 1067 -1062 0
-52 -1067 1062 0
-52 1067 -1062 0
-53 -1062 1067 0
-53 -1059 1067 0
-53 -1067 1062 1059 0
-54 -1067 1062 0
-54 1067 -1062 0
-55 -1067 1062 0
-55 1067 -1062 0
-56 -1062 1067 0
-56 -1060 1067 0
-56 -1067 1062 1060 0
-57 -1067 1062 0
-57 1067 -1062 0
-58 -1062 1067 0
-58 -1061 1067 0
-58 -1067 1062 1061 0
-59 -1067 1062 0
-59 1067 -1062 0
-60 -1067 1062 0
-60 -1067 1063 0
-60 1067 -1062 -1063 0
-86 -1067 1062 0
-86 1067 -1062 0
-51 -1068 1063 0
-51 1068 -1063 0
-52 -1068 1063 0
-52 1068 -1063 0
-53 -1068 1063 0
-53 1068 -1063 0
-54 -1063 1068 0
-54 -1059 1068 0
-54 -1068 1063 1059 0
-55 -1068 1063 0
-55 1068 -1063 0
-56 -1068 1063 0
-56 1068 -1063 0
-57 -1063 1068 0
-57 -1060 1068 0
-57 -1068 1063 1060 0
-58 -1068 1063 0
-58 1068 -1063 0
-59 -1063 1068 0
-59 -1061 1068 0
-59 -1068 1063 1061 0
-60 -1063 1068 0
-60 -1062 1068 0
-60 -1068 1063 1062 0
-86 -1068 1063 0
-86 1068 -1063 0
-61 -1069 1064 0
-61 -1069 1065 0
-61 1069 -1064 -1065 0
-62 -1069 1064 0
-62 -1069 1066 0
-62 1069 -1064 -1066 0
-63 -1069 1064 0
-63 -1069 1067 0
-63 1069 -1064 -1067 0
-64 -1069 1064 0
-64 -1069 1068 0
-64 1069 -1064 -1068 0
-65 -1069 1064 0
-65 1069 -1064 0
-66 -1069 1064 0
-66 1069 -1064 0
-67 -1069 1064 0
-67 1069 -1064 0
-68 -1069 1064 0
-68 1069 -1064 0
-69 -1069 1064 0
-69 1069 -1064 0
-70 -1069 1064 0
-70 1069 -1064 0
-87 -1069 1064 0
-87 1069 -1064 0
-61 -1065 1070 0
-61 -1064 1070 0
-61 -1070 1065 1064 0
-62 -1070 1065 0
-62 1070 -1065 0
-63 -1070 1065 0
-63 1070 -1065 0
-64 -1070 1065 0
-64 1070 -1065 0
-65 -1070 1065 0
-65 -1070 1066 0
-65 1070 -1065 -1066 0
-66 -1070 1065 0
-66 -1070 1067 0
-66 1070 -1065 -1067 0
-67 -1070 1065 0
-67 -1070 1068 0
-67 1070 -1065 -1068 0
-68 -1070 1065 0
-68 1070 -1065 0
-69 -1070 1065 0
-69 1070 -1065 0
-70 -1070 1065 0
-70 1070 -1065 0
-87 -1070 1065 0
-87 1070 -1065 0
-61 -1071 1066 0
-61 1071 -1066 0
-62 -1066 1071 0
-62 -1064 1071 0
-62 -1071 1066 1064 0
-63 -1071 1066 0
-63 1071 -1066 0
-64 -1071 1066 0
-64 1071 -1066 0
-65 -1066 1071 0
-65 -1065 1071 0
-65 -1071 1066 1065 0
-66 -1071 1066 0
-66 1071 -1066 0
-67 -1071 1066 0
-67 1071 -1066 0
-68 -1071 1066 0
-68 -1071 1067 0
-68 1071 -1066 -1067 0
-69 -1071 1066 0
-69 -1071 1068 0
-69 1071 -1066 -1068 0
-70 -1071 1066 0
-70 1071 -1066 0
-87 -1071 1066 0
-87 1071 -1066 0
-61 -1072 1067 0
-61 1072 -1067 0
-62 -1072 1067 0
-62 1072 -1067 0
-63 -1067 1072 0
-63 -1064 1072 0
-63 -1072 1067 1064 0
-64 -1072 1067 0
-64 1072 -1067 0
-65 -1072 1067 0
-65 1072 -1067 0
-66 -1067 1072 0
-66 -1065 1072 0
-66 -1072 1067 1065 0
-67 -1072 1067 0
-67 1072 -1067 0
-68 -1067 1072 0
-68 -1066 1072 0
-68 -1072 1067 1066 0
-69 -1072 1067 0
-69 1072 -1067 0
-70 -1072 1067 0
-70 -1072 1068 0
-70 1072 -1067 -1068 0
-87 -1072 1067 0
-87 1072 -1067 0
-61 -1073 1068 0
-61 1073 -1068 0
-62 -1073 1068 0
-62 1073 -1068 0
-63 -1073 1068 0
-63 1073 -1068 0
-64 -1068 1073 0
-64 -1064 1073 0
-64 -1073 1068 1064 0
-65 -1073 1068 0
-65 1073 -1068 0
-66 -1073 1068 0
-66 1073 -1068 0
-67 -1068 1073 0
-67 -1065 1073 0
-67 -1073 1068 1065 0
-68 -1073 1068 0
-68 1073 -1068 0
-69 -1068 1073 0
-69 -1066 1073 0
-69 -1073 1068 1066 0
-70 -1068 1073 0
-70 -1067 1073 0
-70 -1073 1068 1067 0
-87 -1073 1068 0
-87 1073 -1068 0
-71 -1074 1069 0
-71 -1074 1070 0
-71 1074 -1069 -1070 0
-72 -1074 1069 0
-72 -1074 1071 0
-72 1074 -1069 -1071 0
-73 -1074 1069 0
-73 -1074 1072 0
-73 1074 -1069 -1072 0
-74 -1074 1069 0
-74 -1074 1073 0
-74 1074 -1069 -1073 0
-75 -1074 1069 0
-75 1074 -1069 0
-76 -1074 1069 0
-76 1074 -1069 0
-77 -1074 1069 0
-77 1074 -1069 0
-78 -1074 1069 0
-78 1074 -1069 0
-79 -1074 1069 0
-79 1074 -1069 0
-80 -1074 1069 0
-80 1074 -1069 0
-88 -1074 1069 0
-88 1074 -1069 0
-71 -1070 1075 0
-71 -1069 1075 0
-71 -1075 1070 1069 0
-72 -1075 1070 0
-72 1075 -1070 0
-73 -1075 1070 0
-73 1075 -1070 0
-74 -1075 1070 0
-74 1075 -1070 0
-75 -1075 1070 0
-75 -1075 1071 0
-75 1075 -1070 -1071 0
-76 -1075 1070 0
-76 -1075 1072 0
-76 1075 -1070 -1072 0
-77 -1075 1070 0
-77 -1075 1073 0
-77 1075 -1070 -1073 0
-78 -1075 1070 0
-78 1075 -1070 0
-79 -1075 1070 0
-79 1075 -1070 0
-80 -1075 1070 0
-80 1075 -1070 0
-88 -1075 1070 0
-88 1075 -1070 0
-71 -1076 1071 0
-71 1076 -1071 0
-72 -1071 1076 0
-72 -1069 1076 0
-72 -1076 1071 1069 0
-73 -1076 1071 0
-73 1076 -1071 0
-74 -1076 1071 0
-74 1076 -1071 0
-75 -1071 1076 0
-75 -1070 1076 0
-75 -1076 1071 1070 0
-76 -1076 1071 0
-76 1076 -1071 0
-77 -1076 1071 0
-77 1076 -1071 0
-78 -1076 1071 0
-78 -1076 1072 0
-78 1076 -1071 -1072 0
-79 -1076 1071 0
-79 -1076 1073 0
-79 1076 -1071 -1073 0
-80 -1076 1071 0
-80 1076 -1071 0
-88 -1076 1071 0
-88 1076 -1071 0
-71 -1077 1072 0
-71 1077 -1072 0
-72 -1077 1072 0
-72 1077 -1072 0
-73 -1072 1077 0
-73 -1069 1077 0
-73 -1077 1072 1069 0
-74 -1077 1072 0
-74 1077 -1072 0
-75 -1077 1072 0
-75 1077 -1072 0
-76 -1072 1077 0
-76 -1070 1077 0
-76 -1077 1072 1070 0
-77 -1077 1072 0
-77 1077 -1072 0
-78 -1072 1077 0
-78 -1071 1077 0
-78 -1077 1072 1071 0
-79 -1077 1072 0
-79 1077 -1072 0
-80 -1077 1072 0
-80 -1077 1073 0
-80 1077 -1072 -1073 0
-88 -1077 1072 0
-88 1077 -1072 0
-71 -1078 1073 0
-71 1078 -1073 0
-72 -1078 1073 0
-72 1078 -1073 0
-73 -1078 1073 0
-73 1078 -1073 0
-74 -1073 1078 0
-74 -1069 1078 0
-74 -1078 1073 1069 0
-75 -1078 1073 0
-75 1078 -1073 0
-76 -1078 1073 0
-76 1078 -1073 0
-77 -1073 1078 0
-77 -1070 1078 0
-77 -1078 1073 1070 0
-78 -1078 1073 0
-78 1078 -1073 0
-79 -1073 1078 0
-79 -1071 1078 0
-79 -1078 1073 1071 0
-80 -1073 1078 0
-80 -1072 1078 0
-80 -1078 1073 1072 0
-88 -1078 1073 0
-88 1078 -1073 0
1079 0
-1 -1084 1079 0
-1 -1084 1080 0
-1 1084 -1079 -1080 0
-2 -1084 1079 0
-2 -1084 1081 0
-2 1084 -1079 -1081 0
-3 -1084 1079 0
-3 -1084 1082 0
-3 1084 -1079 -1082 0
-4 -1084 1079 0
-4 -1084 1083 0
-4 1084 -1079 -1083 0
-5 -1084 1079 0
-5 1084 -1079 0
-6 -1084 1079 0
-6 1084 -1079 0
-7 -1084 1079 0
-7 1084 -1079 0
-8 -1084 1079 0
-8 1084 -1079 0
-9 -1084 1079 0
-9 1084 -1079 0
-10 -1084 1079 0
-10 1084 -1079 0
-81 -1084 1079 0
-81 1084 -1079 0
1080 0
-1 -1080 1085 0
-1 -1079 1085 0
-1 -1085 1080 1079 0
-2 -1085 1080 0
-2 1085 -1080 0
-3 -1085 1080 0
-3 1085 -1080 0
-4 -1085 1080 0
-4 1085 -1080 0
-5 -1085 1080 0
-5 -1085 1081 0
-5 1085 -1080 -1081 0
-6 -1085 1080 0
-6 -1085 1082 0
-6 1085 -1080 -1082 0
-7 -1085 1080 0
-7 -1085 1083 0
-7 1085 -1080 -1083 0
-8 -1085 1080 0
-8 1085 -1080 0
-9 -1085 1080 0
-9 1085 -1080 0
-10 -1085 1080 0
-10 1085 -1080 0
-81 -1085 1080 0
-81 1085 -1080 0
-1081 0
-1 -1086 1081 0
-1 1086 -1081 0
-2 -1081 1086 0
-2 -1079 1086 0
-2 -1086 1081 1079 0
-3 -1086 1081 0
-3 1086 -1081 0
-4 -1086 1081 0
-4 1086 -1081 0
-5 -1081 1086 0
-5 -1080 1086 0
-5 -1086 1081 1080 0
-6 -1086 1081 0
-6 1086 -1081 0
-7 -1086 1081 0
-7 1086 -1081 0
-8 -1086 1081 0
-8 -1086 1082 0
-8 1086 -1081 -1082 0
-9 -1086 1081 0
-9 -1086 1083 0
-9 1086 -1081 -1083 0
-10 -1086 1081 0
-10 1086 -1081 0
-81 -1086 1081 0
-81 1086 -1081 0
1082 0
-1 -1087 1082 0
-1 1087 -1082 0
-2 -1087 1082 0
-2 1087 -1082 0
-3 -1082 1087 0
-3 -1079 1087 0
-3 -1087 1082 1079 0
-4 -1087 1082 0
-4 1087 -1082 0
-5 -1087 1082 0
-5 1087 -1082 0
-6 -1082 1087 0
-6 -1080 1087 0
-6 -1087 1082 1080 0
-7 -1087 1082 0
-7 1087 -1082 0
-8 -1082 1087 0
-8 -1081 1087 0
-8 -1087 1082 1081 0
-9 -1087 1082 0
-9 1087 -1082 0
-10 -1087 1082 0
-10 -1087 1083 0
-10 1087 -1082 -1083 0
-81 -1087 1082 0
-81 1087 -1082 0
1083 0
-1 -1088 1083 0
-1 1088 -1083 0
-2 -1088 1083 0
-2 1088 -1083 0
-3 -1088 1083 0
-3 1088 -1083 0
-4 -1083 1088 0
-4 -1079 1088 0
-4 -1088 1083 1079 0
-5 -1088 1083 0
-5 1088 -1083 0
-6 -1088 1083 0
-6 1088 -1083 0
-7 -1083 1088 0
-7 -1080 1088 0
-7 -1088 1083 1080 0
-8 -1088 1083 0
-8 1088 -1083 0
-9 -1083 1088 0
-9 -1081 1088 0
-9 -1088 1083 1081 0
-10 -1083 1088 0
-10 -1082 1088 0
-10 -1088 1083 1082 0
-81 -1088 1083 0
-81 1088 -1083 0
-11 -1089 1084 0
-11 -1089 1085 0
-11 1089 -1084 -1085 0
-12 -1089 1084 0
-12 -1089 1086 0
-12 1089 -1084 -1086 0
-13 -1089 1084 0
-13 -1089 1087 0
-13 1089 -1084 -1087 0
-14 -1089 1084 0
-14 -1089 1088 0
-14 1089 -1084 -1088 0
-15 -1089 1084 0
-15 1089 -1084 0
-16 -1089 1084 0
-16 1089 -1084 0
-17 -1089 1084 0
-17 1089 -1084 0
-18 -1089 1084 0
-18 1089 -1084 0
-19 -1089 1084 0
-19 1089 -1084 0
-20 -1089 1084 0
-20 1089 -1084 0
-82 -1089 1084 0
-82 1089 -1084 0
-11 -1085 1090 0
-11 -1084 1090 0
-11 -1090 1085 1084 0
-12 -1090 1085 0
-12 1090 -1085 0
-13 -1090 1085 0
-13 1090 -1085 0
-14 -1090 1085 0
-14 1090 -1085 0
-15 -1090 1085 0
-15 -1090 1086 0
-15 1090 -1085 -1086 0
-16 -1090 1085 0
-16 -1090 1087 0
-16 1090 -1085 -1087 0
-17 -1090 1085 0
-17 -1090 1088 0
-17 1090 -1085 -1088 0
-18 -1090 1085 0
-18 1090 -1085 0
-19 -1090 1085 0
-19 1090 -1085 0
-20 -1090 1085 0
-20 1090 -1085 0
-82 -1090 1085 0
-82 1090 -1085 0
-11 -1091 1086 0
-11 1091 -1086 0
-12 -1086 1091 0
-12 -1084 1091 0
-12 -1091 1086 1084 0
-13 -1091 1086 0
-13 1091 -1086 0
-14 -1091 1086 0
-14 1091 -1086 0
-15 -1086 1091 0
-15 -1085 1091 0
-15 -1091 1086 1085 0
-16 -1091 1086 0
-16 1091 -1086 0
-17 -1091 1086 0
-17 1091 -1086 0
-18 -1091 1086 0
-18 -1091 1087 0
-18 1091 -1086 -1087 0
-19 -1091 1086 0
-19 -1091 1088 0
-19 1091 -1086 -1088 0
-20 -1091 1086 0
-20 1091 -1086 0
-82 -1091 1086 0
-82 1091 -1086 0
-11 -1092 1087 0
-11 1092 -1087 0
-12 -1092 1087 0
-12 1092 -1087 0
-13 -1087 1092 0
-13 -1084 1092 0
-13 -1092 1087 1084 0
-14 -1092 1087 0
-14 1092 -1087 0
-15 -1092 1087 0
-15 1092 -1087 0
-16 -1087 1092 0
-16 -1085 1092 0
-16 -1092 1087 1085 0
-17 -1092 1087 0
-17 1092 -1087 0
-18 -1087 1092 0
-18 -1086 1092 0
-18 -1092 1087 1086 0
-19 -1092 1087 0
-19 1092 -1087 0
-20 -1092 1087 0
-20 -1092 1088 0
-20 1092 -1087 -1088 0
-82 -1092 1087 0
-82 1092 -1087 0
-11 -1093 1088 0
-11 1093 -1088 0
-12 -1093 1088 0
-12 1093 -1088 0
-13 -1093 1088 0
-13 1093 -1088 0
-14 -1088 1093 0
-14 -1084 1093 0
-14 -1093 1088 1084 0
-15 -1093 1088 0
-15 1093 -1088 0
-16 -1093 1088 0
-16 1093 -1088 0
-17 -1088 1093 0
-17 -1085 1093 0
-17 -1093 1088 1085 0
-18 -1093 1088 0
-18 1093 -1088 0
-19 -1088 1093 0
-19 -1086 1093 0
-19 -1093 1088 1086 0
-20 -1088 1093 0
-20 -1087 1093 0
-20 -1093 1088 1087 0
-82 -1093 1088 0
-82 1093 -1088 0
-21 -1094 1089 0
-21 -1094 1090 0
-21 1094 -1089 -1090 0
-22 -1094 1089 0
-22 -1094 1091 0
-22 1094 -1089 -1091 0
-23 -1094 1089 0
-23 -1094 1092 0
-23 1094 -1089 -1092 0
-24 -1094 1089 0
-24 -1094 1093 0
-24 1094 -1089 -1093 0
-25 -1094 1089 0
-25 1094 -1089 0
-26 -1094 1089 0
-26 1094 -1089 0
-27 -1094 1089 0
-27 1094 -1089 0
-28 -1094 1089 0
-28 1094 -1089 0
-29 -1094 1089 0
-29 1094 -1089 0
-30 -1094 1089 0
-30 1094 -1089 0
-83 -1094 1089 0
-83 1094 -1089 0
-21 -1090 1095 0
-21 -1089 1095 0
-21 -1095 1090 1089 0
-22 -1095 1090 0
-22 1095 -1090 0
-23 -1095 1090 0
-23 1095 -1090 0
-24 -1095 1090 0
-24 1095 -1090 0
-25 -1095 1090 0
-25 -1095 1091 0
-25 1095 -1090 -1091 0
-26 -1095 1090 0
-26 -1095 1092 0
-26 1095 -1090 -1092 0
-27 -1095 1090 0
-27 -1095 1093 0
-27 1095 -1090 -1093 0
-28 -1095 1090 0
-28 1095 -1090 0
-29 -1095 1090 0
-29 1095 -1090 0
-30 -1095 1090 0
-30 1095 -1090 0
-83 -1095 1090 0
-83 1095 -1090 0
-21 -1096 1091 0
-21 1096 -1091 0
-22 -1091 1096 0
-22 -1089 1096 0
-22 -1096 1091 1089 0
-23 -1096 1091 0
-23 1096 -1091 0
-24 -1096 1091 0
-24 1096 -1091 0
-25 -1091 1096 0
-25 -1090 1096 0
-25 -1096 1091 1090 0
-26 -1096 1091 0
-26 1096 -1091 0
-27 -1096 1091 0
-27 1096 -1091 0
-28 -1096 1091 0
-28 -1096 1092 0
-28 1096 -1091 -1092 0
-29 -1096 1091 0
-29 -1096 1093 0
-29 1096 -1091 -1093 0
-30 -1096 1091 0
-30 1096 -1091 0
-83 -1096 1091 0
-83 1096 -1091 0
-21 -1097 1092 0
-21 1097 -1092 0
-22 -1097 1092 0
-22 1097 -1092 0
-23 -1092 1097 0
-23 -1089 1097 0
-23 -1097 1092 1089 0
-24 -1097 1092 0
-24 1097 -1092 0
-25 -1097 1092 0
-25 1097 -1092 0
-26 -1092 1097 0
-26 -1090 1097 0
-26 -1097 1092 1090 0
-27 -1097 1092 0
-27 1097 -1092 0
-28 -1092 1097 0
-28 -1091 1097 0
-28 -1097 1092 1091 0
-29 -1097 1092 0
-29 1097 -1092 0
-30 -1097 1092 0
-30 -1097 1093 0
-30 1097 -1092 -1093 0
-83 -1097 1092 0
-83 1097 -1092 0
-21 -1098 1093 0
-21 1098 -1093 0
-22 -1098 1093 0
-22 1098 -1093 0
-23 -1098 1093 0
-23 1098 -1093 0
-24 -1093 1098 0
-24 -1089 1098 0
-24 -1098 1093 1089 0
-25 -1098 1093 0
-25 1098 -1093 0
-26 -1098 1093 0
-26 1098 -1093 0
-27 -1093 1098 0
-27 -1090 1098 0
-27 -1098 1093 1090 0
-28 -1098 1093 0
-28 1098 -1093 0
-29 -1093 1098 0
-29 -1091 1098 0
-29 -1098 1093 1091 0
-30 -1093 1098 0
-30 -1092 1098 0
-30 -1098 1093 1092 0
-83 -1098 1093 0
-83 1098 -1093 0
-31 -1099 1094 0
-31 -1099 1095 0
-31 1099 -1094 -1095 0
-32 -1099 1094 0
-32 -1099 1096 0
-32 1099 -1094 -1096 0
-33 -1099 1094 0
-33 -1099 1097 0
-33 1099 -1094 -1097 0
-34 -1099 1094 0
-34 -1099 1098 0
-34 1099 -1094 -1098 0
-35 -1099 1094 0
-35 1099 -1094 0
-36 -1099 1094 0
-36 1099 -1094 0
-37 -1099 1094 0
-37 1099 -1094 0
-38 -1099 1094 0
-38 1099 -1094 0
-39 -1099 1094 0
-39 1099 -1094 0
-40 -1099 1094 0
-40 1099 -1094 0
-84 -1099 1094 0
-84 1099 -1094 0
-31 -1095 1100 0
-31 -1094 1100 0
-31 -1100 1095 1094 0
-32 -1100 1095 0
-32 1100 -1095 0
-33 -1100 1095 0
-33 1100 -1095 0
-34 -1100 1095 0
-34 1100 -1095 0
-35 -1100 1095 0
-35 -1100 1096 0
-35 1100 -1095 -1096 0
-36 -1100 1095 0
-36 -1100 1097 0
-36 1100 -1095 -1097 0
-37 -1100 1095 0
-37 -1100 1098 0
-37 1100 -1095 -1098 0
-38 -1100 1095 0
-38 1100 -1095 0
-39 -1100 1095 0
-39 1100 -1095 0
-40 -1100 1095 0
-40 1100 -1095 0
-84 -1100 1095 0
-84 1100 -1095 0
-31 -1101 1096 0
-31 1101 -1096 0
-32 -1096 1101 0
-32 -1094 1101 0
-32 -1101 1096 1094 0
-33 -1101 1096 0
-33 1101 -1096 0
-34 -1101 1096 0
-34 1101 -1096 0
-35 -1096 1101 0
-35 -1095 1101 0
-35 -1101 1096 1095 0
-36 -1101 1096 0
-36 1101 -1096 0
-37 -1101 1096 0
-37 1101 -1096 0
-38 -1101 1096 0
-38 -1101 1097 0
-38 1101 -1096 -1097 0
-39 -1101 1096 0
-39 -1101 1098 0
-39 1101 -1096 -1098 0
-40 -1101 1096 0
-40 1101 -1096 0
-84 -1101 1096 0
-84 1101 -1096 0
-31 -1102 1097 0
-31 1102 -1097 0
-32 -1102 1097 0
-32 1102 -1097 0
-33 -1097 1102 0
-33 -1094 1102 0
-33 -1102 1097 1094 0
-34 -1102 1097 0
-34 1102 -1097 0
-35 -1102 1097 0
-35 1102 -1097 0
-36 -1097 1102 0
-36 -1095 1102 0
-36 -1102 1097 1095 0
-37 -1102 1097 0
-37 1102 -1097 0
-38 -1097 1102 0
-38 -1096 1102 0
-38 -1102 1097 1096 0
-39 -1102 1097 0
-39 1102 -1097 0
-40 -1102 1097 0
-40 -1102 1098 0
-40 1102 -1097 -1098 0
-84 -1102 1097 0
-84 1102 -1097 0
-31 -1103 1098 0
-31 1103 -1098 0
-32 -1103 1098 0
-32 1103 -1098 0
-33 -1103 1098 0
-33 1103 -1098 0
-34 -1098 1103 0
-34 -1094 1103 0
-34 -1103 1098 1094 0
-35 -1103 1098 0
-35 1103 -1098 0
-36 -1103 1098 0
-36 1103 -1098 0
-37 -1098 1103 0
-37 -1095 1103 0
-37 -1103 1098 1095 0
-38 -1103 1098 0
-38 1103 -1098 0
-39 -1098 1103 0
-39 -1096 1103 0
-39 -1103 1098 1096 0
-40 -1098 1103 0
-40 -1097 1103 0
-40 -1103 1098 1097 0
-84 -1103 1098 0
-84 1103 -1098 0
-41 -1104 1099 0
-41 -1104 1100 0
-41 1104 -1099 -1100 0
-42 -1104 1099 0
-42 -1104 1101 0
-42 1104 -1099 -1101 0
-43 -1104 1099 0
-43 -1104 1102 0
-43 1104 -1099 -1102 0
-44 -1104 1099 0
-44 -1104 1103 0
-44 1104 -1099 -1103 0
-45 -1104 1099 0
-45 1104 -1099 0
-46 -1104 1099 0
-46 1104 -1099 0
-47 -1104 1099 0
-47 1104 -1099 0
-48 -1104 1099 0
-48 1104 -1099 0
-49 -1104 1099 0
-49 1104 -1099 0
-50 -1104 1099 0
-50 1104 -1099 0
-85 -1104 1099 0
-85 1104 -1099 0
-41 -1100 1105 0
-41 -1099 1105 0
-41 -1105 1100 1099 0
-42 -1105 1100 0
-42 1105 -1100 0
-43 -1105 1100 0
-43 1105 -1100 0
-44 -1105 1100 0
-44 1105 -1100 0
-45 -1105 1100 0
-45 -1105 1101 0
-45 1105 -1100 -1101 0
-46 -1105 1100 0
-46 -1105 1102 0
-46 1105 -1100 -1102 0
-47 -1105 1100 0
-47 -1105 1103 0
-47 1105 -1100 -1103 0
-48 -1105 1100 0
-48 1105 -1100 0
-49 -1105 1100 0
-49 1105 -1100 0
-50 -1105 1100 0
-50 1105 -1100 0
-85 -1105 1100 0
-85 1105 -1100 0
-41 -1106 1101 0
-41 1106 -1101 0
-42 -1101 1106 0
-42 -1099 1106 0
-42 -1106 1101 1099 0
-43 -1106 1101 0
-43 1106 -1101 0
-44 -1106 1101 0
-44 1106 -1101 0
-45 -1101 1106 0
-45 -1100 1106 0
-45 -1106 1101 1100 0
-46 -1106 1101 0
-46 1106 -1101 0
-47 -1106 1101 0
-47 1106 -1101 0
-48 -1106 1101 0
-48 -1106 1102 0
-48 1106 -1101 -1102 0
-49 -1106 1101 0
-49 -1106 1103 0
-49 1106 -1101 -1103 0
-50 -1106 1101 0
-50 1106 -1101 0
-85 -1106 1101 0
-85 1106 -1101 0
-41 -1107 1102 0
-41 1107 -1102 0
-42 -1107 1102 0
-42 1107 -1102 0
-43 -1102 1107 0
-43 -1099 1107 0
-43 -1107 1102 1099 0
-44 -1107 1102 0
-44 1107 -1102 0
-45 -1107 1102 0
-45 1107 -1102 0
-46 -1102 1107 0
-46 -1100 1107 0
-46 -1107 1102 1100 0
-47 -1107 1102 0
-47 1107 -1102 0
-48 -1102 1107 0
-48 -1101 1107 0
-48 -1107 1102 1101 0
-49 -1107 1102 0
-49 1107 -1102 0
-50 -1107 1102 0
-50 -1107 1103 0
-50 1107 -1102 -1103 0
-85 -1107 1102 0
-85 1107 -1102 0
-41 -1108 1103 0
-41 1108 -1103 0
-42 -1108 1103 0
-42 1108 -1103 0
-43 -1108 1103 0
-43 1108 -1103 0
-44 -1103 1108 0
-44 -1099 1108 0
-44 -1108 1103 1099 0
-45 -1108 1103 0
-45 1108 -1103 0
-46 -1108 1103 0
-46 1108 -1103 0
-47 -1103 1108 0
-47 -1100 1108 0
-47 -1108 1103 1100 0
-48 -1108 1103 0
-48 1108 -1103 0
-49 -1103 1108 0
-49 -1101 1108 0
-49 -1108 1103 1101 0
-50 -1103 1108 0
-50 -1102 1108 0
-50 -1108 1103 1102 0
-85 -1108 1103 0
-85 1108 -1103 0
-51 -1109 1104 0
-51 -1109 1105 0
-51 1109 -1104 -1105 0
-52 -1109 1104 0
-52 -1109 1106 0
-52 1109 -1104 -1106 0
-53 -1109 1104 0
-53 -1109 1107 0
-53 1109 -1104 -1107 0
-54 -1109 1104 0
-54 -1109 1108 0
-54 1109 -1104 -1108 0
-55 -1109 1104 0
-55 1109 -1104 0
-56 -1109 1104 0
-56 1109 -1104 0
-57 -1109 1104 0
-57 1109 -1104 0
-58 -1109 1104 0
-58 1109 -1104 0
-59 -1109 1104 0
-59 1109 -1104 0
-60 -1109 1104 0
-60 1109 -1104 0
-86 -1109 1104 0
-86 1109 -1104 0
-51 -1105 1110 0
-51 -1104 1110 0
-51 -1110 1105 1104 0
-52 -1110 1105 0
-52 1110 -1105 0
-53 -1110 1105 0
-53 1110 -1105 0
-54 -1110 1105 0
-54 1110 -1105 0
-55 -1110 1105 0
-55 -1110 1106 0
-55 1110 -1105 -1106 0
-56 -1110 1105 0
-56 -1110 1107 0
-56 1110 -1105 -1107 0
-57 -1110 1105 0
-57 -1110 1108 0
-57 1110 -1105 -1108 0
-58 -1110 1105 0
-58 1110 -1105 0
-59 -1110 1105 0
-59 1110 -1105 0
-60 -1110 1105 0
-60 1110 -1105 0
-86 -1110 1105 0
-86 1110 -1105 0
-51 -1111 1106 0
-51 1111 -1106 0
-52 -1106 1111 0
-52 -1104 1111 0
-52 -1111 1106 1104 0
-53 -1111 1106 0
-53 1111 -1106 0
-54 -1111 1106 0
-54 1111 -1106 0
-55 -1106 1111 0
-55 -1105 1111 0
-55 -1111 1106 1105 0
-56 -1111 1106 0
-56 1111 -1106 0
-57 -1111 1106 0
-57 1111 -1106 0
-58 -1111 1106 0
-58 -1111 1107 0
-58 1111 -1106 -1107 0
-59 -1111 1106 0
-59 -1111 1108 0
-59 1111 -1106 -1108 0
-60 -1111 1106 0
-60 1111 -1106 0
-86 -1111 1106 0
-86 1111 -1106 0
-51 -1112 1107 0
-51 1112 -1107 0
-52 -1112 1107 0
-52 1112 -1107 0
-53 -1107 1112 0
-53 -1104 1112 0
-53 -1112 1107 1104 0
-54 -1112 1107 0
-54 1112 -1107 0
-55 -1112 1107 0
-55 1112 -1107 0
-56 -1107 1112 0
-56 -1105 1112 0
-56 -1112 1107 1105 0
-57 -1112 1107 0
-57 1112 -1107 0
-58 -1107 1112 0
-58 -1106 1112 0
-58 -1112 1107 1106 0
-59 -1112 1107 0
-59 1112 -1107 0
-60 -1112 1107 0
-60 -1112 1108 0
-60 1112 -1107 -1108 0
-86 -1112 1107 0
-86 1112 -1107 0
-51 -1113 1108 0
-51 1113 -1108 0
-52 -1113 1108 0
-52 1113 -1108 0
-53 -1113 1108 0
-53 1113 -1108 0
-54 -1108 1113 0
-54 -1104 1113 0
-54 -1113 1108 1104 0
-55 -1113 1108 0
-55 1113 -1108 0
-56 -1113 1108 0
-56 1113 -1108 0
-57 -1108 1113 0
-57 -1105 1113 0
-57 -1113 1108 1105 0
-58 -1113 1108 0
-58 1113 -1108 0
-59 -1108 1113 0
-59 -1106 1113 0
-59 -1113 1108 1106 0
-60 -1108 1113 0
-60 -1107 1113 0
-60 -1113 1108 1107 0
-86 -1113 1108 0
-86 1113 -1108 0
-61 -1114 1109 0
-61 -1114 1110 0
-61 1114 -1109 -1110 0
-62 -1114 1109 0
-62 -1114 1111 0
-62 1114 -1109 -1111 0
-63 -1114 1109 0
-63 -1114 1112 0
-63 1114 -1109 -1112 0
-64 -1114 1109 0
-64 -1114 1113 0
-64 1114 -1109 -1113 0
-65 -1114 1109 0
-65 1114 -1109 0
-66 -1114 1109 0
-66 1114 -1109 0
-67 -1114 1109 0
-67 1114 -1109 0
-68 -1114 1109 0
-68 1114 -1109 0
-69 -1114 1109 0
-69 1114 -1109 0
-70 -1114 1109 0
-70 1114 -1109 0
-87 -1114 1109 0
-87 1114 -1109 0
-61 -1110 1115 0
-61 -1109 1115 0
-61 -1115 1110 1109 0
-62 -1115 1110 0
-62 1115 -1110 0
-63 -1115 1110 0
-63 1115 -1110 0
-64 -1115 1110 0
-64 1115 -1110 0
-65 -1115 1110 0
-65 -1115 1111 0
-65 1115 -1110 -1111 0
-66 -1115 1110 0
-66 -1115 1112 0
-66 1115 -1110 -1112 0
-67 -1115 1110 0
-67 -1115 1113 0
-67 1115 -1110 -1113 0
-68 -1115 1110 0
-68 1115 -1110 0
-69 -1115 1110 0
-69 1115 -1110 0
-70 -1115 1110 0
-70 1115 -1110 0
-87 -1115 1110 0
-87 1115 -1110 0
-61 -1116 1111 0
-61 1116 -1111 0
-62 -1111 1116 0
-62 -1109 1116 0
-62 -1116 1111 1109 0
-63 -1116 1111 0
-63 1116 -1111 0
-64 -1116 1111 0
-64 1116 -1111 0
-65 -1111 1116 0
-65 -1110 1116 0
-65 -1116 1111 1110 0
-66 -1116 1111 0
-66 1116 -1111 0
-67 -1116 1111 0
-67 1116 -1111 0
-68 -1116 1111 0
-68 -1116 1112 0
-68 1116 -1111 -1112 0
-69 -1116 1111 0
-69 -1116 1113 0
-69 1116 -1111 -1113 0
-70 -1116 1111 0
-70 1116 -1111 0
-87 -1116 1111 0
-87 1116 -1111 0
-61 -1117 1112 0
-61 1117 -1112 0
-62 -1117 1112 0
-62 1117 -1112 0
-63 -1112 1117 0
-63 -1109 1117 0
-63 -1117 1112 1109 0
-64 -1117 1112 0
-64 1117 -1112 0
-65 -1117 1112 0
-65 1117 -1112 0
-66 -1112 1117 0
-66 -1110 1117 0
-66 -1117 1112 1110 0
-67 -1117 1112 0
-67 1117 -1112 0
-68 -1112 1117 0
-68 -1111 1117 0
-68 -1117 1112 1111 0
-69 -1117 1112 0
-69 1117 -1112 0
-70 -1117 1112 0
-70 -1117 1113 0
-70 1117 -1112 -1113 0
-87 -1117 1112 0
-87 1117 -1112 0
-61 -1118 1113 0
-61 1118 -1113 0
-62 -1118 1113 0
-62 1118 -1113 0
-63 -1118 1113 0
-63 1118 -1113 0
-64 -1113 1118 0
-64 -1109 1118 0
-64 -1118 1113 1109 0
-65 -1118 1113 0
-65 1118 -1113 0
-66 -1118 1113 0
-66 1118 -1113 0
-67 -1113 1118 0
-67 -1110 1118 0
-67 -1118 1113 1110 0
-68 -1118 1113 0
-68 1118 -1113 0
-69 -1113 1118 0
-69 -1111 1118 0
-69 -1118 1113 1111 0
-70 -1113 1118 0
-70 -1112 1118 0
-70 -1118 1113 1112 0
-87 -1118 1113 0
-87 1118 -1113 0
-71 -1119 1114 0
-71 -1119 1115 0
-71 1119 -1114 -1115 0
-72 -1119 1114 0
-72 -1119 1116 0
-72 1119 -1114 -1116 0
-73 -1119 1114 0
-73 -1119 1117 0
-73 1119 -1114 -1117 0
-74 -1119 1114 0
-74 -1119 1118 0
-74 1119 -1114 -1118 0
-75 -1119 1114 0
-75 1119 -1114 0
-76 -1119 1114 0
-76 1119 -1114 0
-77 -1119 1114 0
-77 1119 -1114 0
-78 -1119 1114 0
-78 1119 -1114 0
-79 -1119 1114 0
-79 1119 -1114 0
-80 -1119 1114 0
-80 1119 -1114 0
-88 -1119 1114 0
-88 1119 -1114 0
-71 -1115 1120 0
-71 -1114 1120 0
-71 -1120 1115 1114 0
-72 -1120 1115 0
-72 1120 -1115 0
-73 -1120 1115 0
-73 1120 -1115 0
-74 -1120 1115 0
-74 1120 -1115 0
-75 -1120 1115 0
-75 -1120 1116 0
-75 1120 -1115 -1116 0
-76 -1120 1115 0
-76 -1120 1117 0
-76 1120 -1115 -1117 0
-77 -1120 1115 0
-77 -1120 1118 0
-77 1120 -1115 -1118 0
-78 -1120 1115 0
-78 1120 -1115 0
-79 -1120 1115 0
-79 1120 -1115 0
-80 -1120 1115 0
-80 1120 -1115 0
-88 -1120 1115 0
-88 1120 -1115 0
-71 -1121 1116 0
-71 1121 -1116 0
-72 -1116 1121 0
-72 -1114 1121 0
-72 -1121 1116 1114 0
-73 -1121 1116 0
-73 1121 -1116 0
-74 -1121 1116 0
-74 1121 -1116 0
-75 -1116 1121 0
-75 -1115 1121 0
-75 -1121 1116 1115 0
-76 -1121 1116 0
-76 1121 -1116 0
-77 -1121 1116 0
-77 1121 -1116 0
-78 -1121 1116 0
-78 -1121 1117 0
-78 1121 -1116 -1117 0
-79 -1121 1116 0
-79 -1121 1118 0
-79 1121 -1116 -1118 0
-80 -1121 1116 0
-80 1121 -1116 0
-88 -1121 1116 0
-88 1121 -1116 0
-71 -1122 1117 0
-71 1122 -1117 0
-72 -1122 1117 0
-72 1122 -1117 0
-73 -1117 1122 0
-73 -1114 1122 0
-73 -1122 1117 1114 0
-74 -1122 1117 0
-74 1122 -1117 0
-75 -1122 1117 0
-75 1122 -1117 0
-76 -1117 1122 0
-76 -1115 1122 0
-76 -1122 1117 1115 0
-77 -1122 1117 0
-77 1122 -1117 0
-78 -1117 1122 0
-78 -1116 1122 0
-78 -1122 1117 1116 0
-79 -1122 1117 0
-79 1122 -1117 0
-80 -1122 1117 0
-80 -1122 1118 0
-80 1122 -1117 -1118 0
-88 -1122 1117 0
-88 1122 -1117 0
-71 -1123 1118 0
-71 1123 -1118 0
-72 -1123 1118 0
-72 1123 -1118 0
-73 -1123 1118 0
-73 1123 -1118 0
-74 -1118 1123 0
-74 -1114 1123 0
-74 -1123 1118 1114 0
-75 -1123 1118 0
-75 1123 -1118 0
-76 -1123 1118 0
-76 1123 -1118 0
-77 -1118 1123 0
-77 -1115 1123 0
-77 -1123 1118 1115 0
-78 -1123 1118 0
-78 1123 -1118 0
-79 -1118 1123 0
-79 -1116 1123 0
-79 -1123 1118 1116 0
-80 -1118 1123 0
-80 -1117 1123 0
-80 -1123 1118 1117 0
-88 -1123 1118 0
-88 1123 -1118 0
1124 0
-1 -1129 1124 0
-1 -1129 1125 0
-1 1129 -1124 -1125 0
-2 -1129 1124 0
-2 -1129 1126 0
-2 1129 -1124 -1126 0
-3 -1129 1124 0
-3 -1129 1127 0
-3 1129 -1124 -1127 0
-4 -1129 1124 0
-4 -1129 1128 0
-4 1129 -1124 -1128 0
-5 -1129 1124 0
-5 1129 -1124 0
-6 -1129 1124 0
-6 1129 -1124 0
-7 -1129 1124 0
-7 1129 -1124 0
-8 -1129 1124 0
-8 1129 -1124 0
-9 -1129 1124 0
-9 1129 -1124 0
-10 -1129 1124 0
-10 1129 -1124 0
-81 -1129 1124 0
-81 1129 -1124 0
1125 0
-1 -1125 1130 0
-1 -1124 1130 0
-1 -1130 1125 1124 0
-2 -1130 1125 0
-2 1130 -1125 0
-3 -1130 1125 0
-3 1130 -1125 0
-4 -1130 1125 0
-4 1130 -1125 0
-5 -1130 1125 0
-5 -1130 1126 0
-5 1130 -1125 -1126 0
-6 -1130 1125 0
-6 -1130 1127 0
-6 1130 -1125 -1127 0
-7 -1130 1125 0
-7 -1130 1128 0
-7 1130 -1125 -1128 0
-8 -1130 1125 0
-8 1130 -1125 0
-9 -1130 1125 0
-9 1130 -1125 0
-10 -1130 1125 0
-10 1130 -1125 0
-81 -1130 1125 0
-81 1130 -1125 0
1126 0
-1 -1131 1126 0
-1 1131 -1126 0
-2 -1126 1131 0
-2 -1124 1131 0
-2 -1131 1126 1124 0
-3 -1131 1126 0
-3 1131 -1126 0
-4 -1131 1126 0
-4 1131 -1126 0
-5 -1126 1131 0
-5 -1125 1131 0
-5 -1131 1126 1125 0
-6 -1131 1126 0
-6 1131 -1126 0
-7 -1131 1126 0
-7 1131 -1126 0
-8 -1131 1126 0
-8 -1131 1127 0
-8 1131 -1126 -1127 0
-9 -1131 1126 0
-9 -1131 1128 0
-9 1131 -1126 -1128 0
-10 -1131 1126 0
-10 1131 -1126 0
-81 -1131 1126 0
-81 1131 -1126 0
-1127 0
-1 -1132 1127 0
-1 1132 -1127 0
-2 -1132 1127 0
-2 1132 -1127 0
-3 -1127 1132 0
-3 -1124 1132 0
-3 -1132 1127 1124 0
-4 -1132 1127 0
-4 1132 -1127 0
-5 -1132 1127 0
-5 1132 -1127 0
-6 -1127 1132 0
-6 -1125 1132 0
-6 -1132 1127 1125 0
-7 -1132 1127 0
-7 1132 -1127 0
-8 -1127 1132 0
-8 -1126 1132 0
-8 -1132 1127 1126 0
-9 -1132 1127 0
-9 1132 -1127 0
-10 -1132 1127 0
-10 -1132 1128 0
-10 1132 -1127 -1128 0
-81 -1132 1127 0
-81 1132 -1127 0
-1128 0
-1 -1133 1128 0
-1 1133 -1128 0
-2 -1133 1128 0
-2 1133 -1128 0
-3 -1133 1128 0
-3 1133 -1128 0
-4 -1128 1133 0
-4 -1124 1133 0
-4 -1133 1128 1124 0
-5 -1133 1128 0
-5 1133 -1128 0
-6 -1133 1128 0
-6 1133 -1128 0
-7 -1128 1133 0
-7 -1125 1133 0
-7 -1133 1128 1125 0
-8 -1133 1128 0
-8 1133 -1128 0
-9 -1128 1133 0
-9 -1126 1133 0
-9 -1133 1128 1126 0
-10 -1128 1133 0
-10 -1127 1133 0
-10 -1133 1128 1127 0
-81 -1133 1128 0
-81 1133 -1128 0
-11 -1134 1129 0
-11 -1134 1130 0
-11 1134 -1129 -1130 0
-12 -1134 1129 0
-12 -1134 1131 0
-12 1134 -1129 -1131 0
-13 -1134 1129 0
-13 -1134 1132 0
-13 1134 -1129 -1132 0
-14 -1134 1129 0
-14 -1134 1133 0
-14 1134 -1129 -1133 0
-15 -1134 1129 0
-15 1134 -1129 0
-16 -1134 1129 0
-16 1134 -1129 0
-17 -1134 1129 0
-17 1134 -1129 0
-18 -1134 1129 0
-18 1134 -1129 0
-19 -1134 1129 0
-19 1134 -1129 0
-20 -1134 1129 0
-20 1134 -1129 0
-82 -1134 1129 0
-82 1134 -1129 0
-11 -1130 1135 0
-11 -1129 1135 0
-11 -1135 1130 1129 0
-12 -1135 1130 0
-12 1135 -1130 0
-13 -1135 1130 0
-13 1135 -1130 0
-14 -1135 1130 0
-14 1135 -1130 0
-15 -1135 1130 0
-15 -1135 1131 0
-15 1135 -1130 -1131 0
-16 -1135 1130 0
-16 -1135 1132 0
-16 1135 -1130 -1132 0
-17 -1135 1130 0
-17 -1135 1133 0
-17 1135 -1130 -1133 0
-18 -1135 1130 0
-18 1135 -1130 0
-19 -1135 1130 0
-19 1135 -1130 0
-20 -1135 1130 0
-20 1135 -1130 0
-82 -1135 1130 0
-82 1135 -1130 0
-11 -1136 1131 0
-11 1136 -1131 0
-12 -1131 1136 0
-12 -1129 1136 0
-12 -1136 1131 1129 0
-13 -1136 1131 0
-13 1136 -1131 0
-14 -1136 1131 0
-14 1136 -1131 0
-15 -1131 1136 0
-15 -1130 1136 0
-15 -1136 1131 1130 0
-16 -1136 1131 0
-16 1136 -1131 0
-17 -1136 1131 0
-17 1136 -1131 0
-18 -1136 1131 0
-18 -1136 1132 0
-18 1136 -1131 -1132 0
-19 -1136 1131 0
-19 -1136 1133 0
-19 1136 -1131 -1133 0
-20 -1136 1131 0
-20 1136 -1131 0
-82 -1136 1131 0
-82 1136 -1131 0
-11 -1137 1132 0
-11 1137 -1132 0
-12 -1137 1132 0
-12 1137 -1132 0
-13 -1132 1137 0
-13 -1129 1137 0
-13 -1137 1132 1129 0
-14 -1137 1132 0
-14 1137 -1132 0
-15 -1137 1132 0
-15 1137 -1132 0
-16 -1132 1137 0
-16 -1130 1137 0
-16 -1137 1132 1130 0
-17 -1137 1132 0
-17 1137 -1132 0
-18 -1132 1137 0
-18 -1131 1137 0
-18 -1137 1132 1131 0
-19 -1137 1132 0
-19 1137 -1132 0
-20 -1137 1132 0
-20 -1137 1133 0
-20 1137 -1132 -1133 0
-82 -1137 1132 0
-82 1137 -1132 0
-11 -1138 1133 0
-11 1138 -1133 0
-12 -1138 1133 0
-12 1138 -1133 0
-13 -1138 1133 0
-13 1138 -1133 0
-14 -1133 1138 0
-14 -1129 1138 0
-14 -1138 1133 1129 0
-15 -1138 1133 0
-15 1138 -1133 0
-16 -1138 1133 0
-16 1138 -1133 0
-17 -1133 1138 0
-17 -1130 1138 0
-17 -1138 1133 1130 0
-18 -1138 1133 0
-18 1138 -1133 0
-19 -1133 1138 0
-19 -1131 1138 0
-19 -1138 1133 1131 0
-20 -1133 1138 0
-20 -1132 1138 0
-20 -1138 1133 1132 0
-82 -1138 1133 0
-82 1138 -1133 0
-21 -1139 1134 0
-21 -1139 1135 0
-21 1139 -1134 -1135 0
-22 -1139 1134 0
-22 -1139 1136 0
-22 1139 -1134 -1136 0
-23 -1139 1134 0
-23 -1139 1137 0
-23 1139 -1134 -1137 0
-24 -1139 1134 0
-24 -1139 1138 0
-24 1139 -1134 -1138 0
-25 -1139 1134 0
-25 1139 -1134 0
-26 -1139 1134 0
-26 1139 -1134 0
-27 -1139 1134 0
-27 1139 -1134 0
-28 -1139 1134 0
-28 1139 -1134 0
-29 -1139 1134 0
-29 1139 -1134 0
-30 -1139 1134 0
-30 1139 -1134 0
-83 -1139 1134 0
-83 1139 -1134 0
-21 -1135 1140 0
-21 -1134 1140 0
-21 -1140 1135 1134 0
-22 -1140 1135 0
-22 1140 -1135 0
-23 -1140 1135 0
-23 1140 -1135 0
-24 -1140 1135 0
-24 1140 -1135 0
-25 -1140 1135 0
-25 -1140 1136 0
-25 1140 -1135 -1136 0
-26 -1140 1135 0
-26 -1140 1137 0
-26 1140 -1135 -1137 0
-27 -1140 1135 0
-27 -1140 1138 0
-27 1140 -1135 -1138 0
-28 -1140 1135 0
-28 1140 -1135 0
-29 -1140 1135 0
-29 1140 -1135 0
-30 -1140 1135 0
-30 1140 -1135 0
-83 -1140 1135 0
-83 1140 -1135 0
-21 -1141 1136 0
-21 1141 -1136 0
-22 -1136 1141 0
-22 -1134 1141 0
-22 -1141 1136 1134 0
-23 -1141 1136 0
-23 1141 -1136 0
-24 -1141 1136 0
-24 1141 -1136 0
-25 -1136 1141 0
-25 -1135 1141 0
-25 -1141 1136 1135 0
-26 -1141 1136 0
-26 1141 -1136 0
-27 -1141 1136 0
-27 1141 -1136 0
-28 -1141 1136 0
-28 -1141 1137 0
-28 1141 -1136 -1137 0
-29 -1141 1136 0
-29 -1141 1138 0
-29 1141 -1136 -1138 0
-30 -1141 1136 0
-30 1141 -1136 0
-83 -1141 1136 0
-83 1141 -1136 0
-21 -1142 1137 0
-21 1142 -1137 0
-22 -1142 1137 0
-22 1142 -1137 0
-23 -1137 1142 0
-23 -1134 1142 0
-23 -1142 1137 1134 0
-24 -1142 1137 0
-24 1142 -1137 0
-25 -1142 1137 0
-25 1142 -1137 0
-26 -1137 1142 0
-26 -1135 1142 0
-26 -1142 1137 1135 0
-27 -1142 1137 0
-27 1142 -1137 0
-28 -1137 1142 0
-28 -1136 1142 0
-28 -1142 1137 1136 0
-29 -1142 1137 0
-29 1142 -1137 0
-30 -1142 1137 0
-30 -1142 1138 0
-30 1142 -1137 -1138 0
-83 -1142 1137 0
-83 1142 -1137 0
-21 -1143 1138 0
-21 1143 -1138 0
-22 -1143 1138 0
-22 1143 -1138 0
-23 -1143 1138 0
-23 1143 -1138 0
-24 -1138 1143 0
-24 -1134 1143 0
-24 -1143 1138 1134 0
-25 -1143 1138 0
-25 1143 -1138 0
-26 -1143 1138 0
-26 1143 -1138 0
-27 -1138 1143 0
-27 -1135 1143 0
-27 -1143 1138 1135 0
-28 -1143 1138 0
-28 1143 -1138 0
-29 -1138 1143 0
-29 -1136 1143 0
-29 -1143 1138 1136 0
-30 -1138 1143 0
-30 -1137 1143 0
-30 -1143 1138 1137 0
-83 -1143 1138 0
-83 1143 -1138 0
-31 -1144 1139 0
-31 -1144 1140 0
-31 1144 -1139 -1140 0
-32 -1144 1139 0
-32 -1144 1141 0
-32 1144 -1139 -1141 0
-33 -1144 1139 0
-33 -1144 1142 0
-33 1144 -1139 -1142 0
-34 -1144 1139 0
-34 -1144 1143 0
-34 1144 -1139 -1143 0
-35 -1144 1139 0
-35 1144 -1139 0
-36 -1144 1139 0
-36 1144 -1139 0
-37 -1144 1139 0
-37 1144 -1139 0
-38 -1144 1139 0
-38 1144 -1139 0
-39 -1144 1139 0
-39 1144 -1139 0
-40 -1144 1139 0
-40 1144 -1139 0
-84 -1144 1139 0
-84 1144 -1139 0
-31 -1140 1145 0
-31 -1139 1145 0
-31 -1145 1140 1139 0
-32 -1145 1140 0
-32 1145 -1140 0
-33 -1145 1140 0
-33 1145 -1140 0
-34 -1145 1140 0
-34 1145 -1140 0
-35 -1145 1140 0
-35 -1145 1141 0
-35 1145 -1140 -1141 0
-36 -1145 1140 0
-36 -1145 1142 0
-36 1145 -1140 -1142 0
-37 -1145 1140 0
-37 -1145 1143 0
-37 1145 -1140 -1143 0
-38 -1145 1140 0
-38 1145 -1140 0
-39 -1145 1140 0
-39 1145 -1140 0
-40 -1145 1140 0
-40 1145 -1140 0
-84 -1145 1140 0
-84 1145 -1140 0
-31 -1146 1141 0
-31 1146 -1141 0
-32 -1141 1146 0
-32 -1139 1146 0
-32 -1146 1141 1139 0
-33 -1146 1141 0
-33 1146 -1141 0
-34 -1146 1141 0
-34 1146 -1141 0
-35 -1141 1146 0
-35 -1140 1146 0
-35 -1146 1141 1140 0
-36 -1146 1141 0
-36 1146 -1141 0
-37 -1146 1141 0
-37 1146 -1141 0
-38 -1146 1141 0
-38 -1146 1142 0
-38 1146 -1141 -1142 0
-39 -1146 1141 0
-39 -1146 1143 0
-39 1146 -1141 -1143 0
-40 -1146 1141 0
-40 1146 -1141 0
-84 -1146 1141 0
-84 1146 -1141 0
-31 -1147 1142 0
-31 1147 -1142 0
-32 -1147 1142 0
-32 1147 -1142 0
-33 -1142 1147 0
-33 -1139 1147 0
-33 -1147 1142 1139 0
-34 -1147 1142 0
-34 1147 -1142 0
-35 -1147 1142 0
-35 1147 -1142 0
-36 -1142 1147 0
-36 -1140 1147 0
-36 -1147 1142 1140 0
-37 -1147 1142 0
-37 1147 -1142 0
-38 -1142 1147 0
-38 -1141 1147 0
-38 -1147 1142 1141 0
-39 -1147 1142 0
-39 1147 -1142 0
-40 -1147 1142 0
-40 -1147 1143 0
-40 1147 -1142 -1143 0
-84 -1147 1142 0
-84 1147 -1142 0
-31 -1148 1143 0
-31 1148 -1143 0
-32 -1148 1143 0
-32 1148 -1143 0
-33 -1148 1143 0
-33 1148 -1143 0
-34 -1143 1148 0
-34 -1139 1148 0
-34 -1148 1143 1139 0
-35 -1148 1143 0
-35 1148 -1143 0
-36 -1148 1143 0
-36 1148 -1143 0
-37 -1143 1148 0
-37 -1140 1148 0
-37 -1148 1143 1140 0
-38 -1148 1143 0
-38 1148 -1143 0
-39 -1143 1148 0
-39 -1141 1148 0
-39 -1148 1143 1141 0
-40 -1143 1148 0
-40 -1142 1148 0
-40 -1148 1143 1142 0
-84 -1148 1143 0
-84 1148 -1143 0
-41 -1149 1144 0
-41 -1149 1145 0
-41 1149 -1144 -1145 0
-42 -1149 1144 0
-42 -1149 1146 0
-42 1149 -1144 -1146 0
-43 -1149 1144 0
-43 -1149 1147 0
-43 1149 -1144 -1147 0
-44 -1149 1144 0
-44 -1149 1148 0
-44 1149 -1144 -1148 0
-45 -1149 1144 0
-45 1149 -1144 0
-46 -1149 1144 0
-46 1149 -1144 0
-47 -1149 1144 0
-47 1149 -1144 0
-48 -1149 1144 0
-48 1149 -1144 0
-49 -1149 1144 0
-49 1149 -1144 0
-50 -1149 1144 0
-50 1149 -1144 0
-85 -1149 1144 0
-85 1149 -1144 0
-41 -1145 1150 0
-41 -1144 1150 0
-41 -1150 1145 1144 0
-42 -1150 1145 0
-42 1150 -1145 0
-43 -1150 1145 0
-43 1150 -1145 0
-44 -1150 1145 0
-44 1150 -1145 0
-45 -1150 1145 0
-45 -1150 1146 0
-45 1150 -1145 -1146 0
-46 -1150 1145 0
-46 -1150 1147 0
-46 1150 -1145 -1147 0
-47 -1150 1145 0
-47 -1150 1148 0
-47 1150 -1145 -1148 0
-48 -1150 1145 0
-48 1150 -1145 0
-49 -1150 1145 0
-49 1150 -1145 0
-50 -1150 1145 0
-50 1150 -1145 0
-85 -1150 1145 0
-85 1150 -1145 0
-41 -1151 1146 0
-41 1151 -1146 0
-42 -1146 1151 0
-42 -1144 1151 0
-42 -1151 1146 1144 0
-43 -1151 1146 0
-43 1151 -1146 0
-44 -1151 1146 0
-44 1151 -1146 0
-45 -1146 1151 0
-45 -1145 1151 0
-45 -1151 1146 1145 0
-46 -1151 1146 0
-46 1151 -1146 0
-47 -1151 1146 0
-47 1151 -1146 0
-48 -1151 1146 0
-48 -1151 1147 0
-48 1151 -1146 -1147 0
-49 -1151 1146 0
-49 -1151 1148 0
-49 1151 -1146 -1148 0
-50 -1151 1146 0
-50 1151 -1146 0
-85 -1151 1146 0
-85 1151 -1146 0
-41 -1152 1147 0
-41 1152 -1147 0
-42 -1152 1147 0
-42 1152 -1147 0
-43 -1147 1152 0
-43 -1144 1152 0
-43 -1152 1147 1144 0
-44 -1152 1147 0
-44 1152 -1147 0
-45 -1152 1147 0
-45 1152 -1147 0
-46 -1147 1152 0
-46 -1145 1152 0
-46 -1152 1147 1145 0
-47 -1152 1147 0
-47 1152 -1147 0
-48 -1147 1152 0
-48 -1146 1152 0
-48 -1152 1147 1146 0
-49 -1152 1147 0
-49 1152 -1147 0
-50 -1152 1147 0
-50 -1152 1148 0
-50 1152 -1147 -1148 0
-85 -1152 1147 0
-85 1152 -1147 0
-41 -1153 1148 0
-41 1153 -1148 0
-42 -1153 1148 0
-42 1153 -1148 0
-43 -1153 1148 0
-43 1153 -1148 0
-44 -1148 1153 0
-44 -1144 1153 0
-44 -1153 1148 1144 0
-45 -1153 1148 0
-45 1153 -1148 0
-46 -1153 1148 0
-46 1153 -1148 0
-47 -1148 1153 0
-47 -1145 1153 0
-47 -1153 1148 1145 0
-48 -1153 1148 0
-48 1153 -1148 0
-49 -1148 1153 0
-49 -1146 1153 0
-49 -1153 1148 1146 0
-50 -1148 1153 0
-50 -1147 1153 0
-50 -1153 1148 1147 0
-85 -1153 1148 0
-85 1153 -1148 0
-51 -1154 1149 0
-51 -1154 1150 0
-51 1154 -1149 -1150 0
-52 -1154 1149 0
-52 -1154 1151 0
-52 1154 -1149 -1151 0
-53 -1154 1149 0
-53 -1154 1152 0
-53 1154 -1149 -1152 0
-54 -1154 1149 0
-54 -1154 1153 0
-54 1154 -1149 -1153 0
-55 -1154 1149 0
-55 1154 -1149 0
-56 -1154 1149 0
-56 1154 -1149 0
-57 -1154 1149 0
-57 1154 -1149 0
-58 -1154 1149 0
-58 1154 -1149 0
-59 -1154 1149 0
-59 1154 -1149 0
-60 -1154 1149 0
-60 1154 -1149 0
-86 -1154 1149 0
-86 1154 -1149 0
-51 -1150 1155 0
-51 -1149 1155 0
-51 -1155 1150 1149 0
-52 -1155 1150 0
-52 1155 -1150 0
-53 -1155 1150 0
-53 1155 -1150 0
-54 -1155 1150 0
-54 1155 -1150 0
-55 -1155 1150 0
-55 -1155 1151 0
-55 1155 -1150 -1151 0
-56 -1155 1150 0
-56 -1155 1152 0
-56 1155 -1150 -1152 0
-57 -1155 1150 0
-57 -1155 1153 0
-57 1155 -1150 -1153 0
-58 -1155 1150 0
-58 1155 -1150 0
-59 -1155 1150 0
-59 1155 -1150 0
-60 -1155 1150 0
-60 1155 -1150 0
-86 -1155 1150 0
-86 1155 -1150 0
-51 -1156 1151 0
-51 1156 -1151 0
-52 -1151 1156 0
-52 -1149 1156 0
-52 -1156 1151 1149 0
-53 -1156 1151 0
-53 1156 -1151 0
-54 -1156 1151 0
-54 1156 -1151 0
-55 -1151 1156 0
-55 -1150 1156 0
-55 -1156 1151 1150 0
-56 -1156 1151 0
-56 1156 -1151 0
-57 -1156 1151 0
-57 1156 -1151 0
-58 -1156 1151 0
-58 -1156 1152 0
-58 1156 -1151 -1152 0
-59 -1156 1151 0
-59 -1156 1153 0
-59 1156 -1151 -1153 0
-60 -1156 1151 0
-60 1156 -1151 0
-86 -1156 1151 0
-86 1156 -1151 0
-51 -1157 1152 0
-51 1157 -1152 0
-52 -1157 1152 0
-52 1157 -1152 0
-53 -1152 1157 0
-53 -1149 1157 0
-53 -1157 1152 1149 0
-54 -1157 1152 0
-54 1157 -1152 0
-55 -1157 1152 0
-55 1157 -1152 0
-56 -1152 1157 0
-56 -1150 1157 0
-56 -1157 1152 1150 0
-57 -1157 1152 0
-57 1157 -1152 0
-58 -1152 1157 0
-58 -1151 1157 0
-58 -1157 1152 1151 0
-59 -1157 1152 0
-59 1157 -1152 0
-60 -1157 1152 0
-60 -1157 1153 0
-60 1157 -1152 -1153 0
-86 -1157 1152 0
-86 1157 -1152 0
-51 -1158 1153 0
-51 1158 -1153 0
-52 -1158 1153 0
-52 1158 -1153 0
-53 -1158 1153 0
-53 1158 -1153 0
-54 -1153 1158 0
-54 -1149 1158 0
-54 -1158 1153 1149 0
-55 -1158 1153 0
-55 1158 -1153 0
-56 -1158 1153 0
-56 1158 -1153 0
-57 -1153 1158 0
-57 -1150 1158 0
-57 -1158 1153 1150 0
-58 -1158 1153 0
-58 1158 -1153 0
-59 -1153 1158 0
-59 -1151 1158 0
-59 -1158 1153 1151 0
-60 -1153 1158 0
-60 -1152 1158 0
-60 -1158 1153 1152 0
-86 -1158 1153 0
-86 1158 -1153 0
-61 -1159 1154 0
-61 -1159 1155 0
-61 1159 -1154 -1155 0
-62 -1159 1154 0
-62 -1159 1156 0
-62 1159 -1154 -1156 0
-63 -1159 1154 0
-63 -1159 1157 0
-63 1159 -1154 -1157 0
-64 -1159 1154 0
-64 -1159 1158 0
-64 1159 -1154 -1158 0
-65 -1159 1154 0
-65 1159 -1154 0
-66 -1159 1154 0
-66 1159 -1154 0
-67 -1159 1154 0
-67 1159 -1154 0
-68 -1159 1154 0
-68 1159 -1154 0
-69 -1159 1154 0
-69 1159 -1154 0
-70 -1159 1154 0
-70 1159 -1154 0
-87 -1159 1154 0
-87 1159 -1154 0
-61 -1155 1160 0
-61 -1154 1160 0
-61 -1160 1155 1154 0
-62 -1160 1155 0
-62 1160 -1155 0
-63 -1160 1155 0
-63 1160 -1155 0
-64 -1160 1155 0
-64 1160 -1155 0
-65 -1160 1155 0
-65 -1160 1156 0
-65 1160 -1155 -1156 0
-66 -1160 1155 0
-66 -1160 1157 0
-66 1160 -1155 -1157 0
-67 -1160 1155 0
-67 -1160 1158 0
-67 1160 -1155 -1158 0
-68 -1160 1155 0
-68 1160 -1155 0
-69 -1160 1155 0
-69 1160 -1155 0
-70 -1160 1155 0
-70 1160 -1155 0
-87 -1160 1155 0
-87 1160 -1155 0
-61 -1161 1156 0
-61 1161 -1156 0
-62 -1156 1161 0
-62 -1154 1161 0
-62 -1161 1156 1154 0
-63 -1161 1156 0
-63 1161 -1156 0
-64 -1161 1156 0
-64 1161 -1156 0
-65 -1156 1161 0
-65 -1155 1161 0
-65 -1161 1156 1155 0
-66 -1161 1156 0
-66 1161 -1156 0
-67 -1161 1156 0
-67 1161 -1156 0
-68 -1161 1156 0
-68 -1161 1157 0
-68 1161 -1156 -1157 0
-69 -1161 1156 0
-69 -1161 1158 0
-69 1161 -1156 -1158 0
-70 -1161 1156 0
-70 1161 -1156 0
-87 -1161 1156 0
-87 1161 -1156 0
-61 -1162 1157 0
-61 1162 -1157 0
-62 -1162 1157 0
-62 1162 -1157 0
-63 -1157 1162 0
-63 -1154 1162 0
-63 -1162 1157 1154 0
-64 -1162 1157 0
-64 1162 -1157 0
-65 -1162 1157 0
-65 1162 -1157 0
-66 -1157 1162 0
-66 -1155 1162 0
-66 -1162 1157 1155 0
-67 -1162 1157 0
-67 1162 -1157 0
-68 -1157 1162 0
-68 -1156 1162 0
-68 -1162 1157 1156 0
-69 -1162 1157 0
-69 1162 -1157 0
-70 -1162 1157 0
-70 -1162 1158 0
-70 1162 -1157 -1158 0
-87 -1162 1157 0
-87 1162 -1157 0
-61 -1163 1158 0
-61 1163 -1158 0
-62 -1163 1158 0
-62 1163 -1158 0
-63 -1163 1158 0
-63 1163 -1158 0
-64 -1158 1163 0
-64 -1154 1163 0
-64 -1163 1158 1154 0
-65 -1163 1158 0
-65 1163 -1158 0
-66 -1163 1158 0
-66 1163 -1158 0
-67 -1158 1163 0
-67 -1155 1163 0
-67 -1163 1158 1155 0
-68 -1163 1158 0
-68 1163 -1158 0
-69 -1158 1163 0
-69 -1156 1163 0
-69 -1163 1158 1156 0
-70 -1158 1163 0
-70 -1157 1163 0
-70 -1163 1158 1157 0
-87 -1163 1158 0
-87 1163 -1158 0
-71 -1164 1159 0
-71 -1164 1160 0
-71 1164 -1159 -1160 0
-72 -1164 1159 0
-72 -1164 1161 0
-72 1164 -1159 -1161 0
-73 -1164 1159 0
-73 -1164 1162 0
-73 1164 -1159 -1162 0
-74 -1164 1159 0
-74 -1164 1163 0
-74 1164 -1159 -1163 0
-75 -1164 1159 0
-75 1164 -1159 0
-76 -1164 1159 0
-76 1164 -1159 0
-77 -1164 1159 0
-77 1164 -1159 0
-78 -1164 1159 0
-78 1164 -1159 0
-79 -1164 1159 0
-79 1164 -1159 0
-80 -1164 1159 0
-80 1164 -1159 0
-88 -1164 1159 0
-88 1164 -1159 0
-71 -1160 1165 0
-71 -1159 1165 0
-71 -1165 1160 1159 0
-72 -1165 1160 0
-72 1165 -1160 0
-73 -1165 1160 0
-73 1165 -1160 0
-74 -1165 1160 0
-74 1165 -1160 0
-75 -1165 1160 0
-75 -1165 1161 0
-75 1165 -1160 -1161 0
-76 -1165 1160 0
-76 -1165 1162 0
-76 1165 -1160 -1162 0
-77 -1165 1160 0
-77 -1165 1163 0
-77 1165 -1160 -1163 0
-78 -1165 1160 0
-78 1165 -1160 0
-79 -1165 1160 0
-79 1165 -1160 0
-80 -1165 1160 0
-80 1165 -1160 0
-88 -1165 1160 0
-88 1165 -1160 0
-71 -1166 1161 0
-71 1166 -1161 0
-72 -1161 1166 0
-72 -1159 1166 0
-72 -1166 1161 1159 0
-73 -1166 1161 0
-73 1166 -1161 0
-74 -1166 1161 0
-74 1166 -1161 0
-75 -1161 1166 0
-75 -1160 1166 0
-75 -1166 1161 1160 0
-76 -1166 1161 0
-76 1166 -1161 0
-77 -1166 1161 0
-77 1166 -1161 0
-78 -1166 1161 0
-78 -1166 1162 0
-78 1166 -1161 -1162 0
-79 -1166 1161 0
-79 -1166 1163 0
-79 1166 -1161 -1163 0
-80 -1166 1161 0
-80 1166 -1161 0
-88 -1166 1161 0
-88 1166 -1161 0
-71 -1167 1162 0
-71 1167 -1162 0
-72 -1167 1162 0
-72 1167 -1162 0
-73 -1162 1167 0
-73 -1159 1167 0
-73 -1167 1162 1159 0
-74 -1167 1162 0
-74 1167 -1162 0
-75 -1167 1162 0
-75 1167 -1162 0
-76 -1162 1167 0
-76 -1160 1167 0
-76 -1167 1162 1160 0
-77 -1167 1162 0
-77 1167 -1162 0
-78 -1162 1167 0
-78 -1161 1167 0
-78 -1167 1162 1161 0
-79 -1167 1162 0
-79 1167 -1162 0
-80 -1167 1162 0
-80 -1167 1163 0
-80 1167 -1162 -1163 0
-88 -1167 1162 0
-88 1167 -1162 0
-71 -1168 1163 0
-71 1168 -1163 0
-72 -1168 1163 0
-72 1168 -1163 0
-73 -1168 1163 0
-73 1168 -1163 0
-74 -1163 1168 0
-74 -1159 1168 0
-74 -1168 1163 1159 0
-75 -1168 1163 0
-75 1168 -1163 0
-76 -1168 1163 0
-76 1168 -1163 0
-77 -1163 1168 0
-77 -1160 1168 0
-77 -1168 1163 1160 0
-78 -1168 1163 0
-78 1168 -1163 0
-79 -1163 1168 0
-79 -1161 1168 0
-79 -1168 1163 1161 0
-80 -1163 1168 0
-80 -1162 1168 0
-80 -1168 1163 1162 0
-88 -1168 1163 0
-88 1168 -1163 0
1169 0
-1 -1174 1169 0
-1 -1174 1170 0
-1 1174 -1169 -1170 0
-2 -1174 1169 0
-2 -1174 1171 0
-2 1174 -1169 -1171 0
-3 -1174 1169 0
-3 -1174 1172 0
-3 1174 -1169 -1172 0
-4 -1174 1169 0
-4 -1174 1173 0
-4 1174 -1169 -1173 0
-5 -1174 1169 0
-5 1174 -1169 0
-6 -1174 1169 0
-6 1174 -1169 0
-7 -1174 1169 0
-7 1174 -1169 0
-8 -1174 1169 0
-8 1174 -1169 0
-9 -1174 1169 0
-9 1174 -1169 0
-10 -1174 1169 0
-10 1174 -1169 0
-81 -1174 1169 0
-81 1174 -1169 0
1170 0
-1 -1170 1175 0
-1 -1169 1175 0
-1 -1175 1170 1169 0
-2 -1175 1170 0
-2 1175 -1170 0
-3 -1175 1170 0
-3 1175 -1170 0
-4 -1175 1170 0
-4 1175 -1170 0
-5 -1175 1170 0
-5 -1175 1171 0
-5 1175 -1170 -1171 0
-6 -1175 1170 0
-6 -1175 1172 0
-6 1175 -1170 -1172 0
-7 -1175 1170 0
-7 -1175 1173 0
-7 1175 -1170 -1173 0
-8 -1175 1170 0
-8 1175 -1170 0
-9 -1175 1170 0
-9 1175 -1170 0
-10 -1175 1170 0
-10 1175 -1170 0
-81 -1175 1170 0
-81 1175 -1170 0
1171 0
-1 -1176 1171 0
-1 1176 -1171 0
-2 -1171 1176 0
-2 -1169 1176 0
-2 -1176 1171 1169 0
-3 -1176 1171 0
-3 1176 -1171 0
-4 -1176 1171 0
-4 1176 -1171 0
-5 -1171 1176 0
-5 -1170 1176 0
-5 -1176 1171 1170 0
-6 -1176 1171 0
-6 1176 -1171 0
-7 -1176 1171 0
-7 1176 -1171 0
-8 -1176 1171 0
-8 -1176 1172 0
-8 1176 -1171 -1172 0
-9 -1176 1171 0
-9 -1176 1173 0
-9 1176 -1171 -1173 0
-10 -1176 1171 0
-10 1176 -1171 0
-81 -1176 1171 0
-81 1176 -1171 0
-1172 0
-1 -1177 1172 0
-1 1177 -1172 0
-2 -1177 1172 0
-2 1177 -1172 0
-3 -1172 1177 0
-3 -1169 1177 0
-3 -1177 1172 1169 0
-4 -1177 1172 0
-4 1177 -1172 0
-5 -1177 1172 0
-5 1177 -1172 0
-6 -1172 1177 0
-6 -1170 1177 0
-6 -1177 1172 1170 0
-7 -1177 1172 0
-7 1177 -1172 0
-8 -1172 1177 0
-8 -1171 1177 0
-8 -1177 1172 1171 0
-9 -1177 1172 0
-9 1177 -1172 0
-10 -1177 1172 0
-10 -1177 1173 0
-10 1177 -1172 -1173 0
-81 -1177 1172 0
-81 1177 -1172 0
1173 0
-1 -1178 1173 0
-1 1178 -1173 0
-2 -1178 1173 0
-2 1178 -1173 0
-3 -1178 1173 0
-3 1178 -1173 0
-4 -1173 1178 0
-4 -1169 1178 0
-4 -1178 1173 1169 0
-5 -1178 1173 0
-5 1178 -1173 0
-6 -1178 1173 0
-6 1178 -1173 0
-7 -1173 1178 0
-7 -1170 1178 0
-7 -1178 1173 1170 0
-8 -1178 1173 0
-8 1178 -1173 0
-9 -1173 1178 0
-9 -1171 1178 0
-9 -1178 1173 1171 0
-10 -1173 1178 0
-10 -1172 1178 0
-10 -1178 1173 1172 0
-81 -1178 1173 0
-81 1178 -1173 0
-11 -1179 1174 0
-11 -1179 1175 0
-11 1179 -1174 -1175 0
-12 -1179 1174 0
-12 -1179 1176 0
-12 1179 -1174 -1176 0
-13 -1179 1174 0
-13 -1179 1177 0
-13 1179 -1174 -1177 0
-14 -1179 1174 0
-14 -1179 1178 0
-14 1179 -1174 -1178 0
-15 -1179 1174 0
-15 1179 -1174 0
-16 -1179 1174 0
-16 1179 -1174 0
-17 -1179 1174 0
-17 1179 -1174 0
-18 -1179 1174 0
-18 1179 -1174 0
-19 -1179 1174 0
-19 1179 -1174 0
-20 -1179 1174 0
-20 1179 -1174 0
-82 -1179 1174 0
-82 1179 -1174 0
-11 -1175 1180 0
-11 -1174 1180 0
-11 -1180 1175 1174 0
-12 -1180 1175 0
-12 1180 -1175 0
-13 -1180 1175 0
-13 1180 -1175 0
-14 -1180 1175 0
-14 1180 -1175 0
-15 -1180 1175 0
-15 -1180 1176 0
-15 1180 -1175 -1176 0
-16 -1180 1175 0
-16 -1180 1177 0
-16 1180 -1175 -1177 0
-17 -1180 1175 0
-17 -1180 1178 0
-17 1180 -1175 -1178 0
-18 -1180 1175 0
-18 1180 -1175 0
-19 -1180 1175 0
-19 1180 -1175 0
-20 -1180 1175 0
-20 1180 -1175 0
-82 -1180 1175 0
-82 1180 -1175 0
-11 -1181 1176 0
-11 1181 -1176 0
-12 -1176 1181 0
-12 -1174 1181 0
-12 -1181 1176 1174 0
-13 -1181 1176 0
-13 1181 -1176 0
-14 -1181 1176 0
-14 1181 -1176 0
-15 -1176 1181 0
-15 -1175 1181 0
-15 -1181 1176 1175 0
-16 -1181 1176 0
-16 1181 -1176 0
-17 -1181 1176 0
-17 1181 -1176 0
-18 -1181 1176 0
-18 -1181 1177 0
-18 1181 -1176 -1177 0
-19 -1181 1176 0
-19 -1181 1178 0
-19 1181 -1176 -1178 0
-20 -1181 1176 0
-20 1181 -1176 0
-82 -1181 1176 0
-82 1181 -1176 0
-11 -1182 1177 0
-11 1182 -1177 0
-12 -1182 1177 0
-12 1182 -1177 0
-13 -1177 1182 0
-13 -1174 1182 0
-13 -1182 1177 1174 0
-14 -1182 1177 0
-14 1182 -1177 0
-15 -1182 1177 0
-15 1182 -1177 0
-16 -1177 1182 0
-16 -1175 1182 0
-16 -1182 1177 1175 0
-17 -1182 1177 0
-17 1182 -1177 0
-18 -1177 1182 0
-18 -1176 1182 0
-18 -1182 1177 1176 0
-19 -1182 1177 0
-19 1182 -1177 0
-20 -1182 1177 0
-20 -1182 1178 0
-20 1182 -1177 -1178 0
-82 -1182 1177 0
-82 1182 -1177 0
-11 -1183 1178 0
-11 1183 -1178 0
-12 -1183 1178 0
-12 1183 -1178 0
-13 -1183 1178 0
-13 1183 -1178 0
-14 -1178 1183 0
-14 -1174 1183 0
-14 -1183 1178 1174 0
-15 -1183 1178 0
-15 1183 -1178 0
-16 -1183 1178 0
-16 1183 -1178 0
-17 -1178 1183 0
-17 -1175 1183 0
-17 -1183 1178 1175 0
-18 -1183 1178 0
-18 1183 -1178 0
-19 -1178 1183 0
-19 -1176 1183 0
-19 -1183 1178 1176 0
-20 -1178 1183 0
-20 -1177 1183 0
-20 -1183 1178 1177 0
-82 -1183 1178 0
-82 1183 -1178 0
-21 -1184 1179 0
-21 -1184 1180 0
-21 1184 -1179 -1180 0
-22 -1184 1179 0
-22 -1184 1181 0
-22 1184 -1179 -1181 0
-23 -1184 1179 0
-23 -1184 1182 0
-23 1184 -1179 -1182 0
-24 -1184 1179 0
-24 -1184 1183 0
-24 1184 -1179 -1183 0
-25 -1184 1179 0
-25 1184 -1179 0
-26 -1184 1179 0
-26 1184 -1179 0
-27 -1184 1179 0
-27 1184 -1179 0
-28 -1184 1179 0
-28 1184 -1179 0
-29 -1184 1179 0
-29 1184 -1179 0
-30 -1184 1179 0
-30 1184 -1179 0
-83 -1184 1179 0
-83 1184 -1179 0
-21 -1180 1185 0
-21 -1179 1185 0
-21 -1185 1180 1179 0
-22 -1185 1180 0
-22 1185 -1180 0
-23 -1185 1180 0
-23 1185 -1180 0
-24 -1185 1180 0
-24 1185 -1180 0
-25 -1185 1180 0
-25 -1185 1181 0
-25 1185 -1180 -1181 0
-26 -1185 1180 0
-26 -1185 1182 0
-26 1185 -1180 -1182 0
-27 -1185 1180 0
-27 -1185 1183 0
-27 1185 -1180 -1183 0
-28 -1185 1180 0
-28 1185 -1180 0
-29 -1185 1180 0
-29 1185 -1180 0
-30 -1185 1180 0
-30 1185 -1180 0
-83 -1185 1180 0
-83 1185 -1180 0
-21 -1186 1181 0
-21 1186 -1181 0
-22 -1181 1186 0
-22 -1179 1186 0
-22 -1186 1181 1179 0
-23 -1186 1181 0
-23 1186 -1181 0
-24 -1186 1181 0
-24 1186 -1181 0
-25 -1181 1186 0
-25 -1180 1186 0
-25 -1186 1181 1180 0
-26 -1186 1181 0
-26 1186 -1181 0
-27 -1186 1181 0
-27 1186 -1181 0
-28 -1186 1181 0
-28 -1186 1182 0
-28 1186 -1181 -1182 0
-29 -1186 1181 0
-29 -1186 1183 0
-29 1186 -1181 -1183 0
-30 -1186 1181 0
-30 1186 -1181 0
-83 -1186 1181 0
-83 1186 -1181 0
-21 -1187 1182 0
-21 1187 -1182 0
-22 -1187 1182 0
-22 1187 -1182 0
-23 -1182 1187 0
-23 -1179 1187 0
-23 -1187 1182 1179 0
-24 -1187 1182 0
-24 1187 -1182 0
-25 -1187 1182 0
-25 1187 -1182 0
-26 -1182 1187 0
-26 -1180 1187 0
-26 -1187 1182 1180 0
-27 -1187 1182 0
-27 1187 -1182 0
-28 -1182 1187 0
-28 -1181 1187 0
-28 -1187 1182 1181 0
-29 -1187 1182 0
-29 1187 -1182 0
-30 -1187 1182 0
-30 -1187 1183 0
-30 1187 -1182 -1183 0
-83 -1187 1182 0
-83 1187 -1182 0
-21 -1188 1183 0
-21 1188 -1183 0
-22 -1188 1183 0
-22 1188 -1183 0
-23 -1188 1183 0
-23 1188 -1183 0
-24 -1183 1188 0
-24 -1179 1188 0
-24 -1188 1183 1179 0
-25 -1188 1183 0
-25 1188 -1183 0
-26 -1188 1183 0
-26 1188 -1183 0
-27 -1183 1188 0
-27 -1180 1188 0
-27 -1188 1183 1180 0
-28 -1188 1183 0
-28 1188 -1183 0
-29 -1183 1188 0
-29 -1181 1188 0
-29 -1188 1183 1181 0
-30 -1183 1188 0
-30 -1182 1188 0
-30 -1188 1183 1182 0
-83 -1188 1183 0
-83 1188 -1183 0
-31 -1189 1184 0
-31 -1189 1185 0
-31 1189 -1184 -1185 0
-32 -1189 1184 0
-32 -1189 1186 0
-32 1189 -1184 -1186 0
-33 -1189 1184 0
-33 -1189 1187 0
-33 1189 -1184 -1187 0
-34 -1189 1184 0
-34 -1189 1188 0
-34 1189 -1184 -1188 0
-35 -1189 1184 0
-35 1189 -1184 0
-36 -1189 1184 0
-36 1189 -1184 0
-37 -1189 1184 0
-37 1189 -1184 0
-38 -1189 1184 0
-38 1189 -1184 0
-39 -1189 1184 0
-39 1189 -1184 0
-40 -1189 1184 0
-40 1189 -1184 0
-84 -1189 1184 0
-84 1189 -1184 0
-31 -1185 1190 0
-31 -1184 1190 0
-31 -1190 1185 1184 0
-32 -1190 1185 0
-32 1190 -1185 0
-33 -1190 1185 0
-33 1190 -1185 0
-34 -1190 1185 0
-34 1190 -1185 0
-35 -1190 1185 0
-35 -1190 1186 0
-35 1190 -1185 -1186 0
-36 -1190 1185 0
-36 -1190 1187 0
-36 1190 -1185 -1187 0
-37 -1190 1185 0
-37 -1190 1188 0
-37 1190 -1185 -1188 0
-38 -1190 1185 0
-38 1190 -1185 0
-39 -1190 1185 0
-39 1190 -1185 0
-40 -1190 1185 0
-40 1190 -1185 0
-84 -1190 1185 0
-84 1190 -1185 0
-31 -1191 1186 0
-31 1191 -1186 0
-32 -1186 1191 0
-32 -1184 1191 0
-32 -1191 1186 1184 0
-33 -1191 1186 0
-33 1191 -1186 0
-34 -1191 1186 0
-34 1191 -1186 0
-35 -1186 1191 0
-35 -1185 1191 0
-35 -1191 1186 1185 0
-36 -1191 1186 0
-36 1191 -1186 0
-37 -1191 1186 0
-37 1191 -1186 0
-38 -1191 1186 0
-38 -1191 1187 0
-38 1191 -1186 -1187 0
-39 -1191 1186 0
-39 -1191 1188 0
-39 1191 -1186 -1188 0
-40 -1191 1186 0
-40 1191 -1186 0
-84 -1191 1186 0
-84 1191 -1186 0
-31 -1192 1187 0
-31 1192 -1187 0
-32 -1192 1187 0
-32 1192 -1187 0
-33 -1187 1192 0
-33 -1184 1192 0
-33 -1192 1187 1184 0
-34 -1192 1187 0
-34 1192 -1187 0
-35 -1192 1187 0
-35 1192 -1187 0
-36 -1187 1192 0
-36 -1185 1192 0
-36 -1192 1187 1185 0
-37 -1192 1187 0
-37 1192 -1187 0
-38 -1187 1192 0
-38 -1186 1192 0
-38 -1192 1187 1186 0
-39 -1192 1187 0
-39 1192 -1187 0
-40 -1192 1187 0
-40 -1192 1188 0
-40 1192 -1187 -1188 0
-84 -1192 1187 0
-84 1192 -1187 0
-31 -1193 1188 0
-31 1193 -1188 0
-32 -1193 1188 0
-32 1193 -1188 0
-33 -1193 1188 0
-33 1193 -1188 0
-34 -1188 1193 0
-34 -1184 1193 0
-34 -1193 1188 1184 0
-35 -1193 1188 0
-35 1193 -1188 0
-36 -1193 1188 0
-36 1193 -1188 0
-37 -1188 1193 0
-37 -1185 1193 0
-37 -1193 1188 1185 0
-38 -1193 1188 0
-38 1193 -1188 0
-39 -1188 1193 0
-39 -1186 1193 0
-39 -1193 1188 1186 0
-40 -1188 1193 0
-40 -1187 1193 0
-40 -1193 1188 1187 0
-84 -1193 1188 0
-84 1193 -1188 0
-41 -1194 1189 0
-41 -1194 1190 0
-41 1194 -1189 -1190 0
-42 -1194 1189 0
-42 -1194 1191 0
-42 1194 -1189 -1191 0
-43 -1194 1189 0
-43 -1194 1192 0
-43 1194 -1189 -1192 0
-44 -1194 1189 0
-44 -1194 1193 0
-44 1194 -1189 -1193 0
-45 -1194 1189 0
-45 1194 -1189 0
-46 -1194 1189 0
-46 1194 -1189 0
-47 -1194 1189 0
-47 1194 -1189 0
-48 -1194 1189 0
-48 1194 -1189 0
-49 -1194 1189 0
-49 1194 -1189 0
-50 -1194 1189 0
-50 1194 -1189 0
-85 -1194 1189 0
-85 1194 -1189 0
-41 -1190 1195 0
-41 -1189 1195 0
-41 -1195 1190 1189 0
-42 -1195 1190 0
-42 1195 -1190 0
-43 -1195 1190 0
-43 1195 -1190 0
-44 -1195 1190 0
-44 1195 -1190 0
-45 -1195 1190 0
-45 -1195 1191 0
-45 1195 -1190 -1191 0
-46 -1195 1190 0
-46 -1195 1192 0
-46 1195 -1190 -1192 0
-47 -1195 1190 0
-47 -1195 1193 0
-47 1195 -1190 -1193 0
-48 -1195 1190 0
-48 1195 -1190 0
-49 -1195 1190 0
-49 1195 -1190 0
-50 -1195 1190 0
-50 1195 -1190 0
-85 -1195 1190 0
-85 1195 -1190 0
-41 -1196 1191 0
-41 1196 -1191 0
-42 -1191 1196 0
-42 -1189 1196 0
-42 -1196 1191 1189 0
-43 -1196 1191 0
-43 1196 -1191 0
-44 -1196 1191 0
-44 1196 -1191 0
-45 -1191 1196 0
-45 -1190 1196 0
-45 -1196 1191 1190 0
-46 -1196 1191 0
-46 1196 -1191 0
-47 -1196 1191 0
-47 1196 -1191 0
-48 -1196 1191 0
-48 -1196 1192 0
-48 1196 -1191 -1192 0
-49 -1196 1191 0
-49 -1196 1193 0
-49 1196 -1191 -1193 0
-50 -1196 1191 0
-50 1196 -1191 0
-85 -1196 1191 0
-85 1196 -1191 0
-41 -1197 1192 0
-41 1197 -1192 0
-42 -1197 1192 0
-42 1197 -1192 0
-43 -1192 1197 0
-43 -1189 1197 0
-43 -1197 1192 1189 0
-44 -1197 1192 0
-44 1197 -1192 0
-45 -1197 1192 0
-45 1197 -1192 0
-46 -1192 1197 0
-46 -1190 1197 0
-46 -1197 1192 1190 0
-47 -1197 1192 0
-47 1197 -1192 0
-48 -1192 1197 0
-48 -1191 1197 0
-48 -1197 1192 1191 0
-49 -1197 1192 0
-49 1197 -1192 0
-50 -1197 1192 0
-50 -1197 1193 0
-50 1197 -1192 -1193 0
-85 -1197 1192 0
-85 1197 -1192 0
-41 -1198 1193 0
-41 1198 -1193 0
-42 -1198 1193 0
-42 1198 -1193 0
-43 -1198 1193 0
-43 1198 -1193 0
-44 -1193 1198 0
-44 -1189 1198 0
-44 -1198 1193 1189 0
-45 -1198 1193 0
-45 1198 -1193 0
-46 -1198 1193 0
-46 1198 -1193 0
-47 -1193 1198 0
-47 -1190 1198 0
-47 -1198 1193 1190 0
-48 -1198 1193 0
-48 1198 -1193 0
-49 -1193 1198 0
-49 -1191 1198 0
-49 -1198 1193 1191 0
-50 -1193 1198 0
-50 -1192 1198 0
-50 -1198 1193 1192 0
-85 -1198 1193 0
-85 1198 -1193 0
-51 -1199 1194 0
-51 -1199 1195 0
-51 1199 -1194 -1195 0
-52 -1199 1194 0
-52 -1199 1196 0
-52 1199 -1194 -1196 0
-53 -1199 1194 0
-53 -1199 1197 0
-53 1199 -1194 -1197 0
-54 -1199 1194 0
-54 -1199 1198 0
-54 1199 -1194 -1198 0
-55 -1199 1194 0
-55 1199 -1194 0
-56 -1199 1194 0
-56 1199 -1194 0
-57 -1199 1194 0
-57 1199 -1194 0
-58 -1199 1194 0
-58 1199 -1194 0
-59 -1199 1194 0
-59 1199 -1194 0
-60 -1199 1194 0
-60 1199 -1194 0
-86 -1199 1194 0
-86 1199 -1194 0
-51 -1195 1200 0
-51 -1194 1200 0
-51 -1200 1195 1194 0
-52 -1200 1195 0
-52 1200 -1195 0
-53 -1200 1195 0
-53 1200 -1195 0
-54 -1200 1195 0
-54 1200 -1195 0
-55 -1200 1195 0
-55 -1200 1196 0
-55 1200 -1195 -1196 0
-56 -1200 1195 0
-56 -1200 1197 0
-56 1200 -1195 -1197 0
-57 -1200 1195 0
-57 -1200 1198 0
-57 1200 -1195 -1198 0
-58 -1200 1195 0
-58 1200 -1195 0
-59 -1200 1195 0
-59 1200 -1195 0
-60 -1200 1195 0
-60 1200 -1195 0
-86 -1200 1195 0
-86 1200 -1195 0
-51 -1201 1196 0
-51 1201 -1196 0
-52 -1196 1201 0
-52 -1194 1201 0
-52 -1201 1196 1194 0
-53 -1201 1196 0
-53 1201 -1196 0
-54 -1201 1196 0
-54 1201 -1196 0
-55 -1196 1201 0
-55 -1195 1201 0
-55 -1201 1196 1195 0
-56 -1201 1196 0
-56 1201 -1196 0
-57 -1201 1196 0
-57 1201 -1196 0
-58 -1201 1196 0
-58 -1201 1197 0
-58 1201 -1196 -1197 0
-59 -1201 1196 0
-59 -1201 1198 0
-59 1201 -1196 -1198 0
-60 -1201 1196 0
-60 1201 -1196 0
-86 -1201 1196 0
-86 1201 -1196 0
-51 -1202 1197 0
-51 1202 -1197 0
-52 -1202 1197 0
-52 1202 -1197 0
-53 -1197 1202 0
-53 -1194 1202 0
-53 -1202 1197 1194 0
-54 -1202 1197 0
-54 1202 -1197 0
-55 -1202 1197 0
-55 1202 -1197 0
-56 -1197 1202 0
-56 -1195 1202 0
-56 -1202 1197 1195 0
-57 -1202 1197 0
-57 1202 -1197 0
-58 -1197 1202 0
-58 -1196 1202 0
-58 -1202 1197 1196 0
-59 -1202 1197 0
-59 1202 -1197 0
-60 -1202 1197 0
-60 -1202 1198 0
-60 1202 -1197 -1198 0
-86 -1202 1197 0
-86 1202 -1197 0
-51 -1203 1198 0
-51 1203 -1198 0
-52 -1203 1198 0
-52 1203 -1198 0
-53 -1203 1198 0
-53 1203 -1198 0
-54 -1198 1203 0
-54 -1194 1203 0
-54 -1203 1198 1194 0
-55 -1203 1198 0
-55 1203 -1198 0
-56 -1203 1198 0
-56 1203 -1198 0
-57 -1198 1203 0
-57 -1195 1203 0
-57 -1203 1198 1195 0
-58 -1203 1198 0
-58 1203 -1198 0
-59 -1198 1203 0
-59 -1196 1203 0
-59 -1203 1198 1196 0
-60 -1198 1203 0
-60 -1197 1203 0
-60 -1203 1198 1197 0
-86 -1203 1198 0
-86 1203 -1198 0
-61 -1204 1199 0
-61 -1204 1200 0
-61 1204 -1199 -1200 0
-62 -1204 1199 0
-62 -1204 1201 0
-62 1204 -1199 -1201 0
-63 -1204 1199 0
-63 -1204 1202 0
-63 1204 -1199 -1202 0
-64 -1204 1199 0
-64 -1204 1203 0
-64 1204 -1199 -1203 0
-65 -1204 1199 0
-65 1204 -1199 0
-66 -1204 1199 0
-66 1204 -1199 0
-67 -1204 1199 0
-67 1204 -1199 0
-68 -1204 1199 0
-68 1204 -1199 0
-69 -1204 1199 0
-69 1204 -1199 0
-70 -1204 1199 0
-70 1204 -1199 0
-87 -1204 1199 0
-87 1204 -1199 0
-61 -1200 1205 0
-61 -1199 1205 0
-61 -1205 1200 1199 0
-62 -1205 1200 0
-62 1205 -1200 0
-63 -1205 1200 0
-63 1205 -1200 0
-64 -1205 1200 0
-64 1205 -1200 0
-65 -1205 1200 0
-65 -1205 1201 0
-65 1205 -1200 -1201 0
-66 -1205 1200 0
-66 -1205 1202 0
-66 1205 -1200 -1202 0
-67 -1205 1200 0
-67 -1205 1203 0
-67 1205 -1200 -1203 0
-68 -1205 1200 0
-68 1205 -1200 0
-69 -1205 1200 0
-69 1205 -1200 0
-70 -1205 1200 0
-70 1205 -1200 0
-87 -1205 1200 0
-87 1205 -1200 0
-61 -1206 1201 0
-61 1206 -1201 0
-62 -1201 1206 0
-62 -1199 1206 0
-62 -1206 1201 1199 0
-63 -1206 1201 0
-63 1206 -1201 0
-64 -1206 1201 0
-64 1206 -1201 0
-65 -1201 1206 0
-65 -1200 1206 0
-65 -1206 1201 1200 0
-66 -1206 1201 0
-66 1206 -1201 0
-67 -1206 1201 0
-67 1206 -1201 0
-68 -1206 1201 0
-68 -1206 1202 0
-68 1206 -1201 -1202 0
-69 -1206 1201 0
-69 -1206 1203 0
-69 1206 -1201 -1203 0
-70 -1206 1201 0
-70 1206 -1201 0
-87 -1206 1201 0
-87 1206 -1201 0
-61 -1207 1202 0
-61 1207 -1202 0
-62 -1207 1202 0
-62 1207 -1202 0
-63 -1202 1207 0
-63 -1199 1207 0
-63 -1207 1202 1199 0
-64 -1207 1202 0
-64 1207 -1202 0
-65 -1207 1202 0
-65 1207 -1202 0
-66 -1202 1207 0
-66 -1200 1207 0
-66 -1207 1202 1200 0
-67 -1207 1202 0
-67 1207 -1202 0
-68 -1202 1207 0
-68 -1201 1207 0
-68 -1207 1202 1201 0
-69 -1207 1202 0
-69 1207 -1202 0
-70 -1207 1202 0
-70 -1207 1203 0
-70 1207 -1202 -1203 0
-87 -1207 1202 0
-87 1207 -1202 0
-61 -1208 1203 0
-61 1208 -1203 0
-62 -1208 1203 0
-62 1208 -1203 0
-63 -1208 1203 0
-63 1208 -1203 0
-64 -1203 1208 0
-64 -1199 1208 0
-64 -1208 1203 1199 0
-65 -1208 1203 0
-65 1208 -1203 0
-66 -1208 1203 0
-66 1208 -1203 0
-67 -1203 1208 0
-67 -1200 1208 0
-67 -1208 1203 1200 0
-68 -1208 1203 0
-68 1208 -1203 0
-69 -1203 1208 0
-69 -1201 1208 0
-69 -1208 1203 1201 0
-70 -1203 1208 0
-70 -1202 1208 0
-70 -1208 1203 1202 0
-87 -1208 1203 0
-87 1208 -1203 0
-71 -1209 1204 0
-71 -1209 1205 0
-71 1209 -1204 -1205 0
-72 -1209 1204 0
-72 -1209 1206 0
-72 1209 -1204 -1206 0
-73 -1209 1204 0
-73 -1209 1207 0
-73 1209 -1204 -1207 0
-74 -1209 1204 0
-74 -1209 1208 0
-74 1209 -1204 -1208 0
-75 -1209 1204 0
-75 1209 -1204 0
-76 -1209 1204 0
-76 1209 -1204 0
-77 -1209 1204 0
-77 1209 -1204 0
-78 -1209 1204 0
-78 1209 -1204 0
-79 -1209 1204 0
-79 1209 -1204 0
-80 -1209 1204 0
-80 1209 -1204 0
-88 -1209 1204 0
-88 1209 -1204 0
-71 -1205 1210 0
-71 -1204 1210 0
-71 -1210 1205 1204 0
-72 -1210 1205 0
-72 1210 -1205 0
-73 -1210 1205 0
-73 1210 -1205 0
-74 -1210 1205 0
-74 1210 -1205 0
-75 -1210 1205 0
-75 -1210 1206 0
-75 1210 -1205 -1206 0
-76 -1210 1205 0
-76 -1210 1207 0
-76 1210 -1205 -1207 0
-77 -1210 1205 0
-77 -1210 1208 0
-77 1210 -1205 -1208 0
-78 -1210 1205 0
-78 1210 -1205 0
-79 -1210 1205 0
-79 1210 -1205 0
-80 -1210 1205 0
-80 1210 -1205 0
-88 -1210 1205 0
-88 1210 -1205 0
-71 -1211 1206 0
-71 1211 -1206 0
-72 -1206 1211 0
-72 -1204 1211 0
-72 -1211 1206 1204 0
-73 -1211 1206 0
-73 1211 -1206 0
-74 -1211 1206 0
-74 1211 -1206 0
-75 -1206 1211 0
-75 -1205 1211 0
-75 -1211 1206 1205 0
-76 -1211 1206 0
-76 1211 -1206 0
-77 -1211 1206 0
-77 1211 -1206 0
-78 -1211 1206 0
-78 -1211 1207 0
-78 1211 -1206 -1207 0
-79 -1211 1206 0
-79 -1211 1208 0
-79 1211 -1206 -1208 0
-80 -1211 1206 0
-80 1211 -1206 0
-88 -1211 1206 0
-88 1211 -1206 0
-71 -1212 1207 0
-71 1212 -1207 0
-72 -1212 1207 0
-72 1212 -1207 0
-73 -1207 1212 0
-73 -1204 1212 0
-73 -1212 1207 1204 0
-74 -1212 1207 0
-74 1212 -1207 0
-75 -1212 1207 0
-75 1212 -1207 0
-76 -1207 1212 0
-76 -1205 1212 0
-76 -1212 1207 1205 0
-77 -1212 1207 0
-77 1212 -1207 0
-78 -1207 1212 0
-78 -1206 1212 0
-78 -1212 1207 1206 0
-79 -1212 1207 0
-79 1212 -1207 0
-80 -1212 1207 0
-80 -1212 1208 0
-80 1212 -1207 -1208 0
-88 -1212 1207 0
-88 1212 -1207 0
-71 -1213 1208 0
-71 1213 -1208 0
-72 -1213 1208 0
-72 1213 -1208 0
-73 -1213 1208 0
-73 1213 -1208 0
-74 -1208 1213 0
-74 -1204 1213 0
-74 -1213 1208 1204 0
-75 -1213 1208 0
-75 1213 -1208 0
-76 -1213 1208 0
-76 1213 -1208 0
-77 -1208 1213 0
-77 -1205 1213 0
-77 -1213 1208 1205 0
-78 -1213 1208 0
-78 1213 -1208 0
-79 -1208 1213 0
-79 -1206 1213 0
-79 -1213 1208 1206 0
-80 -1208 1213 0
-80 -1207 1213 0
-80 -1213 1208 1207 0
-88 -1213 1208 0
-88 1213 -1208 0
1214 0
-1 -1219 1214 0
-1 -1219 1215 0
-1 1219 -1214 -1215 0
-2 -1219 1214 0
-2 -1219 1216 0
-2 1219 -1214 -1216 0
-3 -1219 1214 0
-3 -1219 1217 0
-3 1219 -1214 -1217 0
-4 -1219 1214 0
-4 -1219 1218 0
-4 1219 -1214 -1218 0
-5 -1219 1214 0
-5 1219 -1214 0
-6 -1219 1214 0
-6 1219 -1214 0
-7 -1219 1214 0
-7 1219 -1214 0
-8 -1219 1214 0
-8 1219 -1214 0
-9 -1219 1214 0
-9 1219 -1214 0
-10 -1219 1214 0
-10 1219 -1214 0
-81 -1219 1214 0
-81 1219 -1214 0
1215 0
-1 -1215 1220 0
-1 -1214 1220 0
-1 -1220 1215 1214 0
-2 -1220 1215 0
-2 1220 -1215 0
-3 -1220 1215 0
-3 1220 -1215 0
-4 -1220 1215 0
-4 1220 -1215 0
-5 -1220 1215 0
-5 -1220 1216 0
-5 1220 -1215 -1216 0
-6 -1220 1215 0
-6 -1220 1217 0
-6 1220 -1215 -1217 0
-7 -1220 1215 0
-7 -1220 1218 0
-7 1220 -1215 -1218 0
-8 -1220 1215 0
-8 1220 -1215 0
-9 -1220 1215 0
-9 1220 -1215 0
-10 -1220 1215 0
-10 1220 -1215 0
-81 -1220 1215 0
-81 1220 -1215 0
1216 0
-1 -1221 1216 0
-1 1221 -1216 0
-2 -1216 1221 0
-2 -1214 1221 0
-2 -1221 1216 1214 0
-3 -1221 1216 0
-3 1221 -1216 0
-4 -1221 1216 0
-4 1221 -1216 0
-5 -1216 1221 0
-5 -1215 1221 0
-5 -1221 1216 1215 0
-6 -1221 1216 0
-6 1221 -1216 0
-7 -1221 1216 0
-7 1221 -1216 0
-8 -1221 1216 0
-8 -1221 1217 0
-8 1221 -1216 -1217 0
-9 -1221 1216 0
-9 -1221 1218 0
-9 1221 -1216 -1218 0
-10 -1221 1216 0
-10 1221 -1216 0
-81 -1221 1216 0
-81 1221 -1216 0
1217 0
-1 -1222 1217 0
-1 1222 -1217 0
-2 -1222 1217 0
-2 1222 -1217 0
-3 -1217 1222 0
-3 -1214 1222 0
-3 -1222 1217 1214 0
-4 -1222 1217 0
-4 1222 -1217 0
-5 -1222 1217 0
-5 1222 -1217 0
-6 -1217 1222 0
-6 -1215 1222 0
-6 -1222 1217 1215 0
-7 -1222 1217 0
-7 1222 -1217 0
-8 -1217 1222 0
-8 -1216 1222 0
-8 -1222 1217 1216 0
-9 -1222 1217 0
-9 1222 -1217 0
-10 -1222 1217 0
-10 -1222 1218 0
-10 1222 -1217 -1218 0
-81 -1222 1217 0
-81 1222 -1217 0
-1218 0
-1 -1223 1218 0
-1 1223 -1218 0
-2 -1223 1218 0
-2 1223 -1218 0
-3 -1223 1218 0
-3 1223 -1218 0
-4 -1218 1223 0
-4 -1214 1223 0
-4 -1223 1218 1214 0
-5 -1223 1218 0
-5 1223 -1218 0
-6 -1223 1218 0
-6 1223 -1218 0
-7 -1218 1223 0
-7 -1215 1223 0
-7 -1223 1218 1215 0
-8 -1223 1218 0
-8 1223 -1218 0
-9 -1218 1223 0
-9 -1216 1223 0
-9 -1223 1218 1216 0
-10 -1218 1223 0
-10 -1217 1223 0
-10 -1223 1218 1217 0
-81 -1223 1218 0
-81 1223 -1218 0
-11 -1224 1219 0
-11 -1224 1220 0
-11 1224 -1219 -1220 0
-12 -1224 1219 0
-12 -1224 1221 0
-12 1224 -1219 -1221 0
-13 -1224 1219 0
-13 -1224 1222 0
-13 1224 -1219 -1222 0
-14 -1224 1219 0
-14 -1224 1223 0
-14 1224 -1219 -1223 0
-15 -1224 1219 0
-15 1224 -1219 0
-16 -1224 1219 0
-16 1224 -1219 0
-17 -1224 1219 0
-17 1224 -1219 0
-18 -1224 1219 0
-18 1224 -1219 0
-19 -1224 1219 0
-19 1224 -1219 0
-20 -1224 1219 0
-20 1224 -1219 0
-82 -1224 1219 0
-82 1224 -1219 0
-11 -1220 1225 0
-11 -1219 1225 0
-11 -1225 1220 1219 0
-12 -1225 1220 0
-12 1225 -1220 0
-13 -1225 1220 0
-13 1225 -1220 0
-14 -1225 1220 0
-14 1225 -1220 0
-15 -1225 1220 0
-15 -1225 1221 0
-15 1225 -1220 -1221 0
-16 -1225 1220 0
-16 -1225 1222 0
-16 1225 -1220 -1222 0
-17 -1225 1220 0
-17 -1225 1223 0
-17 1225 -1220 -1223 0
-18 -1225 1220 0
-18 1225 -1220 0
-19 -1225 1220 0
-19 1225 -1220 0
-20 -1225 1220 0
-20 1225 -1220 0
-82 -1225 1220 0
-82 1225 -1220 0
-11 -1226 1221 0
-11 1226 -1221 0
-12 -1221 1226 0
-12 -1219 1226 0
-12 -1226 1221 1219 0
-13 -1226 1221 0
-13 1226 -1221 0
-14 -1226 1221 0
-14 1226 -1221 0
-15 -1221 1226 0
-15 -1220 1226 0
-15 -1226 1221 1220 0
-16 -1226 1221 0
-16 1226 -1221 0
-17 -1226 1221 0
-17 1226 -1221 0
-18 -1226 1221 0
-18 -1226 1222 0
-18 1226 -1221 -1222 0
-19 -1226 1221 0
-19 -1226 1223 0
-19 1226 -1221 -1223 0
-20 -1226 1221 0
-20 1226 -1221 0
-82 -1226 1221 0
-82 1226 -1221 0
-11 -1227 1222 0
-11 1227 -1222 0
-12 -1227 1222 0
-12 1227 -1222 0
-13 -1222 1227 0
-13 -1219 1227 0
-13 -1227 1222 1219 0
-14 -1227 1222 0
-14 1227 -1222 0
-15 -1227 1222 0
-15 1227 -1222 0
-16 -1222 1227 0
-16 -1220 1227 0
-16 -1227 1222 1220 0
-17 -1227 1222 0
-17 1227 -1222 0
-18 -1222 1227 0
-18 -1221 1227 0
-18 -1227 1222 1221 0
-19 -1227 1222 0
-19 1227 -1222 0
-20 -1227 1222 0
-20 -1227 1223 0
-20 1227 -1222 -1223 0
-82 -1227 1222 0
-82 1227 -1222 0
-11 -1228 1223 0
-11 1228 -1223 0
-12 -1228 1223 0
-12 1228 -1223 0
-13 -1228 1223 0
-13 1228 -1223 0
-14 -1223 1228 0
-14 -1219 1228 0
-14 -1228 1223 1219 0
-15 -1228 1223 0
-15 1228 -1223 0
-16 -1228 1223 0
-16 1228 -1223 0
-17 -1223 1228 0
-17 -1220 1228 0
-17 -1228 1223 1220 0
-18 -1228 1223 0
-18 1228 -1223 0
-19 -1223 1228 0
-19 -1221 1228 0
-19 -1228 1223 1221 0
-20 -1223 1228 0
-20 -1222 1228 0
-20 -1228 1223 1222 0
-82 -1228 1223 0
-82 1228 -1223 0
-21 -1229 1224 0
-21 -1229 1225 0
-21 1229 -1224 -1225 0
-22 -1229 1224 0
-22 -1229 1226 0
-22 1229 -1224 -1226 0
-23 -1229 1224 0
-23 -1229 1227 0
-23 1229 -1224 -1227 0
-24 -1229 1224 0
-24 -1229 1228 0
-24 1229 -1224 -1228 0
-25 -1229 1224 0
-25 1229 -1224 0
-26 -1229 1224 0
-26 1229 -1224 0
-27 -1229 1224 0
-27 1229 -1224 0
-28 -1229 1224 0
-28 1229 -1224 0
-29 -1229 1224 0
-29 1229 -1224 0
-30 -1229 1224 0
-30 1229 -1224 0
-83 -1229 1224 0
-83 1229 -1224 0
-21 -1225 1230 0
-21 -1224 1230 0
-21 -1230 1225 1224 0
-22 -1230 1225 0
-22 1230 -1225 0
-23 -1230 1225 0
-23 1230 -1225 0
-24 -1230 1225 0
-24 1230 -1225 0
-25 -1230 1225 0
-25 -1230 1226 0
-25 1230 -1225 -1226 0
-26 -1230 1225 0
-26 -1230 1227 0
-26 1230 -1225 -1227 0
-27 -1230 1225 0
-27 -1230 1228 0
-27 1230 -1225 -1228 0
-28 -1230 1225 0
-28 1230 -1225 0
-29 -1230 1225 0
-29 1230 -1225 0
-30 -1230 1225 0
-30 1230 -1225 0
-83 -1230 1225 0
-83 1230 -1225 0
-21 -1231 1226 0
-21 1231 -1226 0
-22 -1226 1231 0
-22 -1224 1231 0
-22 -1231 1226 1224 0
-23 -1231 1226 0
-23 1231 -1226 0
-24 -1231 1226 0
-24 1231 -1226 0
-25 -1226 1231 0
-25 -1225 1231 0
-25 -1231 1226 1225 0
-26 -1231 1226 0
-26 1231 -1226 0
-27 -1231 1226 0
-27 1231 -1226 0
-28 -1231 1226 0
-28 -1231 1227 0
-28 1231 -1226 -1227 0
-29 -1231 1226 0
-29 -1231 1228 0
-29 1231 -1226 -1228 0
-30 -1231 1226 0
-30 1231 -1226 0
-83 -1231 1226 0
-83 1231 -1226 0
-21 -1232 1227 0
-21 1232 -1227 0
-22 -1232 1227 0
-22 1232 -1227 0
-23 -1227 1232 0
-23 -1224 1232 0
-23 -1232 1227 1224 0
-24 -1232 1227 0
-24 1232 -1227 0
-25 -1232 1227 0
-25 1232 -1227 0
-26 -1227 1232 0
-26 -1225 1232 0
-26 -1232 1227 1225 0
-27 -1232 1227 0
-27 1232 -1227 0
-28 -1227 1232 0
-28 -1226 1232 0
-28 -1232 1227 1226 0
-29 -1232 1227 0
-29 1232 -1227 0
-30 -1232 1227 0
-30 -1232 1228 0
-30 1232 -1227 -1228 0
-83 -1232 1227 0
-83 1232 -1227 0
-21 -1233 1228 0
-21 1233 -1228 0
-22 -1233 1228 0
-22 1233 -1228 0
-23 -1233 1228 0
-23 1233 -1228 0
-24 -1228 1233 0
-24 -1224 1233 0
-24 -1233 1228 1224 0
-25 -1233 1228 0
-25 1233 -1228 0
-26 -1233 1228 0
-26 1233 -1228 0
-27 -1228 1233 0
-27 -1225 1233 0
-27 -1233 1228 1225 0
-28 -1233 1228 0
-28 1233 -1228 0
-29 -1228 1233 0
-29 -1226 1233 0
-29 -1233 1228 1226 0
-30 -1228 1233 0
-30 -1227 1233 0
-30 -1233 1228 1227 0
-83 -1233 1228 0
-83 1233 -1228 0
-31 -1234 1229 0
-31 -1234 1230 0
-31 1234 -1229 -1230 0
-32 -1234 1229 0
-32 -1234 1231 0
-32 1234 -1229 -1231 0
-33 -1234 1229 0
-33 -1234 1232 0
-33 1234 -1229 -1232 0
-34 -1234 1229 0
-34 -1234 1233 0
-34 1234 -1229 -1233 0
-35 -1234 1229 0
-35 1234 -1229 0
-36 -1234 1229 0
-36 1234 -1229 0
-37 -1234 1229 0
-37 1234 -1229 0
-38 -1234 1229 0
-38 1234 -1229 0
-39 -1234 1229 0
-39 1234 -1229 0
-40 -1234 1229 0
-40 1234 -1229 0
-84 -1234 1229 0
-84 1234 -1229 0
-31 -1230 1235 0
-31 -1229 1235 0
-31 -1235 1230 1229 0
-32 -1235 1230 0
-32 1235 -1230 0
-33 -1235 1230 0
-33 1235 -1230 0
-34 -1235 1230 0
-34 1235 -1230 0
-35 -1235 1230 0
-35 -1235 1231 0
-35 1235 -1230 -1231 0
-36 -1235 1230 0
-36 -1235 1232 0
-36 1235 -1230 -1232 0
-37 -1235 1230 0
-37 -1235 1233 0
-37 1235 -1230 -1233 0
-38 -1235 1230 0
-38 1235 -1230 0
-39 -1235 1230 0
-39 1235 -1230 0
-40 -1235 1230 0
-40 1235 -1230 0
-84 -1235 1230 0
-84 1235 -1230 0
-31 -1236 1231 0
-31 1236 -1231 0
-32 -1231 1236 0
-32 -1229 1236 0
-32 -1236 1231 1229 0
-33 -1236 1231 0
-33 1236 -1231 0
-34 -1236 1231 0
-34 1236 -1231 0
-35 -1231 1236 0
-35 -1230 1236 0
-35 -1236 1231 1230 0
-36 -1236 1231 0
-36 1236 -1231 0
-37 -1236 1231 0
-37 1236 -1231 0
-38 -1236 1231 0
-38 -1236 1232 0
-38 1236 -1231 -1232 0
-39 -1236 1231 0
-39 -1236 1233 0
-39 1236 -1231 -1233 0
-40 -1236 1231 0
-40 1236 -1231 0
-84 -1236 1231 0
-84 1236 -1231 0
-31 -1237 1232 0
-31 1237 -1232 0
-32 -1237 1232 0
-32 1237 -1232 0
-33 -1232 1237 0
-33 -1229 1237 0
-33 -1237 1232 1229 0
-34 -1237 1232 0
-34 1237 -1232 0
-35 -1237 1232 0
-35 1237 -1232 0
-36 -1232 1237 0
-36 -1230 1237 0
-36 -1237 1232 1230 0
-37 -1237 1232 0
-37 1237 -1232 0
-38 -1232 1237 0
-38 -1231 1237 0
-38 -1237 1232 1231 0
-39 -1237 1232 0
-39 1237 -1232 0
-40 -1237 1232 0
-40 -1237 1233 0
-40 1237 -1232 -1233 0
-84 -1237 1232 0
-84 1237 -1232 0
-31 -1238 1233 0
-31 1238 -1233 0
-32 -1238 1233 0
-32 1238 -1233 0
-33 -1238 1233 0
-33 1238 -1233 0
-34 -1233 1238 0
-34 -1229 1238 0
-34 -1238 1233 1229 0
-35 -1238 1233 0
-35 1238 -1233 0
-36 -1238 1233 0
-36 1238 -1233 0
-37 -1233 1238 0
-37 -1230 1238 0
-37 -1238 1233 1230 0
-38 -1238 1233 0
-38 1238 -1233 0
-39 -1233 1238 0
-39 -1231 1238 0
-39 -1238 1233 1231 0
-40 -1233 1238 0
-40 -1232 1238 0
-40 -1238 1233 1232 0
-84 -1238 1233 0
-84 1238 -1233 0
-41 -1239 1234 0
-41 -1239 1235 0
-41 1239 -1234 -1235 0
-42 -1239 1234 0
-42 -1239 1236 0
-42 1239 -1234 -1236 0
-43 -1239 1234 0
-43 -1239 1237 0
-43 1239 -1234 -1237 0
-44 -1239 1234 0
-44 -1239 1238 0
-44 1239 -1234 -1238 0
-45 -1239 1234 0
-45 1239 -1234 0
-46 -1239 1234 0
-46 1239 -1234 0
-47 -1239 1234 0
-47 1239 -1234 0
-48 -1239 1234 0
-48 1239 -1234 0
-49 -1239 1234 0
-49 1239 -1234 0
-50 -1239 1234 0
-50 1239 -1234 0
-85 -1239 1234 0
-85 1239 -1234 0
-41 -1235 1240 0
-41 -1234 1240 0
-41 -1240 1235 1234 0
-42 -1240 1235 0
-42 1240 -1235 0
-43 -1240 1235 0
-43 1240 -1235 0
-44 -1240 1235 0
-44 1240 -1235 0
-45 -1240 1235 0
-45 -1240 1236 0
-45 1240 -1235 -1236 0
-46 -1240 1235 0
-46 -1240 1237 0
-46 1240 -1235 -1237 0
-47 -1240 1235 0
-47 -1240 1238 0
-47 1240 -1235 -1238 0
-48 -1240 1235 0
-48 1240 -1235 0
-49 -1240 1235 0
-49 1240 -1235 0
-50 -1240 1235 0
-50 1240 -1235 0
-85 -1240 1235 0
-85 1240 -1235 0
-41 -1241 1236 0
-41 1241 -1236 0
-42 -1236 1241 0
-42 -1234 1241 0
-42 -1241 1236 1234 0
-43 -1241 1236 0
-43 1241 -1236 0
-44 -1241 1236 0
-44 1241 -1236 0
-45 -1236 1241 0
-45 -1235 1241 0
-45 -1241 1236 1235 0
-46 -1241 1236 0
-46 1241 -1236 0
-47 -1241 1236 0
-47 1241 -1236 0
-48 -1241 1236 0
-48 -1241 1237 0
-48 1241 -1236 -1237 0
-49 -1241 1236 0
-49 -1241 1238 0
-49 1241 -1236 -1238 0
-50 -1241 1236 0
-50 1241 -1236 0
-85 -1241 1236 0
-85 1241 -1236 0
-41 -1242 1237 0
-41 1242 -1237 0
-42 -1242 1237 0
-42 1242 -1237 0
-43 -1237 1242 0
-43 -1234 1242 0
-43 -1242 1237 1234 0
-44 -1242 1237 0
-44 1242 -1237 0
-45 -1242 1237 0
-45 1242 -1237 0
-46 -1237 1242 0
-46 -1235 1242 0
-46 -1242 1237 1235 0
-47 -1242 1237 0
-47 1242 -1237 0
-48 -1237 1242 0
-48 -1236 1242 0
-48 -1242 1237 1236 0
-49 -1242 1237 0
-49 1242 -1237 0
-50 -1242 1237 0
-50 -1242 1238 0
-50 1242 -1237 -1238 0
-85 -1242 1237 0
-85 1242 -1237 0
-41 -1243 1238 0
-41 1243 -1238 0
-42 -1243 1238 0
-42 1243 -1238 0
-43 -1243 1238 0
-43 1243 -1238 0
-44 -1238 1243 0
-44 -1234 1243 0
-44 -1243 1238 1234 0
-45 -1243 1238 0
-45 1243 -1238 0
-46 -1243 1238 0
-46 1243 -1238 0
-47 -1238 1243 0
-47 -1235 1243 0
-47 -1243 1238 1235 0
-48 -1243 1238 0
-48 1243 -1238 0
-49 -1238 1243 0
-49 -1236 1243 0
-49 -1243 1238 1236 0
-50 -1238 1243 0
-50 -1237 1243 0
-50 -1243 1238 1237 0
-85 -1243 1238 0
-85 1243 -1238 0
-51 -1244 1239 0
-51 -1244 1240 0
-51 1244 -1239 -1240 0
-52 -1244 1239 0
-52 -1244 1241 0
-52 1244 -1239 -1241 0
-53 -1244 1239 0
-53 -1244 1242 0
-53 1244 -1239 -1242 0
-54 -1244 1239 0
-54 -1244 1243 0
-54 1244 -1239 -1243 0
-55 -1244 1239 0
-55 1244 -1239 0
-56 -1244 1239 0
-56 1244 -1239 0
-57 -1244 1239 0
-57 1244 -1239 0
-58 -1244 1239 0
-58 1244 -1239 0
-59 -1244 1239 0
-59 1244 -1239 0
-60 -1244 1239 0
-60 1244 -1239 0
-86 -1244 1239 0
-86 1244 -1239 0
-51 -1240 1245 0
-51 -1239 1245 0
-51 -1245 1240 1239 0
-52 -1245 1240 0
-52 1245 -1240 0
-53 -1245 1240 0
-53 1245 -1240 0
-54 -1245 1240 0
-54 1245 -1240 0
-55 -1245 1240 0
-55 -1245 1241 0
-55 1245 -1240 -1241 0
-56 -1245 1240 0
-56 -1245 1242 0
-56 1245 -1240 -1242 0
-57 -1245 1240 0
-57 -1245 1243 0
-57 1245 -1240 -1243 0
-58 -1245 1240 0
-58 1245 -1240 0
-59 -1245 1240 0
-59 1245 -1240 0
-60 -1245 1240 0
-60 1245 -1240 0
-86 -1245 1240 0
-86 1245 -1240 0
-51 -1246 1241 0
-51 1246 -1241 0
-52 -1241 1246 0
-52 -1239 1246 0
-52 -1246 1241 1239 0
-53 -1246 1241 0
-53 1246 -1241 0
-54 -1246 1241 0
-54 1246 -1241 0
-55 -1241 1246 0
-55 -1240 1246 0
-55 -1246 1241 1240 0
-56 -1246 1241 0
-56 1246 -1241 0
-57 -1246 1241 0
-57 1246 -1241 0
-58 -1246 1241 0
-58 -1246 1242 0
-58 1246 -1241 -1242 0
-59 -1246 1241 0
-59 -1246 1243 0
-59 1246 -1241 -1243 0
-60 -1246 1241 0
-60 1246 -1241 0
-86 -1246 1241 0
-86 1246 -1241 0
-51 -1247 1242 0
-51 1247 -1242 0
-52 -1247 1242 0
-52 1247 -1242 0
-53 -1242 1247 0
-53 -1239 1247 0
-53 -1247 1242 1239 0
-54 -1247 1242 0
-54 1247 -1242 0
-55 -1247 1242 0
-55 1247 -1242 0
-56 -1242 1247 0
-56 -1240 1247 0
-56 -1247 1242 1240 0
-57 -1247 1242 0
-57 1247 -1242 0
-58 -1242 1247 0
-58 -1241 1247 0
-58 -1247 1242 1241 0
-59 -1247 1242 0
-59 1247 -1242 0
-60 -1247 1242 0
-60 -1247 1243 0
-60 1247 -1242 -1243 0
-86 -1247 1242 0
-86 1247 -1242 0
-51 -1248 1243 0
-51 1248 -1243 0
-52 -1248 1243 0
-52 1248 -1243 0
-53 -1248 1243 0
-53 1248 -1243 0
-54 -1243 1248 0
-54 -1239 1248 0
-54 -1248 1243 1239 0
-55 -1248 1243 0
-55 1248 -1243 0
-56 -1248 1243 0
-56 1248 -1243 0
-57 -1243 1248 0
-57 -1240 1248 0
-57 -1248 1243 1240 0
-58 -1248 1243 0
-58 1248 -1243 0
-59 -1243 1248 0
-59 -1241 1248 0
-59 -1248 1243 1241 0
-60 -1243 1248 0
-60 -1242 1248 0
-60 -1248 1243 1242 0
-86 -1248 1243 0
-86 1248 -1243 0
-61 -1249 1244 0
-61 -1249 1245 0
-61 1249 -1244 -1245 0
-62 -1249 1244 0
-62 -1249 1246 0
-62 1249 -1244 -1246 0
-63 -1249 1244 0
-63 -1249 1247 0
-63 1249 -1244 -1247 0
-64 -1249 1244 0
-64 -1249 1248 0
-64 1249 -1244 -1248 0
-65 -1249 1244 0
-65 1249 -1244 0
-66 -1249 1244 0
-66 1249 -1244 0
-67 -1249 1244 0
-67 1249 -1244 0
-68 -1249 1244 0
-68 1249 -1244 0
-69 -1249 1244 0
-69 1249 -1244 0
-70 -1249 1244 0
-70 1249 -1244 0
-87 -1249 1244 0
-87 1249 -1244 0
-61 -1245 1250 0
-61 -1244 1250 0
-61 -1250 1245 1244 0
-62 -1250 1245 0
-62 1250 -1245 0
-63 -1250 1245 0
-63 1250 -1245 0
-64 -1250 1245 0
-64 1250 -1245 0
-65 -1250 1245 0
-65 -1250 1246 0
-65 1250 -1245 -1246 0
-66 -1250 1245 0
-66 -1250 1247 0
-66 1250 -1245 -1247 0
-67 -1250 1245 0
-67 -1250 1248 0
-67 1250 -1245 -1248 0
-68 -1250 1245 0
-68 1250 -1245 0
-69 -1250 1245 0
-69 1250 -1245 0
-70 -1250 1245 0
-70 1250 -1245 0
-87 -1250 1245 0
-87 1250 -1245 0
-61 -1251 1246 0
-61 1251 -1246 0
-62 -1246 1251 0
-62 -1244 1251 0
-62 -1251 1246 1244 0
-63 -1251 1246 0
-63 1251 -1246 0
-64 -1251 1246 0
-64 1251 -1246 0
-65 -1246 1251 0
-65 -1245 1251 0
-65 -1251 1246 1245 0
-66 -1251 1246 0
-66 1251 -1246 0
-67 -1251 1246 0
-67 1251 -1246 0
-68 -1251 1246 0
-68 -1251 1247 0
-68 1251 -1246 -1247 0
-69 -1251 1246 0
-69 -1251 1248 0
-69 1251 -1246 -1248 0
-70 -1251 1246 0
-70 1251 -1246 0
-87 -1251 1246 0
-87 1251 -1246 0
-61 -1252 1247 0
-61 1252 -1247 0
-62 -1252 1247 0
-62 1252 -1247 0
-63 -1247 1252 0
-63 -1244 1252 0
-63 -1252 1247 1244 0
-64 -1252 1247 0
-64 1252 -1247 0
-65 -1252 1247 0
-65 1252 -1247 0
-66 -1247 1252 0
-66 -1245 1252 0
-66 -1252 1247 1245 0
-67 -1252 1247 0
-67 1252 -1247 0
-68 -1247 1252 0
-68 -1246 1252 0
-68 -1252 1247 1246 0
-69 -1252 1247 0
-69 1252 -1247 0
-70 -1252 1247 0
-70 -1252 1248 0
-70 1252 -1247 -1248 0
-87 -1252 1247 0
-87 1252 -1247 0
-61 -1253 1248 0
-61 1253 -1248 0
-62 -1253 1248 0
-62 1253 -1248 0
-63 -1253 1248 0
-63 1253 -1248 0
-64 -1248 1253 0
-64 -1244 1253 0
-64 -1253 1248 1244 0
-65 -1253 1248 0
-65 1253 -1248 0
-66 -1253 1248 0
-66 1253 -1248 0
-67 -1248 1253 0
-67 -1245 1253 0
-67 -1253 1248 1245 0
-68 -1253 1248 0
-68 1253 -1248 0
-69 -1248 1253 0
-69 -1246 1253 0
-69 -1253 1248 1246 0
-70 -1248 1253 0
-70 -1247 1253 0
-70 -1253 1248 1247 0
-87 -1253 1248 0
-87 1253 -1248 0
-71 -1254 1249 0
-71 -1254 1250 0
-71 1254 -1249 -1250 0
-72 -1254 1249 0
-72 -1254 1251 0
-72 1254 -1249 -1251 0
-73 -1254 1249 0
-73 -1254 1252 0
-73 1254 -1249 -1252 0
-74 -1254 1249 0
-74 -1254 1253 0
-74 1254 -1249 -1253 0
-75 -1254 1249 0
-75 1254 -1249 0
-76 -1254 1249 0
-76 1254 -1249 0
-77 -1254 1249 0
-77 1254 -1249 0
-78 -1254 1249 0
-78 1254 -1249 0
-79 -1254 1249 0
-79 1254 -1249 0
-80 -1254 1249 0
-80 1254 -1249 0
-88 -1254 1249 0
-88 1254 -1249 0
-71 -1250 1255 0
-71 -1249 1255 0
-71 -1255 1250 1249 0
-72 -1255 1250 0
-72 1255 -1250 0
-73 -1255 1250 0
-73 1255 -1250 0
-74 -1255 1250 0
-74 1255 -1250 0
-75 -1255 1250 0
-75 -1255 1251 0
-75 1255 -1250 -1251 0
-76 -1255 1250 0
-76 -1255 1252 0
-76 1255 -1250 -1252 0
-77 -1255 1250 0
-77 -1255 1253 0
-77 1255 -1250 -1253 0
-78 -1255 1250 0
-78 1255 -1250 0
-79 -1255 1250 0
-79 1255 -1250 0
-80 -1255 1250 0
-80 1255 -1250 0
-88 -1255 1250 0
-88 1255 -1250 0
-71 -1256 1251 0
-71 1256 -1251 0
-72 -1251 1256 0
-72 -1249 1256 0
-72 -1256 1251 1249 0
-73 -1256 1251 0
-73 1256 -1251 0
-74 -1256 1251 0
-74 1256 -1251 0
-75 -1251 1256 0
-75 -1250 1256 0
-75 -1256 1251 1250 0
-76 -1256 1251 0
-76 1256 -1251 0
-77 -1256 1251 0
-77 1256 -1251 0
-78 -1256 1251 0
-78 -1256 1252 0
-78 1256 -1251 -1252 0
-79 -1256 1251 0
-79 -1256 1253 0
-79 1256 -1251 -1253 0
-80 -1256 1251 0
-80 1256 -1251 0
-88 -1256 1251 0
-88 1256 -1251 0
-71 -1257 1252 0
-71 1257 -1252 0
-72 -1257 1252 0
-72 1257 -1252 0
-73 -1252 1257 0
-73 -1249 1257 0
-73 -1257 1252 1249 0
-74 -1257 1252 0
-74 1257 -1252 0
-75 -1257 1252 0
-75 1257 -1252 0
-76 -1252 1257 0
-76 -1250 1257 0
-76 -1257 1252 1250 0
-77 -1257 1252 0
-77 1257 -1252 0
-78 -1252 1257 0
-78 -1251 1257 0
-78 -1257 1252 1251 0
-79 -1257 1252 0
-79 1257 -1252 0
-80 -1257 1252 0
-80 -1257 1253 0
-80 1257 -1252 -1253 0
-88 -1257 1252 0
-88 1257 -1252 0
-71 -1258 1253 0
-71 1258 -1253 0
-72 -1258 1253 0
-72 1258 -1253 0
-73 -1258 1253 0
-73 1258 -1253 0
-74 -1253 1258 0
-74 -1249 1258 0
-74 -1258 1253 1249 0
-75 -1258 1253 0
-75 1258 -1253 0
-76 -1258 1253 0
-76 1258 -1253 0
-77 -1253 1258 0
-77 -1250 1258 0
-77 -1258 1253 1250 0
-78 -1258 1253 0
-78 1258 -1253 0
-79 -1253 1258 0
-79 -1251 1258 0
-79 -1258 1253 1251 0
-80 -1253 1258 0
-80 -1252 1258 0
-80 -1258 1253 1252 0
-88 -1258 1253 0
-88 1258 -1253 0
-131 0
-176 0
-221 0
-266 0
-311 0
-356 0
-401 0
446 0
-491 0
536 0
581 0
-626 0
-671 0
-716 0
761 0
-806 0
851 0
896 0
941 0
-986 0
1031 0
1076 0
1121 0
1166 0
1211 0
1256 0
