p cnf 122 1340
1 2 3 4 5 6 13 0
-1 -2 0
-1 -3 0
-1 -4 0
-1 -5 0
-1 -6 0
-1 -13 0
-2 -3 0
-2 -4 0
-2 -5 0
-2 -6 0
-2 -13 0
-3 -4 0
-3 -5 0
-3 -6 0
-3 -13 0
-4 -5 0
-4 -6 0
-4 -13 0
-5 -6 0
-5 -13 0
-6 -13 0
7 8 9 10 11 12 14 0
-7 -8 0
-7 -9 0
-7 -10 0
-7 -11 0
-7 -12 0
-7 -14 0
-8 -9 0
-8 -10 0
-8 -11 0
-8 -12 0
-8 -14 0
-9 -10 0
-9 -11 0
-9 -12 0
-9 -14 0
-10 -11 0
-10 -12 0
-10 -14 0
-11 -12 0
-11 -14 0
-12 -14 0
-1 -7 0
-2 -8 0
-3 -9 0
-4 -10 0
-5 -11 0
-6 -12 0
-4 -9 0
-5 -8 0
-6 -7 0
-15 0
-1 -19 15 0
-1 -19 16 0
-1 19 -15 -16 0
-2 -19 15 0
-2 -19 17 0
-2 19 -15 -17 0
-3 -19 15 0
-3 -19 18 0
-3 19 -15 -18 0
-4 -19 15 0
-4 19 -15 0
-5 -19 15 0
-5 19 -15 0
-6 -19 15 0
-6 19 -15 0
-13 -19 15 0
-13 19 -15 0
-16 0
-1 -16 20 0
-1 -15 20 0
-1 -20 16 15 0
-2 -20 16 0
-2 20 -16 0
-3 -20 16 0
-3 20 -16 0
-4 -20 16 0
-4 -20 17 0
-4 20 -16 -17 0
-5 -20 16 0
-5 -20 18 0
-5 20 -16 -18 0
-6 -20 16 0
-6 20 -16 0
-13 -20 16 0
-13 20 -16 0
-17 0
-1 -21 17 0
-1 21 -17 0
-2 -17 21 0
-2 -15 21 0
-2 -21 17 15 0
-3 -21 17 0
-3 21 -17 0
-4 -17 21 0
-4 -16 21 0
-4 -21 17 16 0
-5 -21 17 0
-5 21 -17 0
-6 -21 17 0
-6 -21 18 0
-6 21 -17 -18 0
-13 -21 17 0
-13 21 -17 0
-18 0
-1 -22 18 0
-1 22 -18 0
-2 -22 18 0
-2 22 -18 0
-3 -18 22 0
-3 -15 22 0
-3 -22 18 15 0
-4 -22 18 0
-4 22 -18 0
-5 -18 22 0
-5 -16 22 0
-5 -22 18 16 0
-6 -18 22 0
-6 -17 22 0
-6 -22 18 17 0
-13 -22 18 0
-13 22 -18 0
-7 -23 19 0
-7 -23 20 0
-7 23 -19 -20 0
-8 -23 19 0
-8 -23 21 0
-8 23 -19 -21 0
-9 -23 19 0
-9 -23 22 0
-9 23 -19 -22 0
-10 -23 19 0
-10 23 -19 0
-11 -23 19 0
-11 23 -19 0
-12 -23 19 0
-12 23 -19 0
-14 -23 19 0
-14 23 -19 0
-7 -20 24 0
-7 -19 24 0
-7 -24 20 19 0
-8 -24 20 0
-8 24 -20 0
-9 -24 20 0
-9 24 -20 0
-10 -24 20 0
-10 -24 21 0
-10 24 -20 -21 0
-11 -24 20 0
-11 -24 22 0
-11 24 -20 -22 0
-12 -24 20 0
-12 24 -20 0
-14 -24 20 0
-14 24 -20 0
-7 -25 21 0
-7 25 -21 0
-8 -21 25 0
-8 -19 25 0
-8 -25 21 19 0
-9 -25 21 0
-9 25 -21 0
-10 -21 25 0
-10 -20 25 0
-10 -25 21 20 0
-11 -25 21 0
-11 25 -21 0
-12 -25 21 0
-12 -25 22 0
-12 25 -21 -22 0
-14 -25 21 0
-14 25 -21 0
-7 -26 22 0
-7 26 -22 0
-8 -26 22 0
-8 26 -22 0
-9 -22 26 0
-9 -19 26 0
-9 -26 22 19 0
-10 -26 22 0
-10 26 -22 0
-11 -22 26 0
-11 -20 26 0
-11 -26 22 20 0
-12 -22 26 0
-12 -21 26 0
-12 -26 22 21 0
-14 -26 22 0
-14 26 -22 0
-27 0
-1 -31 27 0
-1 -31 28 0
-1 31 -27 -28 0
-2 -31 27 0
-2 -31 29 0
-2 31 -27 -29 0
-3 -31 27 0
-3 -31 30 0
-3 31 -27 -30 0
-4 -31 27 0
-4 31 -27 0
-5 -31 27 0
-5 31 -27 0
-6 -31 27 0
-6 31 -27 0
-13 -31 27 0
-13 31 -27 0
-28 0
-1 -28 32 0
-1 -27 32 0
-1 -32 28 27 0
-2 -32 28 0
-2 32 -28 0
-3 -32 28 0
-3 32 -28 0
-4 -32 28 0
-4 -32 29 0
-4 32 -28 -29 0
-5 -32 28 0
-5 -32 30 0
-5 32 -28 -30 0
-6 -32 28 0
-6 32 -28 0
-13 -32 28 0
-13 32 -28 0
-29 0
-1 -33 29 0
-1 33 -29 0
-2 -29 33 0
-2 -27 33 0
-2 -33 29 27 0
-3 -33 29 0
-3 33 -29 0
-4 -29 33 0
-4 -28 33 0
-4 -33 29 28 0
-5 -33 29 0
-5 33 -29 0
-6 -33 29 0
-6 -33 30 0
-6 33 -29 -30 0
-13 -33 29 0
-13 33 -29 0
30 0
-1 -34 30 0
-1 34 -30 0
-2 -34 30 0
-2 34 -30 0
-3 -30 34 0
-3 -27 34 0
-3 -34 30 27 0
-4 -34 30 0
-4 34 -30 0
-5 -30 34 0
-5 -28 34 0
-5 -34 30 28 0
-6 -30 34 0
-6 -29 34 0
-6 -34 30 29 0
-13 -34 30 0
-13 34 -30 0
-7 -35 31 0
-7 -35 32 0
-7 35 -31 -32 0
-8 -35 31 0
-8 -35 33 0
-8 35 -31 -33 0
-9 -35 31 0
-9 -35 34 0
-9 35 -31 -34 0
-10 -35 31 0
-10 35 -31 0
-11 -35 31 0
-11 35 -31 0
-12 -35 31 0
-12 35 -31 0
-14 -35 31 0
-14 35 -31 0
-7 -32 36 0
-7 -31 36 0
-7 -36 32 31 0
-8 -36 32 0
-8 36 -32 0
-9 -36 32 0
-9 36 -32 0
-10 -36 32 0
-10 -36 33 0
-10 36 -32 -33 0
-11 -36 32 0
-11 -36 34 0
-11 36 -32 -34 0
-12 -36 32 0
-12 36 -32 0
-14 -36 32 0
-14 36 -32 0
-7 -37 33 0
-7 37 -33 0
-8 -33 37 0
-8 -31 37 0
-8 -37 33 31 0
-9 -37 33 0
-9 37 -33 0
-10 -33 37 0
-10 -32 37 0
-10 -37 33 32 0
-11 -37 33 0
-11 37 -33 0
-12 -37 33 0
-12 -37 34 0
-12 37 -33 -34 0
-14 -37 33 0
-14 37 -33 0
-7 -38 34 0
-7 38 -34 0
-8 -38 34 0
-8 38 -34 0
-9 -34 38 0
-9 -31 38 0
-9 -38 34 31 0
-10 -38 34 0
-10 38 -34 0
-11 -34 38 0
-11 -32 38 0
-11 -38 34 32 0
-12 -34 38 0
-12 -33 38 0
-12 -38 34 33 0
-14 -38 34 0
-14 38 -34 0
-39 0
-1 -43 39 0
-1 -43 40 0
-1 43 -39 -40 0
-2 -43 39 0
-2 -43 41 0
-2 43 -39 -41 0
-3 -43 39 0
-3 -43 42 0
-3 43 -39 -42 0
-4 -43 39 0
-4 43 -39 0
-5 -43 39 0
-5 43 -39 0
-6 -43 39 0
-6 43 -39 0
-13 -43 39 0
-13 43 -39 0
-40 0
-1 -40 44 0
-1 -39 44 0
-1 -44 40 39 0
-2 -44 40 0
-2 44 -40 0
-3 -44 40 0
-3 44 -40 0
-4 -44 40 0
-4 -44 41 0
-4 44 -40 -41 0
-5 -44 40 0
-5 -44 42 0
-5 44 -40 -42 0
-6 -44 40 0
-6 44 -40 0
-13 -44 40 0
-13 44 -40 0
41 0
-1 -45 41 0
-1 45 -41 0
-2 -41 45 0
-2 -39 45 0
-2 -45 41 39 0
-3 -45 41 0
-3 45 -41 0
-4 -41 45 0
-4 -40 45 0
-4 -45 41 40 0
-5 -45 41 0
-5 45 -41 0
-6 -45 41 0
-6 -45 42 0
-6 45 -41 -42 0
-13 -45 41 0
-13 45 -41 0
42 0
-1 -46 42 0
-1 46 -42 0
-2 -46 42 0
-2 46 -42 0
-3 -42 46 0
-3 -39 46 0
-3 -46 42 39 0
-4 -46 42 0
-4 46 -42 0
-5 -42 46 0
-5 -40 46 0
-5 -46 42 40 0
-6 -42 46 0
-6 -41 46 0
-6 -46 42 41 0
-13 -46 42 0
-13 46 -42 0
-7 -47 43 0
-7 -47 44 0
-7 47 -43 -44 0
-8 -47 43 0
-8 -47 45 0
-8 47 -43 -45 0
-9 -47 43 0
-9 -47 46 0
-9 47 -43 -46 0
-10 -47 43 0
-10 47 -43 0
-11 -47 43 0
-11 47 -43 0
-12 -47 43 0
-12 47 -43 0
-14 -47 43 0
-14 47 -43 0
-7 -44 48 0
-7 -43 48 0
-7 -48 44 43 0
-8 -48 44 0
-8 48 -44 0
-9 -48 44 0
-9 48 -44 0
-10 -48 44 0
-10 -48 45 0
-10 48 -44 -45 0
-11 -48 44 0
-11 -48 46 0
-11 48 -44 -46 0
-12 -48 44 0
-12 48 -44 0
-14 -48 44 0
-14 48 -44 0
-7 -49 45 0
-7 49 -45 0
-8 -45 49 0
-8 -43 49 0
-8 -49 45 43 0
-9 -49 45 0
-9 49 -45 0
-10 -45 49 0
-10 -44 49 0
-10 -49 45 44 0
-11 -49 45 0
-11 49 -45 0
-12 -49 45 0
-12 -49 46 0
-12 49 -45 -46 0
-14 -49 45 0
-14 49 -45 0
-7 -50 46 0
-7 50 -46 0
-8 -50 46 0
-8 50 -46 0
-9 -46 50 0
-9 -43 50 0
-9 -50 46 43 0
-10 -50 46 0
-10 50 -46 0
-11 -46 50 0
-11 -44 50 0
-11 -50 46 44 0
-12 -46 50 0
-12 -45 50 0
-12 -50 46 45 0
-14 -50 46 0
-14 50 -46 0
-51 0
-1 -55 51 0
-1 -55 52 0
-1 55 -51 -52 0
-2 -55 51 0
-2 -55 53 0
-2 55 -51 -53 0
-3 -55 51 0
-3 -55 54 0
-3 55 -51 -54 0
-4 -55 51 0
-4 55 -51 0
-5 -55 51 0
-5 55 -51 0
-6 -55 51 0
-6 55 -51 0
-13 -55 51 0
-13 55 -51 0
52 0
-1 -52 56 0
-1 -51 56 0
-1 -56 52 51 0
-2 -56 52 0
-2 56 -52 0
-3 -56 52 0
-3 56 -52 0
-4 -56 52 0
-4 -56 53 0
-4 56 -52 -53 0
-5 -56 52 0
-5 -56 54 0
-5 56 -52 -54 0
-6 -56 52 0
-6 56 -52 0
-13 -56 52 0
-13 56 -52 0
-53 0
-1 -57 53 0
-1 57 -53 0
-2 -53 57 0
-2 -51 57 0
-2 -57 53 51 0
-3 -57 53 0
-3 57 -53 0
-4 -53 57 0
-4 -52 57 0
-4 -57 53 52 0
-5 -57 53 0
-5 57 -53 0
-6 -57 53 0
-6 -57 54 0
-6 57 -53 -54 0
-13 -57 53 0
-13 57 -53 0
-54 0
-1 -58 54 0
-1 58 -54 0
-2 -58 54 0
-2 58 -54 0
-3 -54 58 0
-3 -51 58 0
-3 -58 54 51 0
-4 -58 54 0
-4 58 -54 0
-5 -54 58 0
-5 -52 58 0
-5 -58 54 52 0
-6 -54 58 0
-6 -53 58 0
-6 -58 54 53 0
-13 -58 54 0
-13 58 -54 0
-7 -59 55 0
-7 -59 56 0
-7 59 -55 -56 0
-8 -59 55 0
-8 -59 57 0
-8 59 -55 -57 0
-9 -59 55 0
-9 -59 58 0
-9 59 -55 -58 0
-10 -59 55 0
-10 59 -55 0
-11 -59 55 0
-11 59 -55 0
-12 -59 55 0
-12 59 -55 0
-14 -59 55 0
-14 59 -55 0
-7 -56 60 0
-7 -55 60 0
-7 -60 56 55 0
-8 -60 56 0
-8 60 -56 0
-9 -60 56 0
-9 60 -56 0
-10 -60 56 0
-10 -60 57 0
-10 60 -56 -57 0
-11 -60 56 0
-11 -60 58 0
-11 60 -56 -58 0
-12 -60 56 0
-12 60 -56 0
-14 -60 56 0
-14 60 -56 0
-7 -61 57 0
-7 61 -57 0
-8 -57 61 0
-8 -55 61 0
-8 -61 57 55 0
-9 -61 57 0
-9 61 -57 0
-10 -57 61 0
-10 -56 61 0
-10 -61 57 56 0
-11 -61 57 0
-11 61 -57 0
-12 -61 57 0
-12 -61 58 0
-12 61 -57 -58 0
-14 -61 57 0
-14 61 -57 0
-7 -62 58 0
-7 62 -58 0
-8 -62 58 0
-8 62 -58 0
-9 -58 62 0
-9 -55 62 0
-9 -62 58 55 0
-10 -62 58 0
-10 62 -58 0
-11 -58 62 0
-11 -56 62 0
-11 -62 58 56 0
-12 -58 62 0
-12 -57 62 0
-12 -62 58 57 0
-14 -62 58 0
-14 62 -58 0
-63 0
-1 -67 63 0
-1 -67 64 0
-1 67 -63 -64 0
-2 -67 63 0
-2 -67 65 0
-2 67 -63 -65 0
-3 -67 63 0
-3 -67 66 0
-3 67 -63 -66 0
-4 -67 63 0
-4 67 -63 0
-5 -67 63 0
-5 67 -63 0
-6 -67 63 0
-6 67 -63 0
-13 -67 63 0
-13 67 -63 0
64 0
-1 -64 68 0
-1 -63 68 0
-1 -68 64 63 0
-2 -68 64 0
-2 68 -64 0
-3 -68 64 0
-3 68 -64 0
-4 -68 64 0
-4 -68 65 0
-4 68 -64 -65 0
-5 -68 64 0
-5 -68 66 0
-5 68 -64 -66 0
-6 -68 64 0
-6 68 -64 0
-13 -68 64 0
-13 68 -64 0
-65 0
-1 -69 65 0
-1 69 -65 0
-2 -65 69 0
-2 -63 69 0
-2 -69 65 63 0
-3 -69 65 0
-3 69 -65 0
-4 -65 69 0
-4 -64 69 0
-4 -69 65 64 0
-5 -69 65 0
-5 69 -65 0
-6 -69 65 0
-6 -69 66 0
-6 69 -65 -66 0
-13 -69 65 0
-13 69 -65 0
66 0
-1 -70 66 0
-1 70 -66 0
-2 -70 66 0
-2 70 -66 0
-3 -66 70 0
-3 -63 70 0
-3 -70 66 63 0
-4 -70 66 0
-4 70 -66 0
-5 -66 70 0
-5 -64 70 0
-5 -70 66 64 0
-6 -66 70 0
-6 -65 70 0
-6 -70 66 65 0
-13 -70 66 0
-13 70 -66 0
-7 -71 67 0
-7 -71 68 0
-7 71 -67 -68 0
-8 -71 67 0
-8 -71 69 0
-8 71 -67 -69 0
-9 -71 67 0
-9 -71 70 0
-9 71 -67 -70 0
-10 -71 67 0
-10 71 -67 0
-11 -71 67 0
-11 71 -67 0
-12 -71 67 0
-12 71 -67 0
-14 -71 67 0
-14 71 -67 0
-7 -68 72 0
-7 -67 72 0
-7 -72 68 67 0
-8 -72 68 0
-8 72 -68 0
-9 -72 68 0
-9 72 -68 0
-10 -72 68 0
-10 -72 69 0
-10 72 -68 -69 0
-11 -72 68 0
-11 -72 70 0
-11 72 -68 -70 0
-12 -72 68 0
-12 72 -68 0
-14 -72 68 0
-14 72 -68 0
-7 -73 69 0
-7 73 -69 0
-8 -69 73 0
-8 -67 73 0
-8 -73 69 67 0
-9 -73 69 0
-9 73 -69 0
-10 -69 73 0
-10 -68 73 0
-10 -73 69 68 0
-11 -73 69 0
-11 73 -69 0
-12 -73 69 0
-12 -73 70 0
-12 73 -69 -70 0
-14 -73 69 0
-14 73 -69 0
-7 -74 70 0
-7 74 -70 0
-8 -74 70 0
-8 74 -70 0
-9 -70 74 0
-9 -67 74 0
-9 -74 70 67 0
-10 -74 70 0
-10 74 -70 0
-11 -70 74 0
-11 -68 74 0
-11 -74 70 68 0
-12 -70 74 0
-12 -69 74 0
-12 -74 70 69 0
-14 -74 70 0
-14 74 -70 0
-75 0
-1 -79 75 0
-1 -79 76 0
-1 79 -75 -76 0
-2 -79 75 0
-2 -79 77 0
-2 79 -75 -77 0
-3 -79 75 0
-3 -79 78 0
-3 79 -75 -78 0
-4 -79 75 0
-4 79 -75 0
-5 -79 75 0
-5 79 -75 0
-6 -79 75 0
-6 79 -75 0
-13 -79 75 0
-13 79 -75 0
76 0
-1 -76 80 0
-1 -75 80 0
-1 -80 76 75 0
-2 -80 76 0
-2 80 -76 0
-3 -80 76 0
-3 80 -76 0
-4 -80 76 0
-4 -80 77 0
-4 80 -76 -77 0
-5 -80 76 0
-5 -80 78 0
-5 80 -76 -78 0
-6 -80 76 0
-6 80 -76 0
-13 -80 76 0
-13 80 -76 0
77 0
-1 -81 77 0
-1 81 -77 0
-2 -77 81 0
-2 -75 81 0
-2 -81 77 75 0
-3 -81 77 0
-3 81 -77 0
-4 -77 81 0
-4 -76 81 0
-4 -81 77 76 0
-5 -81 77 0
-5 81 -77 0
-6 -81 77 0
-6 -81 78 0
-6 81 -77 -78 0
-13 -81 77 0
-13 81 -77 0
78 0
-1 -82 78 0
-1 82 -78 0
-2 -82 78 0
-2 82 -78 0
-3 -78 82 0
-3 -75 82 0
-3 -82 78 75 0
-4 -82 78 0
-4 82 -78 0
-5 -78 82 0
-5 -76 82 0
-5 -82 78 76 0
-6 -78 82 0
-6 -77 82 0
-6 -82 78 77 0
-13 -82 78 0
-13 82 -78 0
-7 -83 79 0
-7 -83 80 0
-7 83 -79 -80 0
-8 -83 79 0
-8 -83 81 0
-8 83 -79 -81 0
-9 -83 79 0
-9 -83 82 0
-9 83 -79 -82 0
-10 -83 79 0
-10 83 -79 0
-11 -83 79 0
-11 83 -79 0
-12 -83 79 0
-12 83 -79 0
-14 -83 79 0
-14 83 -79 0
-7 -80 84 0
-7 -79 84 0
-7 -84 80 79 0
-8 -84 80 0
-8 84 -80 0
-9 -84 80 0
-9 84 -80 0
-10 -84 80 0
-10 -84 81 0
-10 84 -80 -81 0
-11 -84 80 0
-11 -84 82 0
-11 84 -80 -82 0
-12 -84 80 0
-12 84 -80 0
-14 -84 80 0
-14 84 -80 0
-7 -85 81 0
-7 85 -81 0
-8 -81 85 0
-8 -79 85 0
-8 -85 81 79 0
-9 -85 81 0
-9 85 -81 0
-10 -81 85 0
-10 -80 85 0
-10 -85 81 80 0
-11 -85 81 0
-11 85 -81 0
-12 -85 81 0
-12 -85 82 0
-12 85 -81 -82 0
-14 -85 81 0
-14 85 -81 0
-7 -86 82 0
-7 86 -82 0
-8 -86 82 0
-8 86 -82 0
-9 -82 86 0
-9 -79 86 0
-9 -86 82 79 0
-10 -86 82 0
-10 86 -82 0
-11 -82 86 0
-11 -80 86 0
-11 -86 82 80 0
-12 -82 86 0
-12 -81 86 0
-12 -86 82 81 0
-14 -86 82 0
-14 86 -82 0
87 0
-1 -91 87 0
-1 -91 88 0
-1 91 -87 -88 0
-2 -91 87 0
-2 -91 89 0
-2 91 -87 -89 0
-3 -91 87 0
-3 -91 90 0
-3 91 -87 -90 0
-4 -91 87 0
-4 91 -87 0
-5 -91 87 0
-5 91 -87 0
-6 -91 87 0
-6 91 -87 0
-13 -91 87 0
-13 91 -87 0
88 0
-1 -88 92 0
-1 -87 92 0
-1 -92 88 87 0
-2 -92 88 0
-2 92 -88 0
-3 -92 88 0
-3 92 -88 0
-4 -92 88 0
-4 -92 89 0
-4 92 -88 -89 0
-5 -92 88 0
-5 -92 90 0
-5 92 -88 -90 0
-6 -92 88 0
-6 92 -88 0
-13 -92 88 0
-13 92 -88 0
-89 0
-1 -93 89 0
-1 93 -89 0
-2 -89 93 0
-2 -87 93 0
-2 -93 89 87 0
-3 -93 89 0
-3 93 -89 0
-4 -89 93 0
-4 -88 93 0
-4 -93 89 88 0
-5 -93 89 0
-5 93 -89 0
-6 -93 89 0
-6 -93 90 0
-6 93 -89 -90 0
-13 -93 89 0
-13 93 -89 0
-90 0
-1 -94 90 0
-1 94 -90 0
-2 -94 90 0
-2 94 -90 0
-3 -90 94 0
-3 -87 94 0
-3 -94 90 87 0
-4 -94 90 0
-4 94 -90 0
-5 -90 94 0
-5 -88 94 0
-5 -94 90 88 0
-6 -90 94 0
-6 -89 94 0
-6 -94 90 89 0
-13 -94 90 0
-13 94 -90 0
-7 -95 91 0
-7 -95 92 0
-7 95 -91 -92 0
-8 -95 91 0
-8 -95 93 0
-8 95 -91 -93 0
-9 -95 91 0
-9 -95 94 0
-9 95 -91 -94 0
-10 -95 91 0
-10 95 -91 0
-11 -95 91 0
-11 95 -91 0
-12 -95 91 0
-12 95 -91 0
-14 -95 91 0
-14 95 -91 0
-7 -92 96 0
-7 -91 96 0
-7 -96 92 91 0
-8 -96 92 0
-8 96 -92 0
-9 -96 92 0
-9 96 -92 0
-10 -96 92 0
-10 -96 93 0
-10 96 -92 -93 0
-11 -96 92 0
-11 -96 94 0
-11 96 -92 -94 0
-12 -96 92 0
-12 96 -92 0
-14 -96 92 0
-14 96 -92 0
-7 -97 93 0
-7 97 -93 0
-8 -93 97 0
-8 -91 97 0
-8 -97 93 91 0
-9 -97 93 0
-9 97 -93 0
-10 -93 97 0
-10 -92 97 0
-10 -97 93 92 0
-11 -97 93 0
-11 97 -93 0
-12 -97 93 0
-12 -97 94 0
-12 97 -93 -94 0
-14 -97 93 0
-14 97 -93 0
-7 -98 94 0
-7 98 -94 0
-8 -98 94 0
-8 98 -94 0
-9 -94 98 0
-9 -91 98 0
-9 -98 94 91 0
-10 -98 94 0
-10 98 -94 0
-11 -94 98 0
-11 -92 98 0
-11 -98 94 92 0
-12 -94 98 0
-12 -93 98 0
-12 -98 94 93 0
-14 -98 94 0
-14 98 -94 0
99 0
-1 -103 99 0
-1 -103 100 0
-1 103 -99 -100 0
-2 -103 99 0
-2 -103 101 0
-2 103 -99 -101 0
-3 -103 99 0
-3 -103 102 0
-3 103 -99 -102 0
-4 -103 99 0
-4 103 -99 0
-5 -103 99 0
-5 103 -99 0
-6 -103 99 0
-6 103 -99 0
-13 -103 99 0
-13 103 -99 0
100 0
-1 -100 104 0
-1 -99 104 0
-1 -104 100 99 0
-2 -104 100 0
-2 104 -100 0
-3 -104 100 0
-3 104 -100 0
-4 -104 100 0
-4 -104 101 0
-4 104 -100 -101 0
-5 -104 100 0
-5 -104 102 0
-5 104 -100 -102 0
-6 -104 100 0
-6 104 -100 0
-13 -104 100 0
-13 104 -100 0
-101 0
-1 -105 101 0
-1 105 -101 0
-2 -101 105 0
-2 -99 105 0
-2 -105 101 99 0
-3 -105 101 0
-3 105 -101 0
-4 -101 105 0
-4 -100 105 0
-4 -105 101 100 0
-5 -105 101 0
-5 105 -101 0
-6 -105 101 0
-6 -105 102 0
-6 105 -101 -102 0
-13 -105 101 0
-13 105 -101 0
102 0
-1 -106 102 0
-1 106 -102 0
-2 -106 102 0
-2 106 -102 0
-3 -102 106 0
-3 -99 106 0
-3 -106 102 99 0
-4 -106 102 0
-4 106 -102 0
-5 -102 106 0
-5 -100 106 0
-5 -106 102 100 0
-6 -102 106 0
-6 -101 106 0
-6 -106 102 101 0
-13 -106 102 0
-13 106 -102 0
-7 -107 103 0
-7 -107 104 0
-7 107 -103 -104 0
-8 -107 103 0
-8 -107 105 0
-8 107 -103 -105 0
-9 -107 103 0
-9 -107 106 0
-9 107 -103 -106 0
-10 -107 103 0
-10 107 -103 0
-11 -107 103 0
-11 107 -103 0
-12 -107 103 0
-12 107 -103 0
-14 -107 103 0
-14 107 -103 0
-7 -104 108 0
-7 -103 108 0
-7 -108 104 103 0
-8 -108 104 0
-8 108 -104 0
-9 -108 104 0
-9 108 -104 0
-10 -108 104 0
-10 -108 105 0
-10 108 -104 -105 0
-11 -108 104 0
-11 -108 106 0
-11 108 -104 -106 0
-12 -108 104 0
-12 108 -104 0
-14 -108 104 0
-14 108 -104 0
-7 -109 105 0
-7 109 -105 0
-8 -105 109 0
-8 -103 109 0
-8 -109 105 103 0
-9 -109 105 0
-9 109 -105 0
-10 -105 109 0
-10 -104 109 0
-10 -109 105 104 0
-11 -109 105 0
-11 109 -105 0
-12 -109 105 0
-12 -109 106 0
-12 109 -105 -106 0
-14 -109 105 0
-14 109 -105 0
-7 -110 106 0
-7 110 -106 0
-8 -110 106 0
-8 110 -106 0
-9 -106 110 0
-9 -103 110 0
-9 -110 106 103 0
-10 -110 106 0
-10 110 -106 0
-11 -106 110 0
-11 -104 110 0
-11 -110 106 104 0
-12 -106 110 0
-12 -105 110 0
-12 -110 106 105 0
-14 -110 106 0
-14 110 -106 0
111 0
-1 -115 111 0
-1 -115 112 0
-1 115 -111 -112 0
-2 -115 111 0
-2 -115 113 0
-2 115 -111 -113 0
-3 -115 111 0
-3 -115 114 0
-3 115 -111 -114 0
-4 -115 111 0
-4 115 -111 0
-5 -115 111 0
-5 115 -111 0
-6 -115 111 0
-6 115 -111 0
-13 -115 111 0
-13 115 -111 0
112 0
-1 -112 116 0
-1 -111 116 0
-1 -116 112 111 0
-2 -116 112 0
-2 116 -112 0
-3 -116 112 0
-3 116 -112 0
-4 -116 112 0
-4 -116 113 0
-4 116 -112 -113 0
-5 -116 112 0
-5 -116 114 0
-5 116 -112 -114 0
-6 -116 112 0
-6 116 -112 0
-13 -116 112 0
-13 116 -112 0
113 0
-1 -117 113 0
-1 117 -113 0
-2 -113 117 0
-2 -111 117 0
-2 -117 113 111 0
-3 -117 113 0
-3 117 -113 0
-4 -113 117 0
-4 -112 117 0
-4 -117 113 112 0
-5 -117 113 0
-5 117 -113 0
-6 -117 113 0
-6 -117 114 0
-6 117 -113 -114 0
-13 -117 113 0
-13 117 -113 0
114 0
-1 -118 114 0
-1 118 -114 0
-2 -118 114 0
-2 118 -114 0
-3 -114 118 0
-3 -111 118 0
-3 -118 114 111 0
-4 -118 114 0
-4 118 -114 0
-5 -114 118 0
-5 -112 118 0
-5 -118 114 112 0
-6 -114 118 0
-6 -113 118 0
-6 -118 114 113 0
-13 -118 114 0
-13 118 -114 0
-7 -119 115 0
-7 -119 116 0
-7 119 -115 -116 0
-8 -119 115 0
-8 -119 117 0
-8 119 -115 -117 0
-9 -119 115 0
-9 -119 118 0
-9 119 -115 -118 0
-10 -119 115 0
-10 119 -115 0
-11 -119 115 0
-11 119 -115 0
-12 -119 115 0
-12 119 -115 0
-14 -119 115 0
-14 119 -115 0
-7 -116 120 0
-7 -115 120 0
-7 -120 116 115 0
-8 -120 116 0
-8 120 -116 0
-9 -120 116 0
-9 120 -116 0
-10 -120 116 0
-10 -120 117 0
-10 120 -116 -117 0
-11 -120 116 0
-11 -120 118 0
-11 120 -116 -118 0
-12 -120 116 0
-12 120 -116 0
-14 -120 116 0
-14 120 -116 0
-7 -121 117 0
-7 121 -117 0
-8 -117 121 0
-8 -115 121 0
-8 -121 117 115 0
-9 -121 117 0
-9 121 -117 0
-10 -117 121 0
-10 -116 121 0
-10 -121 117 116 0
-11 -121 117 0
-11 121 -117 0
-12 -121 117 0
-12 -121 118 0
-12 121 -117 -118 0
-14 -121 117 0
-14 121 -117 0
-7 -122 118 0
-7 122 -118 0
-8 -122 118 0
-8 122 -118 0
-9 -118 122 0
-9 -115 122 0
-9 -122 118 115 0
-10 -122 118 0
-10 122 -118 0
-11 -118 122 0
-11 -116 122 0
-11 -122 118 116 0
-12 -118 122 0
-12 -117 122 0
-12 -122 118 117 0
-14 -122 118 0
-14 122 -118 0
-23 24 0
-24 25 0
-25 26 0
-35 36 0
-36 37 0
-37 38 0
-47 48 0
-48 49 0
-49 50 0
-59 60 0
-60 61 0
-61 62 0
-71 72 0
-72 73 0
-73 74 0
-83 84 0
-84 85 0
-85 86 0
-95 96 0
-96 97 0
-97 98 0
-107 108 0
-108 109 0
-109 110 0
-119 120 0
-120 121 0
-121 122 0
