p cnf 768 22514
1 2 3 4 5 6 7 8 9 10 11 12 13 14 15 91 0
-1 -2 0
-1 -3 0
-1 -4 0
-1 -5 0
-1 -6 0
-1 -7 0
-1 -8 0
-1 -9 0
-1 -10 0
-1 -11 0
-1 -12 0
-1 -13 0
-1 -14 0
-1 -15 0
-1 -91 0
-2 -3 0
-2 -4 0
-2 -5 0
-2 -6 0
-2 -7 0
-2 -8 0
-2 -9 0
-2 -10 0
-2 -11 0
-2 -12 0
-2 -13 0
-2 -14 0
-2 -15 0
-2 -91 0
-3 -4 0
-3 -5 0
-3 -6 0
-3 -7 0
-3 -8 0
-3 -9 0
-3 -10 0
-3 -11 0
-3 -12 0
-3 -13 0
-3 -14 0
-3 -15 0
-3 -91 0
-4 -5 0
-4 -6 0
-4 -7 0
-4 -8 0
-4 -9 0
-4 -10 0
-4 -11 0
-4 -12 0
-4 -13 0
-4 -14 0
-4 -15 0
-4 -91 0
-5 -6 0
-5 -7 0
-5 -8 0
-5 -9 0
-5 -10 0
-5 -11 0
-5 -12 0
-5 -13 0
-5 -14 0
-5 -15 0
-5 -91 0
-6 -7 0
-6 -8 0
-6 -9 0
-6 -10 0
-6 -11 0
-6 -12 0
-6 -13 0
-6 -14 0
-6 -15 0
-6 -91 0
-7 -8 0
-7 -9 0
-7 -10 0
-7 -11 0
-7 -12 0
-7 -13 0
-7 -14 0
-7 -15 0
-7 -91 0
-8 -9 0
-8 -10 0
-8 -11 0
-8 -12 0
-8 -13 0
-8 -14 0
-8 -15 0
-8 -91 0
-9 -10 0
-9 -11 0
-9 -12 0
-9 -13 0
-9 -14 0
-9 -15 0
-9 -91 0
-10 -11 0
-10 -12 0
-10 -13 0
-10 -14 0
-10 -15 0
-10 -91 0
-11 -12 0
-11 -13 0
-11 -14 0
-11 -15 0
-11 -91 0
-12 -13 0
-12 -14 0
-12 -15 0
-12 -91 0
-13 -14 0
-13 -15 0
-13 -91 0
-14 -15 0
-14 -91 0
-15 -91 0
16 17 18 19 20 21 22 23 24 25 26 27 28 29 30 92 0
-16 -17 0
-16 -18 0
-16 -19 0
-16 -20 0
-16 -21 0
-16 -22 0
-16 -23 0
-16 -24 0
-16 -25 0
-16 -26 0
-16 -27 0
-16 -28 0
-16 -29 0
-16 -30 0
-16 -92 0
-17 -18 0
-17 -19 0
-17 -20 0
-17 -21 0
-17 -22 0
-17 -23 0
-17 -24 0
-17 -25 0
-17 -26 0
-17 -27 0
-17 -28 0
-17 -29 0
-17 -30 0
-17 -92 0
-18 -19 0
-18 -20 0
-18 -21 0
-18 -22 0
-18 -23 0
-18 -24 0
-18 -25 0
-18 -26 0
-18 -27 0
-18 -28 0
-18 -29 0
-18 -30 0
-18 -92 0
-19 -20 0
-19 -21 0
-19 -22 0
-19 -23 0
-19 -24 0
-19 -25 0
-19 -26 0
-19 -27 0
-19 -28 0
-19 -29 0
-19 -30 0
-19 -92 0
-20 -21 0
-20 -22 0
-20 -23 0
-20 -24 0
-20 -25 0
-20 -26 0
-20 -27 0
-20 -28 0
-20 -29 0
-20 -30 0
-20 -92 0
-21 -22 0
-21 -23 0
-21 -24 0
-21 -25 0
-21 -26 0
-21 -27 0
-21 -28 0
-21 -29 0
-21 -30 0
-21 -92 0
-22 -23 0
-22 -24 0
-22 -25 0
-22 -26 0
-22 -27 0
-22 -28 0
-22 -29 0
-22 -30 0
-22 -92 0
-23 -24 0
-23 -25 0
-23 -26 0
-23 -27 0
-23 -28 0
-23 -29 0
-23 -30 0
-23 -92 0
-24 -25 0
-24 -26 0
-24 -27 0
-24 -28 0
-24 -29 0
-24 -30 0
-24 -92 0
-25 -26 0
-25 -27 0
-25 -28 0
-25 -29 0
-25 -30 0
-25 -92 0
-26 -27 0
-26 -28 0
-26 -29 0
-26 -30 0
-26 -92 0
-27 -28 0
-27 -29 0
-27 -30 0
-27 -92 0
-28 -29 0
-28 -30 0
-28 -92 0
-29 -30 0
-29 -92 0
-30 -92 0
31 32 33 34 35 36 37 38 39 40 41 42 43 44 45 93 0
-31 -32 0
-31 -33 0
-31 -34 0
-31 -35 0
-31 -36 0
-31 -37 0
-31 -38 0
-31 -39 0
-31 -40 0
-31 -41 0
-31 -42 0
-31 -43 0
-31 -44 0
-31 -45 0
-31 -93 0
-32 -33 0
-32 -34 0
-32 -35 0
-32 -36 0
-32 -37 0
-32 -38 0
-32 -39 0
-32 -40 0
-32 -41 0
-32 -42 0
-32 -43 0
-32 -44 0
-32 -45 0
-32 -93 0
-33 -34 0
-33 -35 0
-33 -36 0
-33 -37 0
-33 -38 0
-33 -39 0
-33 -40 0
-33 -41 0
-33 -42 0
-33 -43 0
-33 -44 0
-33 -45 0
-33 -93 0
-34 -35 0
-34 -36 0
-34 -37 0
-34 -38 0
-34 -39 0
-34 -40 0
-34 -41 0
-34 -42 0
-34 -43 0
-34 -44 0
-34 -45 0
-34 -93 0
-35 -36 0
-35 -37 0
-35 -38 0
-35 -39 0
-35 -40 0
-35 -41 0
-35 -42 0
-35 -43 0
-35 -44 0
-35 -45 0
-35 -93 0
-36 -37 0
-36 -38 0
-36 -39 0
-36 -40 0
-36 -41 0
-36 -42 0
-36 -43 0
-36 -44 0
-36 -45 0
-36 -93 0
-37 -38 0
-37 -39 0
-37 -40 0
-37 -41 0
-37 -42 0
-37 -43 0
-37 -44 0
-37 -45 0
-37 -93 0
-38 -39 0
-38 -40 0
-38 -41 0
-38 -42 0
-38 -43 0
-38 -44 0
-38 -45 0
-38 -93 0
-39 -40 0
-39 -41 0
-39 -42 0
-39 -43 0
-39 -44 0
-39 -45 0
-39 -93 0
-40 -41 0
-40 -42 0
-40 -43 0
-40 -44 0
-40 -45 0
-40 -93 0
-41 -42 0
-41 -43 0
-41 -44 0
-41 -45 0
-41 -93 0
-42 -43 0
-42 -44 0
-42 -45 0
-42 -93 0
-43 -44 0
-43 -45 0
-43 -93 0
-44 -45 0
-44 -93 0
-45 -93 0
46 47 48 49 50 51 52 53 54 55 56 57 58 59 60 94 0
-46 -47 0
-46 -48 0
-46 -49 0
-46 -50 0
-46 -51 0
-46 -52 0
-46 -53 0
-46 -54 0
-46 -55 0
-46 -56 0
-46 -57 0
-46 -58 0
-46 -59 0
-46 -60 0
-46 -94 0
-47 -48 0
-47 -49 0
-47 -50 0
-47 -51 0
-47 -52 0
-47 -53 0
-47 -54 0
-47 -55 0
-47 -56 0
-47 -57 0
-47 -58 0
-47 -59 0
-47 -60 0
-47 -94 0
-48 -49 0
-48 -50 0
-48 -51 0
-48 -52 0
-48 -53 0
-48 -54 0
-48 -55 0
-48 -56 0
-48 -57 0
-48 -58 0
-48 -59 0
-48 -60 0
-48 -94 0
-49 -50 0
-49 -51 0
-49 -52 0
-49 -53 0
-49 -54 0
-49 -55 0
-49 -56 0
-49 -57 0
-49 -58 0
-49 -59 0
-49 -60 0
-49 -94 0
-50 -51 0
-50 -52 0
-50 -53 0
-50 -54 0
-50 -55 0
-50 -56 0
-50 -57 0
-50 -58 0
-50 -59 0
-50 -60 0
-50 -94 0
-51 -52 0
-51 -53 0
-51 -54 0
-51 -55 0
-51 -56 0
-51 -57 0
-51 -58 0
-51 -59 0
-51 -60 0
-51 -94 0
-52 -53 0
-52 -54 0
-52 -55 0
-52 -56 0
-52 -57 0
-52 -58 0
-52 -59 0
-52 -60 0
-52 -94 0
-53 -54 0
-53 -55 0
-53 -56 0
-53 -57 0
-53 -58 0
-53 -59 0
-53 -60 0
-53 -94 0
-54 -55 0
-54 -56 0
-54 -57 0
-54 -58 0
-54 -59 0
-54 -60 0
-54 -94 0
-55 -56 0
-55 -57 0
-55 -58 0
-55 -59 0
-55 -60 0
-55 -94 0
-56 -57 0
-56 -58 0
-56 -59 0
-56 -60 0
-56 -94 0
-57 -58 0
-57 -59 0
-57 -60 0
-57 -94 0
-58 -59 0
-58 -60 0
-58 -94 0
-59 -60 0
-59 -94 0
-60 -94 0
61 62 63 64 65 66 67 68 69 70 71 72 73 74 75 95 0
-61 -62 0
-61 -63 0
-61 -64 0
-61 -65 0
-61 -66 0
-61 -67 0
-61 -68 0
-61 -69 0
-61 -70 0
-61 -71 0
-61 -72 0
-61 -73 0
-61 -74 0
-61 -75 0
-61 -95 0
-62 -63 0
-62 -64 0
-62 -65 0
-62 -66 0
-62 -67 0
-62 -68 0
-62 -69 0
-62 -70 0
-62 -71 0
-62 -72 0
-62 -73 0
-62 -74 0
-62 -75 0
-62 -95 0
-63 -64 0
-63 -65 0
-63 -66 0
-63 -67 0
-63 -68 0
-63 -69 0
-63 -70 0
-63 -71 0
-63 -72 0
-63 -73 0
-63 -74 0
-63 -75 0
-63 -95 0
-64 -65 0
-64 -66 0
-64 -67 0
-64 -68 0
-64 -69 0
-64 -70 0
-64 -71 0
-64 -72 0
-64 -73 0
-64 -74 0
-64 -75 0
-64 -95 0
-65 -66 0
-65 -67 0
-65 -68 0
-65 -69 0
-65 -70 0
-65 -71 0
-65 -72 0
-65 -73 0
-65 -74 0
-65 -75 0
-65 -95 0
-66 -67 0
-66 -68 0
-66 -69 0
-66 -70 0
-66 -71 0
-66 -72 0
-66 -73 0
-66 -74 0
-66 -75 0
-66 -95 0
-67 -68 0
-67 -69 0
-67 -70 0
-67 -71 0
-67 -72 0
-67 -73 0
-67 -74 0
-67 -75 0
-67 -95 0
-68 -69 0
-68 -70 0
-68 -71 0
-68 -72 0
-68 -73 0
-68 -74 0
-68 -75 0
-68 -95 0
-69 -70 0
-69 -71 0
-69 -72 0
-69 -73 0
-69 -74 0
-69 -75 0
-69 -95 0
-70 -71 0
-70 -72 0
-70 -73 0
-70 -74 0
-70 -75 0
-70 -95 0
-71 -72 0
-71 -73 0
-71 -74 0
-71 -75 0
-71 -95 0
-72 -73 0
-72 -74 0
-72 -75 0
-72 -95 0
-73 -74 0
-73 -75 0
-73 -95 0
-74 -75 0
-74 -95 0
-75 -95 0
76 77 78 79 80 81 82 83 84 85 86 87 88 89 90 96 0
-76 -77 0
-76 -78 0
-76 -79 0
-76 -80 0
-76 -81 0
-76 -82 0
-76 -83 0
-76 -84 0
-76 -85 0
-76 -86 0
-76 -87 0
-76 -88 0
-76 -89 0
-76 -90 0
-76 -96 0
-77 -78 0
-77 -79 0
-77 -80 0
-77 -81 0
-77 -82 0
-77 -83 0
-77 -84 0
-77 -85 0
-77 -86 0
-77 -87 0
-77 -88 0
-77 -89 0
-77 -90 0
-77 -96 0
-78 -79 0
-78 -80 0
-78 -81 0
-78 -82 0
-78 -83 0
-78 -84 0
-78 -85 0
-78 -86 0
-78 -87 0
-78 -88 0
-78 -89 0
-78 -90 0
-78 -96 0
-79 -80 0
-79 -81 0
-79 -82 0
-79 -83 0
-79 -84 0
-79 -85 0
-79 -86 0
-79 -87 0
-79 -88 0
-79 -89 0
-79 -90 0
-79 -96 0
-80 -81 0
-80 -82 0
-80 -83 0
-80 -84 0
-80 -85 0
-80 -86 0
-80 -87 0
-80 -88 0
-80 -89 0
-80 -90 0
-80 -96 0
-81 -82 0
-81 -83 0
-81 -84 0
-81 -85 0
-81 -86 0
-81 -87 0
-81 -88 0
-81 -89 0
-81 -90 0
-81 -96 0
-82 -83 0
-82 -84 0
-82 -85 0
-82 -86 0
-82 -87 0
-82 -88 0
-82 -89 0
-82 -90 0
-82 -96 0
-83 -84 0
-83 -85 0
-83 -86 0
-83 -87 0
-83 -88 0
-83 -89 0
-83 -90 0
-83 -96 0
-84 -85 0
-84 -86 0
-84 -87 0
-84 -88 0
-84 -89 0
-84 -90 0
-84 -96 0
-85 -86 0
-85 -87 0
-85 -88 0
-85 -89 0
-85 -90 0
-85 -96 0
-86 -87 0
-86 -88 0
-86 -89 0
-86 -90 0
-86 -96 0
-87 -88 0
-87 -89 0
-87 -90 0
-87 -96 0
-88 -89 0
-88 -90 0
-88 -96 0
-89 -90 0
-89 -96 0
-90 -96 0
-1 -16 0
-2 -17 0
-3 -18 0
-4 -19 0
-5 -20 0
-6 -21 0
-7 -22 0
-8 -23 0
-9 -24 0
-10 -25 0
-11 -26 0
-12 -27 0
-13 -28 0
-14 -29 0
-15 -30 0
-16 -31 0
-17 -32 0
-18 -33 0
-19 -34 0
-20 -35 0
-21 -36 0
-22 -37 0
-23 -38 0
-24 -39 0
-25 -40 0
-26 -41 0
-27 -42 0
-28 -43 0
-29 -44 0
-30 -45 0
-31 -46 0
-32 -47 0
-33 -48 0
-34 -49 0
-35 -50 0
-36 -51 0
-37 -52 0
-38 -53 0
-39 -54 0
-40 -55 0
-41 -56 0
-42 -57 0
-43 -58 0
-44 -59 0
-45 -60 0
-46 -61 0
-47 -62 0
-48 -63 0
-49 -64 0
-50 -65 0
-51 -66 0
-52 -67 0
-53 -68 0
-54 -69 0
-55 -70 0
-56 -71 0
-57 -72 0
-58 -73 0
-59 -74 0
-60 -75 0
-61 -76 0
-62 -77 0
-63 -78 0
-64 -79 0
-65 -80 0
-66 -81 0
-67 -82 0
-68 -83 0
-69 -84 0
-70 -85 0
-71 -86 0
-72 -87 0
-73 -88 0
-74 -89 0
-75 -90 0
-6 -18 0
-6 -19 0
-6 -20 0
-7 -17 0
-7 -19 0
-7 -20 0
-8 -17 0
-8 -18 0
-8 -20 0
-9 -17 0
-9 -18 0
-9 -19 0
-10 -16 0
-10 -19 0
-10 -20 0
-10 -23 0
-10 -24 0
-11 -16 0
-11 -18 0
-11 -20 0
-11 -22 0
-11 -24 0
-12 -16 0
-12 -18 0
-12 -19 0
-12 -22 0
-12 -23 0
-13 -16 0
-13 -17 0
-13 -20 0
-13 -21 0
-13 -24 0
-13 -27 0
-14 -16 0
-14 -17 0
-14 -19 0
-14 -21 0
-14 -23 0
-14 -26 0
-15 -16 0
-15 -17 0
-15 -18 0
-15 -21 0
-15 -22 0
-15 -25 0
-21 -33 0
-21 -34 0
-21 -35 0
-22 -32 0
-22 -34 0
-22 -35 0
-23 -32 0
-23 -33 0
-23 -35 0
-24 -32 0
-24 -33 0
-24 -34 0
-25 -31 0
-25 -34 0
-25 -35 0
-25 -38 0
-25 -39 0
-26 -31 0
-26 -33 0
-26 -35 0
-26 -37 0
-26 -39 0
-27 -31 0
-27 -33 0
-27 -34 0
-27 -37 0
-27 -38 0
-28 -31 0
-28 -32 0
-28 -35 0
-28 -36 0
-28 -39 0
-28 -42 0
-29 -31 0
-29 -32 0
-29 -34 0
-29 -36 0
-29 -38 0
-29 -41 0
-30 -31 0
-30 -32 0
-30 -33 0
-30 -36 0
-30 -37 0
-30 -40 0
-36 -48 0
-36 -49 0
-36 -50 0
-37 -47 0
-37 -49 0
-37 -50 0
-38 -47 0
-38 -48 0
-38 -50 0
-39 -47 0
-39 -48 0
-39 -49 0
-40 -46 0
-40 -49 0
-40 -50 0
-40 -53 0
-40 -54 0
-41 -46 0
-41 -48 0
-41 -50 0
-41 -52 0
-41 -54 0
-42 -46 0
-42 -48 0
-42 -49 0
-42 -52 0
-42 -53 0
-43 -46 0
-43 -47 0
-43 -50 0
-43 -51 0
-43 -54 0
-43 -57 0
-44 -46 0
-44 -47 0
-44 -49 0
-44 -51 0
-44 -53 0
-44 -56 0
-45 -46 0
-45 -47 0
-45 -48 0
-45 -51 0
-45 -52 0
-45 -55 0
-51 -63 0
-51 -64 0
-51 -65 0
-52 -62 0
-52 -64 0
-52 -65 0
-53 -62 0
-53 -63 0
-53 -65 0
-54 -62 0
-54 -63 0
-54 -64 0
-55 -61 0
-55 -64 0
-55 -65 0
-55 -68 0
-55 -69 0
-56 -61 0
-56 -63 0
-56 -65 0
-56 -67 0
-56 -69 0
-57 -61 0
-57 -63 0
-57 -64 0
-57 -67 0
-57 -68 0
-58 -61 0
-58 -62 0
-58 -65 0
-58 -66 0
-58 -69 0
-58 -72 0
-59 -61 0
-59 -62 0
-59 -64 0
-59 -66 0
-59 -68 0
-59 -71 0
-60 -61 0
-60 -62 0
-60 -63 0
-60 -66 0
-60 -67 0
-60 -70 0
-66 -78 0
-66 -79 0
-66 -80 0
-67 -77 0
-67 -79 0
-67 -80 0
-68 -77 0
-68 -78 0
-68 -80 0
-69 -77 0
-69 -78 0
-69 -79 0
-70 -76 0
-70 -79 0
-70 -80 0
-70 -83 0
-70 -84 0
-71 -76 0
-71 -78 0
-71 -80 0
-71 -82 0
-71 -84 0
-72 -76 0
-72 -78 0
-72 -79 0
-72 -82 0
-72 -83 0
-73 -76 0
-73 -77 0
-73 -80 0
-73 -81 0
-73 -84 0
-73 -87 0
-74 -76 0
-74 -77 0
-74 -79 0
-74 -81 0
-74 -83 0
-74 -86 0
-75 -76 0
-75 -77 0
-75 -78 0
-75 -81 0
-75 -82 0
-75 -85 0
-97 0
-1 -103 97 0
-1 -103 98 0
-1 103 -97 -98 0
-2 -103 97 0
-2 -103 99 0
-2 103 -97 -99 0
-3 -103 97 0
-3 -103 100 0
-3 103 -97 -100 0
-4 -103 97 0
-4 -103 101 0
-4 103 -97 -101 0
-5 -103 97 0
-5 -103 102 0
-5 103 -97 -102 0
-6 -103 97 0
-6 103 -97 0
-7 -103 97 0
-7 103 -97 0
-8 -103 97 0
-8 103 -97 0
-9 -103 97 0
-9 103 -97 0
-10 -103 97 0
-10 103 -97 0
-11 -103 97 0
-11 103 -97 0
-12 -103 97 0
-12 103 -97 0
-13 -103 97 0
-13 103 -97 0
-14 -103 97 0
-14 103 -97 0
-15 -103 97 0
-15 103 -97 0
-91 -103 97 0
-91 103 -97 0
-98 0
-1 -98 104 0
-1 -97 104 0
-1 -104 98 97 0
-2 -104 98 0
-2 104 -98 0
-3 -104 98 0
-3 104 -98 0
-4 -104 98 0
-4 104 -98 0
-5 -104 98 0
-5 104 -98 0
-6 -104 98 0
-6 -104 99 0
-6 104 -98 -99 0
-7 -104 98 0
-7 -104 100 0
-7 104 -98 -100 0
-8 -104 98 0
-8 -104 101 0
-8 104 -98 -101 0
-9 -104 98 0
-9 -104 102 0
-9 104 -98 -102 0
-10 -104 98 0
-10 104 -98 0
-11 -104 98 0
-11 104 -98 0
-12 -104 98 0
-12 104 -98 0
-13 -104 98 0
-13 104 -98 0
-14 -104 98 0
-14 104 -98 0
-15 -104 98 0
-15 104 -98 0
-91 -104 98 0
-91 104 -98 0
-99 0
-1 -105 99 0
-1 105 -99 0
-2 -99 105 0
-2 -97 105 0
-2 -105 99 97 0
-3 -105 99 0
-3 105 -99 0
-4 -105 99 0
-4 105 -99 0
-5 -105 99 0
-5 105 -99 0
-6 -99 105 0
-6 -98 105 0
-6 -105 99 98 0
-7 -105 99 0
-7 105 -99 0
-8 -105 99 0
-8 105 -99 0
-9 -105 99 0
-9 105 -99 0
-10 -105 99 0
-10 -105 100 0
-10 105 -99 -100 0
-11 -105 99 0
-11 -105 101 0
-11 105 -99 -101 0
-12 -105 99 0
-12 -105 102 0
-12 105 -99 -102 0
-13 -105 99 0
-13 105 -99 0
-14 -105 99 0
-14 105 -99 0
-15 -105 99 0
-15 105 -99 0
-91 -105 99 0
-91 105 -99 0
-100 0
-1 -106 100 0
-1 106 -100 0
-2 -106 100 0
-2 106 -100 0
-3 -100 106 0
-3 -97 106 0
-3 -106 100 97 0
-4 -106 100 0
-4 106 -100 0
-5 -106 100 0
-5 106 -100 0
-6 -106 100 0
-6 106 -100 0
-7 -100 106 0
-7 -98 106 0
-7 -106 100 98 0
-8 -106 100 0
-8 106 -100 0
-9 -106 100 0
-9 106 -100 0
-10 -100 106 0
-10 -99 106 0
-10 -106 100 99 0
-11 -106 100 0
-11 106 -100 0
-12 -106 100 0
-12 106 -100 0
-13 -106 100 0
-13 -106 101 0
-13 106 -100 -101 0
-14 -106 100 0
-14 -106 102 0
-14 106 -100 -102 0
-15 -106 100 0
-15 106 -100 0
-91 -106 100 0
-91 106 -100 0
-101 0
-1 -107 101 0
-1 107 -101 0
-2 -107 101 0
-2 107 -101 0
-3 -107 101 0
-3 107 -101 0
-4 -101 107 0
-4 -97 107 0
-4 -107 101 97 0
-5 -107 101 0
-5 107 -101 0
-6 -107 101 0
-6 107 -101 0
-7 -107 101 0
-7 107 -101 0
-8 -101 107 0
-8 -98 107 0
-8 -107 101 98 0
-9 -107 101 0
-9 107 -101 0
-10 -107 101 0
-10 107 -101 0
-11 -101 107 0
-11 -99 107 0
-11 -107 101 99 0
-12 -107 101 0
-12 107 -101 0
-13 -101 107 0
-13 -100 107 0
-13 -107 101 100 0
-14 -107 101 0
-14 107 -101 0
-15 -107 101 0
-15 -107 102 0
-15 107 -101 -102 0
-91 -107 101 0
-91 107 -101 0
-102 0
-1 -108 102 0
-1 108 -102 0
-2 -108 102 0
-2 108 -102 0
-3 -108 102 0
-3 108 -102 0
-4 -108 102 0
-4 108 -102 0
-5 -102 108 0
-5 -97 108 0
-5 -108 102 97 0
-6 -108 102 0
-6 108 -102 0
-7 -108 102 0
-7 108 -102 0
-8 -108 102 0
-8 108 -102 0
-9 -102 108 0
-9 -98 108 0
-9 -108 102 98 0
-10 -108 102 0
-10 108 -102 0
-11 -108 102 0
-11 108 -102 0
-12 -102 108 0
-12 -99 108 0
-12 -108 102 99 0
-13 -108 102 0
-13 108 -102 0
-14 -102 108 0
-14 -100 108 0
-14 -108 102 100 0
-15 -102 108 0
-15 -101 108 0
-15 -108 102 101 0
-91 -108 102 0
-91 108 -102 0
-16 -109 103 0
-16 -109 104 0
-16 109 -103 -104 0
-17 -109 103 0
-17 -109 105 0
-17 109 -103 -105 0
-18 -109 103 0
-18 -109 106 0
-18 109 -103 -106 0
-19 -109 103 0
-19 -109 107 0
-19 109 -103 -107 0
-20 -109 103 0
-20 -109 108 0
-20 109 -103 -108 0
-21 -109 103 0
-21 109 -103 0
-22 -109 103 0
-22 109 -103 0
-23 -109 103 0
-23 109 -103 0
-24 -109 103 0
-24 109 -103 0
-25 -109 103 0
-25 109 -103 0
-26 -109 103 0
-26 109 -103 0
-27 -109 103 0
-27 109 -103 0
-28 -109 103 0
-28 109 -103 0
-29 -109 103 0
-29 109 -103 0
-30 -109 103 0
-30 109 -103 0
-92 -109 103 0
-92 109 -103 0
-16 -104 110 0
-16 -103 110 0
-16 -110 104 103 0
-17 -110 104 0
-17 110 -104 0
-18 -110 104 0
-18 110 -104 0
-19 -110 104 0
-19 110 -104 0
-20 -110 104 0
-20 110 -104 0
-21 -110 104 0
-21 -110 105 0
-21 110 -104 -105 0
-22 -110 104 0
-22 -110 106 0
-22 110 -104 -106 0
-23 -110 104 0
-23 -110 107 0
-23 110 -104 -107 0
-24 -110 104 0
-24 -110 108 0
-24 110 -104 -108 0
-25 -110 104 0
-25 110 -104 0
-26 -110 104 0
-26 110 -104 0
-27 -110 104 0
-27 110 -104 0
-28 -110 104 0
-28 110 -104 0
-29 -110 104 0
-29 110 -104 0
-30 -110 104 0
-30 110 -104 0
-92 -110 104 0
-92 110 -104 0
-16 -111 105 0
-16 111 -105 0
-17 -105 111 0
-17 -103 111 0
-17 -111 105 103 0
-18 -111 105 0
-18 111 -105 0
-19 -111 105 0
-19 111 -105 0
-20 -111 105 0
-20 111 -105 0
-21 -105 111 0
-21 -104 111 0
-21 -111 105 104 0
-22 -111 105 0
-22 111 -105 0
-23 -111 105 0
-23 111 -105 0
-24 -111 105 0
-24 111 -105 0
-25 -111 105 0
-25 -111 106 0
-25 111 -105 -106 0
-26 -111 105 0
-26 -111 107 0
-26 111 -105 -107 0
-27 -111 105 0
-27 -111 108 0
-27 111 -105 -108 0
-28 -111 105 0
-28 111 -105 0
-29 -111 105 0
-29 111 -105 0
-30 -111 105 0
-30 111 -105 0
-92 -111 105 0
-92 111 -105 0
-16 -112 106 0
-16 112 -106 0
-17 -112 106 0
-17 112 -106 0
-18 -106 112 0
-18 -103 112 0
-18 -112 106 103 0
-19 -112 106 0
-19 112 -106 0
-20 -112 106 0
-20 112 -106 0
-21 -112 106 0
-21 112 -106 0
-22 -106 112 0
-22 -104 112 0
-22 -112 106 104 0
-23 -112 106 0
-23 112 -106 0
-24 -112 106 0
-24 112 -106 0
-25 -106 112 0
-25 -105 112 0
-25 -112 106 105 0
-26 -112 106 0
-26 112 -106 0
-27 -112 106 0
-27 112 -106 0
-28 -112 106 0
-28 -112 107 0
-28 112 -106 -107 0
-29 -112 106 0
-29 -112 108 0
-29 112 -106 -108 0
-30 -112 106 0
-30 112 -106 0
-92 -112 106 0
-92 112 -106 0
-16 -113 107 0
-16 113 -107 0
-17 -113 107 0
-17 113 -107 0
-18 -113 107 0
-18 113 -107 0
-19 -107 113 0
-19 -103 113 0
-19 -113 107 103 0
-20 -113 107 0
-20 113 -107 0
-21 -113 107 0
-21 113 -107 0
-22 -113 107 0
-22 113 -107 0
-23 -107 113 0
-23 -104 113 0
-23 -113 107 104 0
-24 -113 107 0
-24 113 -107 0
-25 -113 107 0
-25 113 -107 0
-26 -107 113 0
-26 -105 113 0
-26 -113 107 105 0
-27 -113 107 0
-27 113 -107 0
-28 -107 113 0
-28 -106 113 0
-28 -113 107 106 0
-29 -113 107 0
-29 113 -107 0
-30 -113 107 0
-30 -113 108 0
-30 113 -107 -108 0
-92 -113 107 0
-92 113 -107 0
-16 -114 108 0
-16 114 -108 0
-17 -114 108 0
-17 114 -108 0
-18 -114 108 0
-18 114 -108 0
-19 -114 108 0
-19 114 -108 0
-20 -108 114 0
-20 -103 114 0
-20 -114 108 103 0
-21 -114 108 0
-21 114 -108 0
-22 -114 108 0
-22 114 -108 0
-23 -114 108 0
-23 114 -108 0
-24 -108 114 0
-24 -104 114 0
-24 -114 108 104 0
-25 -114 108 0
-25 114 -108 0
-26 -114 108 0
-26 114 -108 0
-27 -108 114 0
-27 -105 114 0
-27 -114 108 105 0
-28 -114 108 0
-28 114 -108 0
-29 -108 114 0
-29 -106 114 0
-29 -114 108 106 0
-30 -108 114 0
-30 -107 114 0
-30 -114 108 107 0
-92 -114 108 0
-92 114 -108 0
-31 -115 109 0
-31 -115 110 0
-31 115 -109 -110 0
-32 -115 109 0
-32 -115 111 0
-32 115 -109 -111 0
-33 -115 109 0
-33 -115 112 0
-33 115 -109 -112 0
-34 -115 109 0
-34 -115 113 0
-34 115 -109 -113 0
-35 -115 109 0
-35 -115 114 0
-35 115 -109 -114 0
-36 -115 109 0
-36 115 -109 0
-37 -115 109 0
-37 115 -109 0
-38 -115 109 0
-38 115 -109 0
-39 -115 109 0
-39 115 -109 0
-40 -115 109 0
-40 115 -109 0
-41 -115 109 0
-41 115 -109 0
-42 -115 109 0
-42 115 -109 0
-43 -115 109 0
-43 115 -109 0
-44 -115 109 0
-44 115 -109 0
-45 -115 109 0
-45 115 -109 0
-93 -115 109 0
-93 115 -109 0
-31 -110 116 0
-31 -109 116 0
-31 -116 110 109 0
-32 -116 110 0
-32 116 -110 0
-33 -116 110 0
-33 116 -110 0
-34 -116 110 0
-34 116 -110 0
-35 -116 110 0
-35 116 -110 0
-36 -116 110 0
-36 -116 111 0
-36 116 -110 -111 0
-37 -116 110 0
-37 -116 112 0
-37 116 -110 -112 0
-38 -116 110 0
-38 -116 113 0
-38 116 -110 -113 0
-39 -116 110 0
-39 -116 114 0
-39 116 -110 -114 0
-40 -116 110 0
-40 116 -110 0
-41 -116 110 0
-41 116 -110 0
-42 -116 110 0
-42 116 -110 0
-43 -116 110 0
-43 116 -110 0
-44 -116 110 0
-44 116 -110 0
-45 -116 110 0
-45 116 -110 0
-93 -116 110 0
-93 116 -110 0
-31 -117 111 0
-31 117 -111 0
-32 -111 117 0
-32 -109 117 0
-32 -117 111 109 0
-33 -117 111 0
-33 117 -111 0
-34 -117 111 0
-34 117 -111 0
-35 -117 111 0
-35 117 -111 0
-36 -111 117 0
-36 -110 117 0
-36 -117 111 110 0
-37 -117 111 0
-37 117 -111 0
-38 -117 111 0
-38 117 -111 0
-39 -117 111 0
-39 117 -111 0
-40 -117 111 0
-40 -117 112 0
-40 117 -111 -112 0
-41 -117 111 0
-41 -117 113 0
-41 117 -111 -113 0
-42 -117 111 0
-42 -117 114 0
-42 117 -111 -114 0
-43 -117 111 0
-43 117 -111 0
-44 -117 111 0
-44 117 -111 0
-45 -117 111 0
-45 117 -111 0
-93 -117 111 0
-93 117 -111 0
-31 -118 112 0
-31 118 -112 0
-32 -118 112 0
-32 118 -112 0
-33 -112 118 0
-33 -109 118 0
-33 -118 112 109 0
-34 -118 112 0
-34 118 -112 0
-35 -118 112 0
-35 118 -112 0
-36 -118 112 0
-36 118 -112 0
-37 -112 118 0
-37 -110 118 0
-37 -118 112 110 0
-38 -118 112 0
-38 118 -112 0
-39 -118 112 0
-39 118 -112 0
-40 -112 118 0
-40 -111 118 0
-40 -118 112 111 0
-41 -118 112 0
-41 118 -112 0
-42 -118 112 0
-42 118 -112 0
-43 -118 112 0
-43 -118 113 0
-43 118 -112 -113 0
-44 -118 112 0
-44 -118 114 0
-44 118 -112 -114 0
-45 -118 112 0
-45 118 -112 0
-93 -118 112 0
-93 118 -112 0
-31 -119 113 0
-31 119 -113 0
-32 -119 113 0
-32 119 -113 0
-33 -119 113 0
-33 119 -113 0
-34 -113 119 0
-34 -109 119 0
-34 -119 113 109 0
-35 -119 113 0
-35 119 -113 0
-36 -119 113 0
-36 119 -113 0
-37 -119 113 0
-37 119 -113 0
-38 -113 119 0
-38 -110 119 0
-38 -119 113 110 0
-39 -119 113 0
-39 119 -113 0
-40 -119 113 0
-40 119 -113 0
-41 -113 119 0
-41 -111 119 0
-41 -119 113 111 0
-42 -119 113 0
-42 119 -113 0
-43 -113 119 0
-43 -112 119 0
-43 -119 113 112 0
-44 -119 113 0
-44 119 -113 0
-45 -119 113 0
-45 -119 114 0
-45 119 -113 -114 0
-93 -119 113 0
-93 119 -113 0
-31 -120 114 0
-31 120 -114 0
-32 -120 114 0
-32 120 -114 0
-33 -120 114 0
-33 120 -114 0
-34 -120 114 0
-34 120 -114 0
-35 -114 120 0
-35 -109 120 0
-35 -120 114 109 0
-36 -120 114 0
-36 120 -114 0
-37 -120 114 0
-37 120 -114 0
-38 -120 114 0
-38 120 -114 0
-39 -114 120 0
-39 -110 120 0
-39 -120 114 110 0
-40 -120 114 0
-40 120 -114 0
-41 -120 114 0
-41 120 -114 0
-42 -114 120 0
-42 -111 120 0
-42 -120 114 111 0
-43 -120 114 0
-43 120 -114 0
-44 -114 120 0
-44 -112 120 0
-44 -120 114 112 0
-45 -114 120 0
-45 -113 120 0
-45 -120 114 113 0
-93 -120 114 0
-93 120 -114 0
-46 -121 115 0
-46 -121 116 0
-46 121 -115 -116 0
-47 -121 115 0
-47 -121 117 0
-47 121 -115 -117 0
-48 -121 115 0
-48 -121 118 0
-48 121 -115 -118 0
-49 -121 115 0
-49 -121 119 0
-49 121 -115 -119 0
-50 -121 115 0
-50 -121 120 0
-50 121 -115 -120 0
-51 -121 115 0
-51 121 -115 0
-52 -121 115 0
-52 121 -115 0
-53 -121 115 0
-53 121 -115 0
-54 -121 115 0
-54 121 -115 0
-55 -121 115 0
-55 121 -115 0
-56 -121 115 0
-56 121 -115 0
-57 -121 115 0
-57 121 -115 0
-58 -121 115 0
-58 121 -115 0
-59 -121 115 0
-59 121 -115 0
-60 -121 115 0
-60 121 -115 0
-94 -121 115 0
-94 121 -115 0
-46 -116 122 0
-46 -115 122 0
-46 -122 116 115 0
-47 -122 116 0
-47 122 -116 0
-48 -122 116 0
-48 122 -116 0
-49 -122 116 0
-49 122 -116 0
-50 -122 116 0
-50 122 -116 0
-51 -122 116 0
-51 -122 117 0
-51 122 -116 -117 0
-52 -122 116 0
-52 -122 118 0
-52 122 -116 -118 0
-53 -122 116 0
-53 -122 119 0
-53 122 -116 -119 0
-54 -122 116 0
-54 -122 120 0
-54 122 -116 -120 0
-55 -122 116 0
-55 122 -116 0
-56 -122 116 0
-56 122 -116 0
-57 -122 116 0
-57 122 -116 0
-58 -122 116 0
-58 122 -116 0
-59 -122 116 0
-59 122 -116 0
-60 -122 116 0
-60 122 -116 0
-94 -122 116 0
-94 122 -116 0
-46 -123 117 0
-46 123 -117 0
-47 -117 123 0
-47 -115 123 0
-47 -123 117 115 0
-48 -123 117 0
-48 123 -117 0
-49 -123 117 0
-49 123 -117 0
-50 -123 117 0
-50 123 -117 0
-51 -117 123 0
-51 -116 123 0
-51 -123 117 116 0
-52 -123 117 0
-52 123 -117 0
-53 -123 117 0
-53 123 -117 0
-54 -123 117 0
-54 123 -117 0
-55 -123 117 0
-55 -123 118 0
-55 123 -117 -118 0
-56 -123 117 0
-56 -123 119 0
-56 123 -117 -119 0
-57 -123 117 0
-57 -123 120 0
-57 123 -117 -120 0
-58 -123 117 0
-58 123 -117 0
-59 -123 117 0
-59 123 -117 0
-60 -123 117 0
-60 123 -117 0
-94 -123 117 0
-94 123 -117 0
-46 -124 118 0
-46 124 -118 0
-47 -124 118 0
-47 124 -118 0
-48 -118 124 0
-48 -115 124 0
-48 -124 118 115 0
-49 -124 118 0
-49 124 -118 0
-50 -124 118 0
-50 124 -118 0
-51 -124 118 0
-51 124 -118 0
-52 -118 124 0
-52 -116 124 0
-52 -124 118 116 0
-53 -124 118 0
-53 124 -118 0
-54 -124 118 0
-54 124 -118 0
-55 -118 124 0
-55 -117 124 0
-55 -124 118 117 0
-56 -124 118 0
-56 124 -118 0
-57 -124 118 0
-57 124 -118 0
-58 -124 118 0
-58 -124 119 0
-58 124 -118 -119 0
-59 -124 118 0
-59 -124 120 0
-59 124 -118 -120 0
-60 -124 118 0
-60 124 -118 0
-94 -124 118 0
-94 124 -118 0
-46 -125 119 0
-46 125 -119 0
-47 -125 119 0
-47 125 -119 0
-48 -125 119 0
-48 125 -119 0
-49 -119 125 0
-49 -115 125 0
-49 -125 119 115 0
-50 -125 119 0
-50 125 -119 0
-51 -125 119 0
-51 125 -119 0
-52 -125 119 0
-52 125 -119 0
-53 -119 125 0
-53 -116 125 0
-53 -125 119 116 0
-54 -125 119 0
-54 125 -119 0
-55 -125 119 0
-55 125 -119 0
-56 -119 125 0
-56 -117 125 0
-56 -125 119 117 0
-57 -125 119 0
-57 125 -119 0
-58 -119 125 0
-58 -118 125 0
-58 -125 119 118 0
-59 -125 119 0
-59 125 -119 0
-60 -125 119 0
-60 -125 120 0
-60 125 -119 -120 0
-94 -125 119 0
-94 125 -119 0
-46 -126 120 0
-46 126 -120 0
-47 -126 120 0
-47 126 -120 0
-48 -126 120 0
-48 126 -120 0
-49 -126 120 0
-49 126 -120 0
-50 -120 126 0
-50 -115 126 0
-50 -126 120 115 0
-51 -126 120 0
-51 126 -120 0
-52 -126 120 0
-52 126 -120 0
-53 -126 120 0
-53 126 -120 0
-54 -120 126 0
-54 -116 126 0
-54 -126 120 116 0
-55 -126 120 0
-55 126 -120 0
-56 -126 120 0
-56 126 -120 0
-57 -120 126 0
-57 -117 126 0
-57 -126 120 117 0
-58 -126 120 0
-58 126 -120 0
-59 -120 126 0
-59 -118 126 0
-59 -126 120 118 0
-60 -120 126 0
-60 -119 126 0
-60 -126 120 119 0
-94 -126 120 0
-94 126 -120 0
-61 -127 121 0
-61 -127 122 0
-61 127 -121 -122 0
-62 -127 121 0
-62 -127 123 0
-62 127 -121 -123 0
-63 -127 121 0
-63 -127 124 0
-63 127 -121 -124 0
-64 -127 121 0
-64 -127 125 0
-64 127 -121 -125 0
-65 -127 121 0
-65 -127 126 0
-65 127 -121 -126 0
-66 -127 121 0
-66 127 -121 0
-67 -127 121 0
-67 127 -121 0
-68 -127 121 0
-68 127 -121 0
-69 -127 121 0
-69 127 -121 0
-70 -127 121 0
-70 127 -121 0
-71 -127 121 0
-71 127 -121 0
-72 -127 121 0
-72 127 -121 0
-73 -127 121 0
-73 127 -121 0
-74 -127 121 0
-74 127 -121 0
-75 -127 121 0
-75 127 -121 0
-95 -127 121 0
-95 127 -121 0
-61 -122 128 0
-61 -121 128 0
-61 -128 122 121 0
-62 -128 122 0
-62 128 -122 0
-63 -128 122 0
-63 128 -122 0
-64 -128 122 0
-64 128 -122 0
-65 -128 122 0
-65 128 -122 0
-66 -128 122 0
-66 -128 123 0
-66 128 -122 -123 0
-67 -128 122 0
-67 -128 124 0
-67 128 -122 -124 0
-68 -128 122 0
-68 -128 125 0
-68 128 -122 -125 0
-69 -128 122 0
-69 -128 126 0
-69 128 -122 -126 0
-70 -128 122 0
-70 128 -122 0
-71 -128 122 0
-71 128 -122 0
-72 -128 122 0
-72 128 -122 0
-73 -128 122 0
-73 128 -122 0
-74 -128 122 0
-74 128 -122 0
-75 -128 122 0
-75 128 -122 0
-95 -128 122 0
-95 128 -122 0
-61 -129 123 0
-61 129 -123 0
-62 -123 129 0
-62 -121 129 0
-62 -129 123 121 0
-63 -129 123 0
-63 129 -123 0
-64 -129 123 0
-64 129 -123 0
-65 -129 123 0
-65 129 -123 0
-66 -123 129 0
-66 -122 129 0
-66 -129 123 122 0
-67 -129 123 0
-67 129 -123 0
-68 -129 123 0
-68 129 -123 0
-69 -129 123 0
-69 129 -123 0
-70 -129 123 0
-70 -129 124 0
-70 129 -123 -124 0
-71 -129 123 0
-71 -129 125 0
-71 129 -123 -125 0
-72 -129 123 0
-72 -129 126 0
-72 129 -123 -126 0
-73 -129 123 0
-73 129 -123 0
-74 -129 123 0
-74 129 -123 0
-75 -129 123 0
-75 129 -123 0
-95 -129 123 0
-95 129 -123 0
-61 -130 124 0
-61 130 -124 0
-62 -130 124 0
-62 130 -124 0
-63 -124 130 0
-63 -121 130 0
-63 -130 124 121 0
-64 -130 124 0
-64 130 -124 0
-65 -130 124 0
-65 130 -124 0
-66 -130 124 0
-66 130 -124 0
-67 -124 130 0
-67 -122 130 0
-67 -130 124 122 0
-68 -130 124 0
-68 130 -124 0
-69 -130 124 0
-69 130 -124 0
-70 -124 130 0
-70 -123 130 0
-70 -130 124 123 0
-71 -130 124 0
-71 130 -124 0
-72 -130 124 0
-72 130 -124 0
-73 -130 124 0
-73 -130 125 0
-73 130 -124 -125 0
-74 -130 124 0
-74 -130 126 0
-74 130 -124 -126 0
-75 -130 124 0
-75 130 -124 0
-95 -130 124 0
-95 130 -124 0
-61 -131 125 0
-61 131 -125 0
-62 -131 125 0
-62 131 -125 0
-63 -131 125 0
-63 131 -125 0
-64 -125 131 0
-64 -121 131 0
-64 -131 125 121 0
-65 -131 125 0
-65 131 -125 0
-66 -131 125 0
-66 131 -125 0
-67 -131 125 0
-67 131 -125 0
-68 -125 131 0
-68 -122 131 0
-68 -131 125 122 0
-69 -131 125 0
-69 131 -125 0
-70 -131 125 0
-70 131 -125 0
-71 -125 131 0
-71 -123 131 0
-71 -131 125 123 0
-72 -131 125 0
-72 131 -125 0
-73 -125 131 0
-73 -124 131 0
-73 -131 125 124 0
-74 -131 125 0
-74 131 -125 0
-75 -131 125 0
-75 -131 126 0
-75 131 -125 -126 0
-95 -131 125 0
-95 131 -125 0
-61 -132 126 0
-61 132 -126 0
-62 -132 126 0
-62 132 -126 0
-63 -132 126 0
-63 132 -126 0
-64 -132 126 0
-64 132 -126 0
-65 -126 132 0
-65 -121 132 0
-65 -132 126 121 0
-66 -132 126 0
-66 132 -126 0
-67 -132 126 0
-67 132 -126 0
-68 -132 126 0
-68 132 -126 0
-69 -126 132 0
-69 -122 132 0
-69 -132 126 122 0
-70 -132 126 0
-70 132 -126 0
-71 -132 126 0
-71 132 -126 0
-72 -126 132 0
-72 -123 132 0
-72 -132 126 123 0
-73 -132 126 0
-73 132 -126 0
-74 -126 132 0
-74 -124 132 0
-74 -132 126 124 0
-75 -126 132 0
-75 -125 132 0
-75 -132 126 125 0
-95 -132 126 0
-95 132 -126 0
-76 -133 127 0
-76 -133 128 0
-76 133 -127 -128 0
-77 -133 127 0
-77 -133 129 0
-77 133 -127 -129 0
-78 -133 127 0
-78 -133 130 0
-78 133 -127 -130 0
-79 -133 127 0
-79 -133 131 0
-79 133 -127 -131 0
-80 -133 127 0
-80 -133 132 0
-80 133 -127 -132 0
-81 -133 127 0
-81 133 -127 0
-82 -133 127 0
-82 133 -127 0
-83 -133 127 0
-83 133 -127 0
-84 -133 127 0
-84 133 -127 0
-85 -133 127 0
-85 133 -127 0
-86 -133 127 0
-86 133 -127 0
-87 -133 127 0
-87 133 -127 0
-88 -133 127 0
-88 133 -127 0
-89 -133 127 0
-89 133 -127 0
-90 -133 127 0
-90 133 -127 0
-96 -133 127 0
-96 133 -127 0
-76 -128 134 0
-76 -127 134 0
-76 -134 128 127 0
-77 -134 128 0
-77 134 -128 0
-78 -134 128 0
-78 134 -128 0
-79 -134 128 0
-79 134 -128 0
-80 -134 128 0
-80 134 -128 0
-81 -134 128 0
-81 -134 129 0
-81 134 -128 -129 0
-82 -134 128 0
-82 -134 130 0
-82 134 -128 -130 0
-83 -134 128 0
-83 -134 131 0
-83 134 -128 -131 0
-84 -134 128 0
-84 -134 132 0
-84 134 -128 -132 0
-85 -134 128 0
-85 134 -128 0
-86 -134 128 0
-86 134 -128 0
-87 -134 128 0
-87 134 -128 0
-88 -134 128 0
-88 134 -128 0
-89 -134 128 0
-89 134 -128 0
-90 -134 128 0
-90 134 -128 0
-96 -134 128 0
-96 134 -128 0
-76 -135 129 0
-76 135 -129 0
-77 -129 135 0
-77 -127 135 0
-77 -135 129 127 0
-78 -135 129 0
-78 135 -129 0
-79 -135 129 0
-79 135 -129 0
-80 -135 129 0
-80 135 -129 0
-81 -129 135 0
-81 -128 135 0
-81 -135 129 128 0
-82 -135 129 0
-82 135 -129 0
-83 -135 129 0
-83 135 -129 0
-84 -135 129 0
-84 135 -129 0
-85 -135 129 0
-85 -135 130 0
-85 135 -129 -130 0
-86 -135 129 0
-86 -135 131 0
-86 135 -129 -131 0
-87 -135 129 0
-87 -135 132 0
-87 135 -129 -132 0
-88 -135 129 0
-88 135 -129 0
-89 -135 129 0
-89 135 -129 0
-90 -135 129 0
-90 135 -129 0
-96 -135 129 0
-96 135 -129 0
-76 -136 130 0
-76 136 -130 0
-77 -136 130 0
-77 136 -130 0
-78 -130 136 0
-78 -127 136 0
-78 -136 130 127 0
-79 -136 130 0
-79 136 -130 0
-80 -136 130 0
-80 136 -130 0
-81 -136 130 0
-81 136 -130 0
-82 -130 136 0
-82 -128 136 0
-82 -136 130 128 0
-83 -136 130 0
-83 136 -130 0
-84 -136 130 0
-84 136 -130 0
-85 -130 136 0
-85 -129 136 0
-85 -136 130 129 0
-86 -136 130 0
-86 136 -130 0
-87 -136 130 0
-87 136 -130 0
-88 -136 130 0
-88 -136 131 0
-88 136 -130 -131 0
-89 -136 130 0
-89 -136 132 0
-89 136 -130 -132 0
-90 -136 130 0
-90 136 -130 0
-96 -136 130 0
-96 136 -130 0
-76 -137 131 0
-76 137 -131 0
-77 -137 131 0
-77 137 -131 0
-78 -137 131 0
-78 137 -131 0
-79 -131 137 0
-79 -127 137 0
-79 -137 131 127 0
-80 -137 131 0
-80 137 -131 0
-81 -137 131 0
-81 137 -131 0
-82 -137 131 0
-82 137 -131 0
-83 -131 137 0
-83 -128 137 0
-83 -137 131 128 0
-84 -137 131 0
-84 137 -131 0
-85 -137 131 0
-85 137 -131 0
-86 -131 137 0
-86 -129 137 0
-86 -137 131 129 0
-87 -137 131 0
-87 137 -131 0
-88 -131 137 0
-88 -130 137 0
-88 -137 131 130 0
-89 -137 131 0
-89 137 -131 0
-90 -137 131 0
-90 -137 132 0
-90 137 -131 -132 0
-96 -137 131 0
-96 137 -131 0
-76 -138 132 0
-76 138 -132 0
-77 -138 132 0
-77 138 -132 0
-78 -138 132 0
-78 138 -132 0
-79 -138 132 0
-79 138 -132 0
-80 -132 138 0
-80 -127 138 0
-80 -138 132 127 0
-81 -138 132 0
-81 138 -132 0
-82 -138 132 0
-82 138 -132 0
-83 -138 132 0
-83 138 -132 0
-84 -132 138 0
-84 -128 138 0
-84 -138 132 128 0
-85 -138 132 0
-85 138 -132 0
-86 -138 132 0
-86 138 -132 0
-87 -132 138 0
-87 -129 138 0
-87 -138 132 129 0
-88 -138 132 0
-88 138 -132 0
-89 -132 138 0
-89 -130 138 0
-89 -138 132 130 0
-90 -132 138 0
-90 -131 138 0
-90 -138 132 131 0
-96 -138 132 0
-96 138 -132 0
-139 0
-1 -145 139 0
-1 -145 140 0
-1 145 -139 -140 0
-2 -145 139 0
-2 -145 141 0
-2 145 -139 -141 0
-3 -145 139 0
-3 -145 142 0
-3 145 -139 -142 0
-4 -145 139 0
-4 -145 143 0
-4 145 -139 -143 0
-5 -145 139 0
-5 -145 144 0
-5 145 -139 -144 0
-6 -145 139 0
-6 145 -139 0
-7 -145 139 0
-7 145 -139 0
-8 -145 139 0
-8 145 -139 0
-9 -145 139 0
-9 145 -139 0
-10 -145 139 0
-10 145 -139 0
-11 -145 139 0
-11 145 -139 0
-12 -145 139 0
-12 145 -139 0
-13 -145 139 0
-13 145 -139 0
-14 -145 139 0
-14 145 -139 0
-15 -145 139 0
-15 145 -139 0
-91 -145 139 0
-91 145 -139 0
-140 0
-1 -140 146 0
-1 -139 146 0
-1 -146 140 139 0
-2 -146 140 0
-2 146 -140 0
-3 -146 140 0
-3 146 -140 0
-4 -146 140 0
-4 146 -140 0
-5 -146 140 0
-5 146 -140 0
-6 -146 140 0
-6 -146 141 0
-6 146 -140 -141 0
-7 -146 140 0
-7 -146 142 0
-7 146 -140 -142 0
-8 -146 140 0
-8 -146 143 0
-8 146 -140 -143 0
-9 -146 140 0
-9 -146 144 0
-9 146 -140 -144 0
-10 -146 140 0
-10 146 -140 0
-11 -146 140 0
-11 146 -140 0
-12 -146 140 0
-12 146 -140 0
-13 -146 140 0
-13 146 -140 0
-14 -146 140 0
-14 146 -140 0
-15 -146 140 0
-15 146 -140 0
-91 -146 140 0
-91 146 -140 0
-141 0
-1 -147 141 0
-1 147 -141 0
-2 -141 147 0
-2 -139 147 0
-2 -147 141 139 0
-3 -147 141 0
-3 147 -141 0
-4 -147 141 0
-4 147 -141 0
-5 -147 141 0
-5 147 -141 0
-6 -141 147 0
-6 -140 147 0
-6 -147 141 140 0
-7 -147 141 0
-7 147 -141 0
-8 -147 141 0
-8 147 -141 0
-9 -147 141 0
-9 147 -141 0
-10 -147 141 0
-10 -147 142 0
-10 147 -141 -142 0
-11 -147 141 0
-11 -147 143 0
-11 147 -141 -143 0
-12 -147 141 0
-12 -147 144 0
-12 147 -141 -144 0
-13 -147 141 0
-13 147 -141 0
-14 -147 141 0
-14 147 -141 0
-15 -147 141 0
-15 147 -141 0
-91 -147 141 0
-91 147 -141 0
-142 0
-1 -148 142 0
-1 148 -142 0
-2 -148 142 0
-2 148 -142 0
-3 -142 148 0
-3 -139 148 0
-3 -148 142 139 0
-4 -148 142 0
-4 148 -142 0
-5 -148 142 0
-5 148 -142 0
-6 -148 142 0
-6 148 -142 0
-7 -142 148 0
-7 -140 148 0
-7 -148 142 140 0
-8 -148 142 0
-8 148 -142 0
-9 -148 142 0
-9 148 -142 0
-10 -142 148 0
-10 -141 148 0
-10 -148 142 141 0
-11 -148 142 0
-11 148 -142 0
-12 -148 142 0
-12 148 -142 0
-13 -148 142 0
-13 -148 143 0
-13 148 -142 -143 0
-14 -148 142 0
-14 -148 144 0
-14 148 -142 -144 0
-15 -148 142 0
-15 148 -142 0
-91 -148 142 0
-91 148 -142 0
-143 0
-1 -149 143 0
-1 149 -143 0
-2 -149 143 0
-2 149 -143 0
-3 -149 143 0
-3 149 -143 0
-4 -143 149 0
-4 -139 149 0
-4 -149 143 139 0
-5 -149 143 0
-5 149 -143 0
-6 -149 143 0
-6 149 -143 0
-7 -149 143 0
-7 149 -143 0
-8 -143 149 0
-8 -140 149 0
-8 -149 143 140 0
-9 -149 143 0
-9 149 -143 0
-10 -149 143 0
-10 149 -143 0
-11 -143 149 0
-11 -141 149 0
-11 -149 143 141 0
-12 -149 143 0
-12 149 -143 0
-13 -143 149 0
-13 -142 149 0
-13 -149 143 142 0
-14 -149 143 0
-14 149 -143 0
-15 -149 143 0
-15 -149 144 0
-15 149 -143 -144 0
-91 -149 143 0
-91 149 -143 0
144 0
-1 -150 144 0
-1 150 -144 0
-2 -150 144 0
-2 150 -144 0
-3 -150 144 0
-3 150 -144 0
-4 -150 144 0
-4 150 -144 0
-5 -144 150 0
-5 -139 150 0
-5 -150 144 139 0
-6 -150 144 0
-6 150 -144 0
-7 -150 144 0
-7 150 -144 0
-8 -150 144 0
-8 150 -144 0
-9 -144 150 0
-9 -140 150 0
-9 -150 144 140 0
-10 -150 144 0
-10 150 -144 0
-11 -150 144 0
-11 150 -144 0
-12 -144 150 0
-12 -141 150 0
-12 -150 144 141 0
-13 -150 144 0
-13 150 -144 0
-14 -144 150 0
-14 -142 150 0
-14 -150 144 142 0
-15 -144 150 0
-15 -143 150 0
-15 -150 144 143 0
-91 -150 144 0
-91 150 -144 0
-16 -151 145 0
-16 -151 146 0
-16 151 -145 -146 0
-17 -151 145 0
-17 -151 147 0
-17 151 -145 -147 0
-18 -151 145 0
-18 -151 148 0
-18 151 -145 -148 0
-19 -151 145 0
-19 -151 149 0
-19 151 -145 -149 0
-20 -151 145 0
-20 -151 150 0
-20 151 -145 -150 0
-21 -151 145 0
-21 151 -145 0
-22 -151 145 0
-22 151 -145 0
-23 -151 145 0
-23 151 -145 0
-24 -151 145 0
-24 151 -145 0
-25 -151 145 0
-25 151 -145 0
-26 -151 145 0
-26 151 -145 0
-27 -151 145 0
-27 151 -145 0
-28 -151 145 0
-28 151 -145 0
-29 -151 145 0
-29 151 -145 0
-30 -151 145 0
-30 151 -145 0
-92 -151 145 0
-92 151 -145 0
-16 -146 152 0
-16 -145 152 0
-16 -152 146 145 0
-17 -152 146 0
-17 152 -146 0
-18 -152 146 0
-18 152 -146 0
-19 -152 146 0
-19 152 -146 0
-20 -152 146 0
-20 152 -146 0
-21 -152 146 0
-21 -152 147 0
-21 152 -146 -147 0
-22 -152 146 0
-22 -152 148 0
-22 152 -146 -148 0
-23 -152 146 0
-23 -152 149 0
-23 152 -146 -149 0
-24 -152 146 0
-24 -152 150 0
-24 152 -146 -150 0
-25 -152 146 0
-25 152 -146 0
-26 -152 146 0
-26 152 -146 0
-27 -152 146 0
-27 152 -146 0
-28 -152 146 0
-28 152 -146 0
-29 -152 146 0
-29 152 -146 0
-30 -152 146 0
-30 152 -146 0
-92 -152 146 0
-92 152 -146 0
-16 -153 147 0
-16 153 -147 0
-17 -147 153 0
-17 -145 153 0
-17 -153 147 145 0
-18 -153 147 0
-18 153 -147 0
-19 -153 147 0
-19 153 -147 0
-20 -153 147 0
-20 153 -147 0
-21 -147 153 0
-21 -146 153 0
-21 -153 147 146 0
-22 -153 147 0
-22 153 -147 0
-23 -153 147 0
-23 153 -147 0
-24 -153 147 0
-24 153 -147 0
-25 -153 147 0
-25 -153 148 0
-25 153 -147 -148 0
-26 -153 147 0
-26 -153 149 0
-26 153 -147 -149 0
-27 -153 147 0
-27 -153 150 0
-27 153 -147 -150 0
-28 -153 147 0
-28 153 -147 0
-29 -153 147 0
-29 153 -147 0
-30 -153 147 0
-30 153 -147 0
-92 -153 147 0
-92 153 -147 0
-16 -154 148 0
-16 154 -148 0
-17 -154 148 0
-17 154 -148 0
-18 -148 154 0
-18 -145 154 0
-18 -154 148 145 0
-19 -154 148 0
-19 154 -148 0
-20 -154 148 0
-20 154 -148 0
-21 -154 148 0
-21 154 -148 0
-22 -148 154 0
-22 -146 154 0
-22 -154 148 146 0
-23 -154 148 0
-23 154 -148 0
-24 -154 148 0
-24 154 -148 0
-25 -148 154 0
-25 -147 154 0
-25 -154 148 147 0
-26 -154 148 0
-26 154 -148 0
-27 -154 148 0
-27 154 -148 0
-28 -154 148 0
-28 -154 149 0
-28 154 -148 -149 0
-29 -154 148 0
-29 -154 150 0
-29 154 -148 -150 0
-30 -154 148 0
-30 154 -148 0
-92 -154 148 0
-92 154 -148 0
-16 -155 149 0
-16 155 -149 0
-17 -155 149 0
-17 155 -149 0
-18 -155 149 0
-18 155 -149 0
-19 -149 155 0
-19 -145 155 0
-19 -155 149 145 0
-20 -155 149 0
-20 155 -149 0
-21 -155 149 0
-21 155 -149 0
-22 -155 149 0
-22 155 -149 0
-23 -149 155 0
-23 -146 155 0
-23 -155 149 146 0
-24 -155 149 0
-24 155 -149 0
-25 -155 149 0
-25 155 -149 0
-26 -149 155 0
-26 -147 155 0
-26 -155 149 147 0
-27 -155 149 0
-27 155 -149 0
-28 -149 155 0
-28 -148 155 0
-28 -155 149 148 0
-29 -155 149 0
-29 155 -149 0
-30 -155 149 0
-30 -155 150 0
-30 155 -149 -150 0
-92 -155 149 0
-92 155 -149 0
-16 -156 150 0
-16 156 -150 0
-17 -156 150 0
-17 156 -150 0
-18 -156 150 0
-18 156 -150 0
-19 -156 150 0
-19 156 -150 0
-20 -150 156 0
-20 -145 156 0
-20 -156 150 145 0
-21 -156 150 0
-21 156 -150 0
-22 -156 150 0
-22 156 -150 0
-23 -156 150 0
-23 156 -150 0
-24 -150 156 0
-24 -146 156 0
-24 -156 150 146 0
-25 -156 150 0
-25 156 -150 0
-26 -156 150 0
-26 156 -150 0
-27 -150 156 0
-27 -147 156 0
-27 -156 150 147 0
-28 -156 150 0
-28 156 -150 0
-29 -150 156 0
-29 -148 156 0
-29 -156 150 148 0
-30 -150 156 0
-30 -149 156 0
-30 -156 150 149 0
-92 -156 150 0
-92 156 -150 0
-31 -157 151 0
-31 -157 152 0
-31 157 -151 -152 0
-32 -157 151 0
-32 -157 153 0
-32 157 -151 -153 0
-33 -157 151 0
-33 -157 154 0
-33 157 -151 -154 0
-34 -157 151 0
-34 -157 155 0
-34 157 -151 -155 0
-35 -157 151 0
-35 -157 156 0
-35 157 -151 -156 0
-36 -157 151 0
-36 157 -151 0
-37 -157 151 0
-37 157 -151 0
-38 -157 151 0
-38 157 -151 0
-39 -157 151 0
-39 157 -151 0
-40 -157 151 0
-40 157 -151 0
-41 -157 151 0
-41 157 -151 0
-42 -157 151 0
-42 157 -151 0
-43 -157 151 0
-43 157 -151 0
-44 -157 151 0
-44 157 -151 0
-45 -157 151 0
-45 157 -151 0
-93 -157 151 0
-93 157 -151 0
-31 -152 158 0
-31 -151 158 0
-31 -158 152 151 0
-32 -158 152 0
-32 158 -152 0
-33 -158 152 0
-33 158 -152 0
-34 -158 152 0
-34 158 -152 0
-35 -158 152 0
-35 158 -152 0
-36 -158 152 0
-36 -158 153 0
-36 158 -152 -153 0
-37 -158 152 0
-37 -158 154 0
-37 158 -152 -154 0
-38 -158 152 0
-38 -158 155 0
-38 158 -152 -155 0
-39 -158 152 0
-39 -158 156 0
-39 158 -152 -156 0
-40 -158 152 0
-40 158 -152 0
-41 -158 152 0
-41 158 -152 0
-42 -158 152 0
-42 158 -152 0
-43 -158 152 0
-43 158 -152 0
-44 -158 152 0
-44 158 -152 0
-45 -158 152 0
-45 158 -152 0
-93 -158 152 0
-93 158 -152 0
-31 -159 153 0
-31 159 -153 0
-32 -153 159 0
-32 -151 159 0
-32 -159 153 151 0
-33 -159 153 0
-33 159 -153 0
-34 -159 153 0
-34 159 -153 0
-35 -159 153 0
-35 159 -153 0
-36 -153 159 0
-36 -152 159 0
-36 -159 153 152 0
-37 -159 153 0
-37 159 -153 0
-38 -159 153 0
-38 159 -153 0
-39 -159 153 0
-39 159 -153 0
-40 -159 153 0
-40 -159 154 0
-40 159 -153 -154 0
-41 -159 153 0
-41 -159 155 0
-41 159 -153 -155 0
-42 -159 153 0
-42 -159 156 0
-42 159 -153 -156 0
-43 -159 153 0
-43 159 -153 0
-44 -159 153 0
-44 159 -153 0
-45 -159 153 0
-45 159 -153 0
-93 -159 153 0
-93 159 -153 0
-31 -160 154 0
-31 160 -154 0
-32 -160 154 0
-32 160 -154 0
-33 -154 160 0
-33 -151 160 0
-33 -160 154 151 0
-34 -160 154 0
-34 160 -154 0
-35 -160 154 0
-35 160 -154 0
-36 -160 154 0
-36 160 -154 0
-37 -154 160 0
-37 -152 160 0
-37 -160 154 152 0
-38 -160 154 0
-38 160 -154 0
-39 -160 154 0
-39 160 -154 0
-40 -154 160 0
-40 -153 160 0
-40 -160 154 153 0
-41 -160 154 0
-41 160 -154 0
-42 -160 154 0
-42 160 -154 0
-43 -160 154 0
-43 -160 155 0
-43 160 -154 -155 0
-44 -160 154 0
-44 -160 156 0
-44 160 -154 -156 0
-45 -160 154 0
-45 160 -154 0
-93 -160 154 0
-93 160 -154 0
-31 -161 155 0
-31 161 -155 0
-32 -161 155 0
-32 161 -155 0
-33 -161 155 0
-33 161 -155 0
-34 -155 161 0
-34 -151 161 0
-34 -161 155 151 0
-35 -161 155 0
-35 161 -155 0
-36 -161 155 0
-36 161 -155 0
-37 -161 155 0
-37 161 -155 0
-38 -155 161 0
-38 -152 161 0
-38 -161 155 152 0
-39 -161 155 0
-39 161 -155 0
-40 -161 155 0
-40 161 -155 0
-41 -155 161 0
-41 -153 161 0
-41 -161 155 153 0
-42 -161 155 0
-42 161 -155 0
-43 -155 161 0
-43 -154 161 0
-43 -161 155 154 0
-44 -161 155 0
-44 161 -155 0
-45 -161 155 0
-45 -161 156 0
-45 161 -155 -156 0
-93 -161 155 0
-93 161 -155 0
-31 -162 156 0
-31 162 -156 0
-32 -162 156 0
-32 162 -156 0
-33 -162 156 0
-33 162 -156 0
-34 -162 156 0
-34 162 -156 0
-35 -156 162 0
-35 -151 162 0
-35 -162 156 151 0
-36 -162 156 0
-36 162 -156 0
-37 -162 156 0
-37 162 -156 0
-38 -162 156 0
-38 162 -156 0
-39 -156 162 0
-39 -152 162 0
-39 -162 156 152 0
-40 -162 156 0
-40 162 -156 0
-41 -162 156 0
-41 162 -156 0
-42 -156 162 0
-42 -153 162 0
-42 -162 156 153 0
-43 -162 156 0
-43 162 -156 0
-44 -156 162 0
-44 -154 162 0
-44 -162 156 154 0
-45 -156 162 0
-45 -155 162 0
-45 -162 156 155 0
-93 -162 156 0
-93 162 -156 0
-46 -163 157 0
-46 -163 158 0
-46 163 -157 -158 0
-47 -163 157 0
-47 -163 159 0
-47 163 -157 -159 0
-48 -163 157 0
-48 -163 160 0
-48 163 -157 -160 0
-49 -163 157 0
-49 -163 161 0
-49 163 -157 -161 0
-50 -163 157 0
-50 -163 162 0
-50 163 -157 -162 0
-51 -163 157 0
-51 163 -157 0
-52 -163 157 0
-52 163 -157 0
-53 -163 157 0
-53 163 -157 0
-54 -163 157 0
-54 163 -157 0
-55 -163 157 0
-55 163 -157 0
-56 -163 157 0
-56 163 -157 0
-57 -163 157 0
-57 163 -157 0
-58 -163 157 0
-58 163 -157 0
-59 -163 157 0
-59 163 -157 0
-60 -163 157 0
-60 163 -157 0
-94 -163 157 0
-94 163 -157 0
-46 -158 164 0
-46 -157 164 0
-46 -164 158 157 0
-47 -164 158 0
-47 164 -158 0
-48 -164 158 0
-48 164 -158 0
-49 -164 158 0
-49 164 -158 0
-50 -164 158 0
-50 164 -158 0
-51 -164 158 0
-51 -164 159 0
-51 164 -158 -159 0
-52 -164 158 0
-52 -164 160 0
-52 164 -158 -160 0
-53 -164 158 0
-53 -164 161 0
-53 164 -158 -161 0
-54 -164 158 0
-54 -164 162 0
-54 164 -158 -162 0
-55 -164 158 0
-55 164 -158 0
-56 -164 158 0
-56 164 -158 0
-57 -164 158 0
-57 164 -158 0
-58 -164 158 0
-58 164 -158 0
-59 -164 158 0
-59 164 -158 0
-60 -164 158 0
-60 164 -158 0
-94 -164 158 0
-94 164 -158 0
-46 -165 159 0
-46 165 -159 0
-47 -159 165 0
-47 -157 165 0
-47 -165 159 157 0
-48 -165 159 0
-48 165 -159 0
-49 -165 159 0
-49 165 -159 0
-50 -165 159 0
-50 165 -159 0
-51 -159 165 0
-51 -158 165 0
-51 -165 159 158 0
-52 -165 159 0
-52 165 -159 0
-53 -165 159 0
-53 165 -159 0
-54 -165 159 0
-54 165 -159 0
-55 -165 159 0
-55 -165 160 0
-55 165 -159 -160 0
-56 -165 159 0
-56 -165 161 0
-56 165 -159 -161 0
-57 -165 159 0
-57 -165 162 0
-57 165 -159 -162 0
-58 -165 159 0
-58 165 -159 0
-59 -165 159 0
-59 165 -159 0
-60 -165 159 0
-60 165 -159 0
-94 -165 159 0
-94 165 -159 0
-46 -166 160 0
-46 166 -160 0
-47 -166 160 0
-47 166 -160 0
-48 -160 166 0
-48 -157 166 0
-48 -166 160 157 0
-49 -166 160 0
-49 166 -160 0
-50 -166 160 0
-50 166 -160 0
-51 -166 160 0
-51 166 -160 0
-52 -160 166 0
-52 -158 166 0
-52 -166 160 158 0
-53 -166 160 0
-53 166 -160 0
-54 -166 160 0
-54 166 -160 0
-55 -160 166 0
-55 -159 166 0
-55 -166 160 159 0
-56 -166 160 0
-56 166 -160 0
-57 -166 160 0
-57 166 -160 0
-58 -166 160 0
-58 -166 161 0
-58 166 -160 -161 0
-59 -166 160 0
-59 -166 162 0
-59 166 -160 -162 0
-60 -166 160 0
-60 166 -160 0
-94 -166 160 0
-94 166 -160 0
-46 -167 161 0
-46 167 -161 0
-47 -167 161 0
-47 167 -161 0
-48 -167 161 0
-48 167 -161 0
-49 -161 167 0
-49 -157 167 0
-49 -167 161 157 0
-50 -167 161 0
-50 167 -161 0
-51 -167 161 0
-51 167 -161 0
-52 -167 161 0
-52 167 -161 0
-53 -161 167 0
-53 -158 167 0
-53 -167 161 158 0
-54 -167 161 0
-54 167 -161 0
-55 -167 161 0
-55 167 -161 0
-56 -161 167 0
-56 -159 167 0
-56 -167 161 159 0
-57 -167 161 0
-57 167 -161 0
-58 -161 167 0
-58 -160 167 0
-58 -167 161 160 0
-59 -167 161 0
-59 167 -161 0
-60 -167 161 0
-60 -167 162 0
-60 167 -161 -162 0
-94 -167 161 0
-94 167 -161 0
-46 -168 162 0
-46 168 -162 0
-47 -168 162 0
-47 168 -162 0
-48 -168 162 0
-48 168 -162 0
-49 -168 162 0
-49 168 -162 0
-50 -162 168 0
-50 -157 168 0
-50 -168 162 157 0
-51 -168 162 0
-51 168 -162 0
-52 -168 162 0
-52 168 -162 0
-53 -168 162 0
-53 168 -162 0
-54 -162 168 0
-54 -158 168 0
-54 -168 162 158 0
-55 -168 162 0
-55 168 -162 0
-56 -168 162 0
-56 168 -162 0
-57 -162 168 0
-57 -159 168 0
-57 -168 162 159 0
-58 -168 162 0
-58 168 -162 0
-59 -162 168 0
-59 -160 168 0
-59 -168 162 160 0
-60 -162 168 0
-60 -161 168 0
-60 -168 162 161 0
-94 -168 162 0
-94 168 -162 0
-61 -169 163 0
-61 -169 164 0
-61 169 -163 -164 0
-62 -169 163 0
-62 -169 165 0
-62 169 -163 -165 0
-63 -169 163 0
-63 -169 166 0
-63 169 -163 -166 0
-64 -169 163 0
-64 -169 167 0
-64 169 -163 -167 0
-65 -169 163 0
-65 -169 168 0
-65 169 -163 -168 0
-66 -169 163 0
-66 169 -163 0
-67 -169 163 0
-67 169 -163 0
-68 -169 163 0
-68 169 -163 0
-69 -169 163 0
-69 169 -163 0
-70 -169 163 0
-70 169 -163 0
-71 -169 163 0
-71 169 -163 0
-72 -169 163 0
-72 169 -163 0
-73 -169 163 0
-73 169 -163 0
-74 -169 163 0
-74 169 -163 0
-75 -169 163 0
-75 169 -163 0
-95 -169 163 0
-95 169 -163 0
-61 -164 170 0
-61 -163 170 0
-61 -170 164 163 0
-62 -170 164 0
-62 170 -164 0
-63 -170 164 0
-63 170 -164 0
-64 -170 164 0
-64 170 -164 0
-65 -170 164 0
-65 170 -164 0
-66 -170 164 0
-66 -170 165 0
-66 170 -164 -165 0
-67 -170 164 0
-67 -170 166 0
-67 170 -164 -166 0
-68 -170 164 0
-68 -170 167 0
-68 170 -164 -167 0
-69 -170 164 0
-69 -170 168 0
-69 170 -164 -168 0
-70 -170 164 0
-70 170 -164 0
-71 -170 164 0
-71 170 -164 0
-72 -170 164 0
-72 170 -164 0
-73 -170 164 0
-73 170 -164 0
-74 -170 164 0
-74 170 -164 0
-75 -170 164 0
-75 170 -164 0
-95 -170 164 0
-95 170 -164 0
-61 -171 165 0
-61 171 -165 0
-62 -165 171 0
-62 -163 171 0
-62 -171 165 163 0
-63 -171 165 0
-63 171 -165 0
-64 -171 165 0
-64 171 -165 0
-65 -171 165 0
-65 171 -165 0
-66 -165 171 0
-66 -164 171 0
-66 -171 165 164 0
-67 -171 165 0
-67 171 -165 0
-68 -171 165 0
-68 171 -165 0
-69 -171 165 0
-69 171 -165 0
-70 -171 165 0
-70 -171 166 0
-70 171 -165 -166 0
-71 -171 165 0
-71 -171 167 0
-71 171 -165 -167 0
-72 -171 165 0
-72 -171 168 0
-72 171 -165 -168 0
-73 -171 165 0
-73 171 -165 0
-74 -171 165 0
-74 171 -165 0
-75 -171 165 0
-75 171 -165 0
-95 -171 165 0
-95 171 -165 0
-61 -172 166 0
-61 172 -166 0
-62 -172 166 0
-62 172 -166 0
-63 -166 172 0
-63 -163 172 0
-63 -172 166 163 0
-64 -172 166 0
-64 172 -166 0
-65 -172 166 0
-65 172 -166 0
-66 -172 166 0
-66 172 -166 0
-67 -166 172 0
-67 -164 172 0
-67 -172 166 164 0
-68 -172 166 0
-68 172 -166 0
-69 -172 166 0
-69 172 -166 0
-70 -166 172 0
-70 -165 172 0
-70 -172 166 165 0
-71 -172 166 0
-71 172 -166 0
-72 -172 166 0
-72 172 -166 0
-73 -172 166 0
-73 -172 167 0
-73 172 -166 -167 0
-74 -172 166 0
-74 -172 168 0
-74 172 -166 -168 0
-75 -172 166 0
-75 172 -166 0
-95 -172 166 0
-95 172 -166 0
-61 -173 167 0
-61 173 -167 0
-62 -173 167 0
-62 173 -167 0
-63 -173 167 0
-63 173 -167 0
-64 -167 173 0
-64 -163 173 0
-64 -173 167 163 0
-65 -173 167 0
-65 173 -167 0
-66 -173 167 0
-66 173 -167 0
-67 -173 167 0
-67 173 -167 0
-68 -167 173 0
-68 -164 173 0
-68 -173 167 164 0
-69 -173 167 0
-69 173 -167 0
-70 -173 167 0
-70 173 -167 0
-71 -167 173 0
-71 -165 173 0
-71 -173 167 165 0
-72 -173 167 0
-72 173 -167 0
-73 -167 173 0
-73 -166 173 0
-73 -173 167 166 0
-74 -173 167 0
-74 173 -167 0
-75 -173 167 0
-75 -173 168 0
-75 173 -167 -168 0
-95 -173 167 0
-95 173 -167 0
-61 -174 168 0
-61 174 -168 0
-62 -174 168 0
-62 174 -168 0
-63 -174 168 0
-63 174 -168 0
-64 -174 168 0
-64 174 -168 0
-65 -168 174 0
-65 -163 174 0
-65 -174 168 163 0
-66 -174 168 0
-66 174 -168 0
-67 -174 168 0
-67 174 -168 0
-68 -174 168 0
-68 174 -168 0
-69 -168 174 0
-69 -164 174 0
-69 -174 168 164 0
-70 -174 168 0
-70 174 -168 0
-71 -174 168 0
-71 174 -168 0
-72 -168 174 0
-72 -165 174 0
-72 -174 168 165 0
-73 -174 168 0
-73 174 -168 0
-74 -168 174 0
-74 -166 174 0
-74 -174 168 166 0
-75 -168 174 0
-75 -167 174 0
-75 -174 168 167 0
-95 -174 168 0
-95 174 -168 0
-76 -175 169 0
-76 -175 170 0
-76 175 -169 -170 0
-77 -175 169 0
-77 -175 171 0
-77 175 -169 -171 0
-78 -175 169 0
-78 -175 172 0
-78 175 -169 -172 0
-79 -175 169 0
-79 -175 173 0
-79 175 -169 -173 0
-80 -175 169 0
-80 -175 174 0
-80 175 -169 -174 0
-81 -175 169 0
-81 175 -169 0
-82 -175 169 0
-82 175 -169 0
-83 -175 169 0
-83 175 -169 0
-84 -175 169 0
-84 175 -169 0
-85 -175 169 0
-85 175 -169 0
-86 -175 169 0
-86 175 -169 0
-87 -175 169 0
-87 175 -169 0
-88 -175 169 0
-88 175 -169 0
-89 -175 169 0
-89 175 -169 0
-90 -175 169 0
-90 175 -169 0
-96 -175 169 0
-96 175 -169 0
-76 -170 176 0
-76 -169 176 0
-76 -176 170 169 0
-77 -176 170 0
-77 176 -170 0
-78 -176 170 0
-78 176 -170 0
-79 -176 170 0
-79 176 -170 0
-80 -176 170 0
-80 176 -170 0
-81 -176 170 0
-81 -176 171 0
-81 176 -170 -171 0
-82 -176 170 0
-82 -176 172 0
-82 176 -170 -172 0
-83 -176 170 0
-83 -176 173 0
-83 176 -170 -173 0
-84 -176 170 0
-84 -176 174 0
-84 176 -170 -174 0
-85 -176 170 0
-85 176 -170 0
-86 -176 170 0
-86 176 -170 0
-87 -176 170 0
-87 176 -170 0
-88 -176 170 0
-88 176 -170 0
-89 -176 170 0
-89 176 -170 0
-90 -176 170 0
-90 176 -170 0
-96 -176 170 0
-96 176 -170 0
-76 -177 171 0
-76 177 -171 0
-77 -171 177 0
-77 -169 177 0
-77 -177 171 169 0
-78 -177 171 0
-78 177 -171 0
-79 -177 171 0
-79 177 -171 0
-80 -177 171 0
-80 177 -171 0
-81 -171 177 0
-81 -170 177 0
-81 -177 171 170 0
-82 -177 171 0
-82 177 -171 0
-83 -177 171 0
-83 177 -171 0
-84 -177 171 0
-84 177 -171 0
-85 -177 171 0
-85 -177 172 0
-85 177 -171 -172 0
-86 -177 171 0
-86 -177 173 0
-86 177 -171 -173 0
-87 -177 171 0
-87 -177 174 0
-87 177 -171 -174 0
-88 -177 171 0
-88 177 -171 0
-89 -177 171 0
-89 177 -171 0
-90 -177 171 0
-90 177 -171 0
-96 -177 171 0
-96 177 -171 0
-76 -178 172 0
-76 178 -172 0
-77 -178 172 0
-77 178 -172 0
-78 -172 178 0
-78 -169 178 0
-78 -178 172 169 0
-79 -178 172 0
-79 178 -172 0
-80 -178 172 0
-80 178 -172 0
-81 -178 172 0
-81 178 -172 0
-82 -172 178 0
-82 -170 178 0
-82 -178 172 170 0
-83 -178 172 0
-83 178 -172 0
-84 -178 172 0
-84 178 -172 0
-85 -172 178 0
-85 -171 178 0
-85 -178 172 171 0
-86 -178 172 0
-86 178 -172 0
-87 -178 172 0
-87 178 -172 0
-88 -178 172 0
-88 -178 173 0
-88 178 -172 -173 0
-89 -178 172 0
-89 -178 174 0
-89 178 -172 -174 0
-90 -178 172 0
-90 178 -172 0
-96 -178 172 0
-96 178 -172 0
-76 -179 173 0
-76 179 -173 0
-77 -179 173 0
-77 179 -173 0
-78 -179 173 0
-78 179 -173 0
-79 -173 179 0
-79 -169 179 0
-79 -179 173 169 0
-80 -179 173 0
-80 179 -173 0
-81 -179 173 0
-81 179 -173 0
-82 -179 173 0
-82 179 -173 0
-83 -173 179 0
-83 -170 179 0
-83 -179 173 170 0
-84 -179 173 0
-84 179 -173 0
-85 -179 173 0
-85 179 -173 0
-86 -173 179 0
-86 -171 179 0
-86 -179 173 171 0
-87 -179 173 0
-87 179 -173 0
-88 -173 179 0
-88 -172 179 0
-88 -179 173 172 0
-89 -179 173 0
-89 179 -173 0
-90 -179 173 0
-90 -179 174 0
-90 179 -173 -174 0
-96 -179 173 0
-96 179 -173 0
-76 -180 174 0
-76 180 -174 0
-77 -180 174 0
-77 180 -174 0
-78 -180 174 0
-78 180 -174 0
-79 -180 174 0
-79 180 -174 0
-80 -174 180 0
-80 -169 180 0
-80 -180 174 169 0
-81 -180 174 0
-81 180 -174 0
-82 -180 174 0
-82 180 -174 0
-83 -180 174 0
-83 180 -174 0
-84 -174 180 0
-84 -170 180 0
-84 -180 174 170 0
-85 -180 174 0
-85 180 -174 0
-86 -180 174 0
-86 180 -174 0
-87 -174 180 0
-87 -171 180 0
-87 -180 174 171 0
-88 -180 174 0
-88 180 -174 0
-89 -174 180 0
-89 -172 180 0
-89 -180 174 172 0
-90 -174 180 0
-90 -173 180 0
-90 -180 174 173 0
-96 -180 174 0
-96 180 -174 0
-181 0
-1 -187 181 0
-1 -187 182 0
-1 187 -181 -182 0
-2 -187 181 0
-2 -187 183 0
-2 187 -181 -183 0
-3 -187 181 0
-3 -187 184 0
-3 187 -181 -184 0
-4 -187 181 0
-4 -187 185 0
-4 187 -181 -185 0
-5 -187 181 0
-5 -187 186 0
-5 187 -181 -186 0
-6 -187 181 0
-6 187 -181 0
-7 -187 181 0
-7 187 -181 0
-8 -187 181 0
-8 187 -181 0
-9 -187 181 0
-9 187 -181 0
-10 -187 181 0
-10 187 -181 0
-11 -187 181 0
-11 187 -181 0
-12 -187 181 0
-12 187 -181 0
-13 -187 181 0
-13 187 -181 0
-14 -187 181 0
-14 187 -181 0
-15 -187 181 0
-15 187 -181 0
-91 -187 181 0
-91 187 -181 0
-182 0
-1 -182 188 0
-1 -181 188 0
-1 -188 182 181 0
-2 -188 182 0
-2 188 -182 0
-3 -188 182 0
-3 188 -182 0
-4 -188 182 0
-4 188 -182 0
-5 -188 182 0
-5 188 -182 0
-6 -188 182 0
-6 -188 183 0
-6 188 -182 -183 0
-7 -188 182 0
-7 -188 184 0
-7 188 -182 -184 0
-8 -188 182 0
-8 -188 185 0
-8 188 -182 -185 0
-9 -188 182 0
-9 -188 186 0
-9 188 -182 -186 0
-10 -188 182 0
-10 188 -182 0
-11 -188 182 0
-11 188 -182 0
-12 -188 182 0
-12 188 -182 0
-13 -188 182 0
-13 188 -182 0
-14 -188 182 0
-14 188 -182 0
-15 -188 182 0
-15 188 -182 0
-91 -188 182 0
-91 188 -182 0
-183 0
-1 -189 183 0
-1 189 -183 0
-2 -183 189 0
-2 -181 189 0
-2 -189 183 181 0
-3 -189 183 0
-3 189 -183 0
-4 -189 183 0
-4 189 -183 0
-5 -189 183 0
-5 189 -183 0
-6 -183 189 0
-6 -182 189 0
-6 -189 183 182 0
-7 -189 183 0
-7 189 -183 0
-8 -189 183 0
-8 189 -183 0
-9 -189 183 0
-9 189 -183 0
-10 -189 183 0
-10 -189 184 0
-10 189 -183 -184 0
-11 -189 183 0
-11 -189 185 0
-11 189 -183 -185 0
-12 -189 183 0
-12 -189 186 0
-12 189 -183 -186 0
-13 -189 183 0
-13 189 -183 0
-14 -189 183 0
-14 189 -183 0
-15 -189 183 0
-15 189 -183 0
-91 -189 183 0
-91 189 -183 0
-184 0
-1 -190 184 0
-1 190 -184 0
-2 -190 184 0
-2 190 -184 0
-3 -184 190 0
-3 -181 190 0
-3 -190 184 181 0
-4 -190 184 0
-4 190 -184 0
-5 -190 184 0
-5 190 -184 0
-6 -190 184 0
-6 190 -184 0
-7 -184 190 0
-7 -182 190 0
-7 -190 184 182 0
-8 -190 184 0
-8 190 -184 0
-9 -190 184 0
-9 190 -184 0
-10 -184 190 0
-10 -183 190 0
-10 -190 184 183 0
-11 -190 184 0
-11 190 -184 0
-12 -190 184 0
-12 190 -184 0
-13 -190 184 0
-13 -190 185 0
-13 190 -184 -185 0
-14 -190 184 0
-14 -190 186 0
-14 190 -184 -186 0
-15 -190 184 0
-15 190 -184 0
-91 -190 184 0
-91 190 -184 0
185 0
-1 -191 185 0
-1 191 -185 0
-2 -191 185 0
-2 191 -185 0
-3 -191 185 0
-3 191 -185 0
-4 -185 191 0
-4 -181 191 0
-4 -191 185 181 0
-5 -191 185 0
-5 191 -185 0
-6 -191 185 0
-6 191 -185 0
-7 -191 185 0
-7 191 -185 0
-8 -185 191 0
-8 -182 191 0
-8 -191 185 182 0
-9 -191 185 0
-9 191 -185 0
-10 -191 185 0
-10 191 -185 0
-11 -185 191 0
-11 -183 191 0
-11 -191 185 183 0
-12 -191 185 0
-12 191 -185 0
-13 -185 191 0
-13 -184 191 0
-13 -191 185 184 0
-14 -191 185 0
-14 191 -185 0
-15 -191 185 0
-15 -191 186 0
-15 191 -185 -186 0
-91 -191 185 0
-91 191 -185 0
186 0
-1 -192 186 0
-1 192 -186 0
-2 -192 186 0
-2 192 -186 0
-3 -192 186 0
-3 192 -186 0
-4 -192 186 0
-4 192 -186 0
-5 -186 192 0
-5 -181 192 0
-5 -192 186 181 0
-6 -192 186 0
-6 192 -186 0
-7 -192 186 0
-7 192 -186 0
-8 -192 186 0
-8 192 -186 0
-9 -186 192 0
-9 -182 192 0
-9 -192 186 182 0
-10 -192 186 0
-10 192 -186 0
-11 -192 186 0
-11 192 -186 0
-12 -186 192 0
-12 -183 192 0
-12 -192 186 183 0
-13 -192 186 0
-13 192 -186 0
-14 -186 192 0
-14 -184 192 0
-14 -192 186 184 0
-15 -186 192 0
-15 -185 192 0
-15 -192 186 185 0
-91 -192 186 0
-91 192 -186 0
-16 -193 187 0
-16 -193 188 0
-16 193 -187 -188 0
-17 -193 187 0
-17 -193 189 0
-17 193 -187 -189 0
-18 -193 187 0
-18 -193 190 0
-18 193 -187 -190 0
-19 -193 187 0
-19 -193 191 0
-19 193 -187 -191 0
-20 -193 187 0
-20 -193 192 0
-20 193 -187 -192 0
-21 -193 187 0
-21 193 -187 0
-22 -193 187 0
-22 193 -187 0
-23 -193 187 0
-23 193 -187 0
-24 -193 187 0
-24 193 -187 0
-25 -193 187 0
-25 193 -187 0
-26 -193 187 0
-26 193 -187 0
-27 -193 187 0
-27 193 -187 0
-28 -193 187 0
-28 193 -187 0
-29 -193 187 0
-29 193 -187 0
-30 -193 187 0
-30 193 -187 0
-92 -193 187 0
-92 193 -187 0
-16 -188 194 0
-16 -187 194 0
-16 -194 188 187 0
-17 -194 188 0
-17 194 -188 0
-18 -194 188 0
-18 194 -188 0
-19 -194 188 0
-19 194 -188 0
-20 -194 188 0
-20 194 -188 0
-21 -194 188 0
-21 -194 189 0
-21 194 -188 -189 0
-22 -194 188 0
-22 -194 190 0
-22 194 -188 -190 0
-23 -194 188 0
-23 -194 191 0
-23 194 -188 -191 0
-24 -194 188 0
-24 -194 192 0
-24 194 -188 -192 0
-25 -194 188 0
-25 194 -188 0
-26 -194 188 0
-26 194 -188 0
-27 -194 188 0
-27 194 -188 0
-28 -194 188 0
-28 194 -188 0
-29 -194 188 0
-29 194 -188 0
-30 -194 188 0
-30 194 -188 0
-92 -194 188 0
-92 194 -188 0
-16 -195 189 0
-16 195 -189 0
-17 -189 195 0
-17 -187 195 0
-17 -195 189 187 0
-18 -195 189 0
-18 195 -189 0
-19 -195 189 0
-19 195 -189 0
-20 -195 189 0
-20 195 -189 0
-21 -189 195 0
-21 -188 195 0
-21 -195 189 188 0
-22 -195 189 0
-22 195 -189 0
-23 -195 189 0
-23 195 -189 0
-24 -195 189 0
-24 195 -189 0
-25 -195 189 0
-25 -195 190 0
-25 195 -189 -190 0
-26 -195 189 0
-26 -195 191 0
-26 195 -189 -191 0
-27 -195 189 0
-27 -195 192 0
-27 195 -189 -192 0
-28 -195 189 0
-28 195 -189 0
-29 -195 189 0
-29 195 -189 0
-30 -195 189 0
-30 195 -189 0
-92 -195 189 0
-92 195 -189 0
-16 -196 190 0
-16 196 -190 0
-17 -196 190 0
-17 196 -190 0
-18 -190 196 0
-18 -187 196 0
-18 -196 190 187 0
-19 -196 190 0
-19 196 -190 0
-20 -196 190 0
-20 196 -190 0
-21 -196 190 0
-21 196 -190 0
-22 -190 196 0
-22 -188 196 0
-22 -196 190 188 0
-23 -196 190 0
-23 196 -190 0
-24 -196 190 0
-24 196 -190 0
-25 -190 196 0
-25 -189 196 0
-25 -196 190 189 0
-26 -196 190 0
-26 196 -190 0
-27 -196 190 0
-27 196 -190 0
-28 -196 190 0
-28 -196 191 0
-28 196 -190 -191 0
-29 -196 190 0
-29 -196 192 0
-29 196 -190 -192 0
-30 -196 190 0
-30 196 -190 0
-92 -196 190 0
-92 196 -190 0
-16 -197 191 0
-16 197 -191 0
-17 -197 191 0
-17 197 -191 0
-18 -197 191 0
-18 197 -191 0
-19 -191 197 0
-19 -187 197 0
-19 -197 191 187 0
-20 -197 191 0
-20 197 -191 0
-21 -197 191 0
-21 197 -191 0
-22 -197 191 0
-22 197 -191 0
-23 -191 197 0
-23 -188 197 0
-23 -197 191 188 0
-24 -197 191 0
-24 197 -191 0
-25 -197 191 0
-25 197 -191 0
-26 -191 197 0
-26 -189 197 0
-26 -197 191 189 0
-27 -197 191 0
-27 197 -191 0
-28 -191 197 0
-28 -190 197 0
-28 -197 191 190 0
-29 -197 191 0
-29 197 -191 0
-30 -197 191 0
-30 -197 192 0
-30 197 -191 -192 0
-92 -197 191 0
-92 197 -191 0
-16 -198 192 0
-16 198 -192 0
-17 -198 192 0
-17 198 -192 0
-18 -198 192 0
-18 198 -192 0
-19 -198 192 0
-19 198 -192 0
-20 -192 198 0
-20 -187 198 0
-20 -198 192 187 0
-21 -198 192 0
-21 198 -192 0
-22 -198 192 0
-22 198 -192 0
-23 -198 192 0
-23 198 -192 0
-24 -192 198 0
-24 -188 198 0
-24 -198 192 188 0
-25 -198 192 0
-25 198 -192 0
-26 -198 192 0
-26 198 -192 0
-27 -192 198 0
-27 -189 198 0
-27 -198 192 189 0
-28 -198 192 0
-28 198 -192 0
-29 -192 198 0
-29 -190 198 0
-29 -198 192 190 0
-30 -192 198 0
-30 -191 198 0
-30 -198 192 191 0
-92 -198 192 0
-92 198 -192 0
-31 -199 193 0
-31 -199 194 0
-31 199 -193 -194 0
-32 -199 193 0
-32 -199 195 0
-32 199 -193 -195 0
-33 -199 193 0
-33 -199 196 0
-33 199 -193 -196 0
-34 -199 193 0
-34 -199 197 0
-34 199 -193 -197 0
-35 -199 193 0
-35 -199 198 0
-35 199 -193 -198 0
-36 -199 193 0
-36 199 -193 0
-37 -199 193 0
-37 199 -193 0
-38 -199 193 0
-38 199 -193 0
-39 -199 193 0
-39 199 -193 0
-40 -199 193 0
-40 199 -193 0
-41 -199 193 0
-41 199 -193 0
-42 -199 193 0
-42 199 -193 0
-43 -199 193 0
-43 199 -193 0
-44 -199 193 0
-44 199 -193 0
-45 -199 193 0
-45 199 -193 0
-93 -199 193 0
-93 199 -193 0
-31 -194 200 0
-31 -193 200 0
-31 -200 194 193 0
-32 -200 194 0
-32 200 -194 0
-33 -200 194 0
-33 200 -194 0
-34 -200 194 0
-34 200 -194 0
-35 -200 194 0
-35 200 -194 0
-36 -200 194 0
-36 -200 195 0
-36 200 -194 -195 0
-37 -200 194 0
-37 -200 196 0
-37 200 -194 -196 0
-38 -200 194 0
-38 -200 197 0
-38 200 -194 -197 0
-39 -200 194 0
-39 -200 198 0
-39 200 -194 -198 0
-40 -200 194 0
-40 200 -194 0
-41 -200 194 0
-41 200 -194 0
-42 -200 194 0
-42 200 -194 0
-43 -200 194 0
-43 200 -194 0
-44 -200 194 0
-44 200 -194 0
-45 -200 194 0
-45 200 -194 0
-93 -200 194 0
-93 200 -194 0
-31 -201 195 0
-31 201 -195 0
-32 -195 201 0
-32 -193 201 0
-32 -201 195 193 0
-33 -201 195 0
-33 201 -195 0
-34 -201 195 0
-34 201 -195 0
-35 -201 195 0
-35 201 -195 0
-36 -195 201 0
-36 -194 201 0
-36 -201 195 194 0
-37 -201 195 0
-37 201 -195 0
-38 -201 195 0
-38 201 -195 0
-39 -201 195 0
-39 201 -195 0
-40 -201 195 0
-40 -201 196 0
-40 201 -195 -196 0
-41 -201 195 0
-41 -201 197 0
-41 201 -195 -197 0
-42 -201 195 0
-42 -201 198 0
-42 201 -195 -198 0
-43 -201 195 0
-43 201 -195 0
-44 -201 195 0
-44 201 -195 0
-45 -201 195 0
-45 201 -195 0
-93 -201 195 0
-93 201 -195 0
-31 -202 196 0
-31 202 -196 0
-32 -202 196 0
-32 202 -196 0
-33 -196 202 0
-33 -193 202 0
-33 -202 196 193 0
-34 -202 196 0
-34 202 -196 0
-35 -202 196 0
-35 202 -196 0
-36 -202 196 0
-36 202 -196 0
-37 -196 202 0
-37 -194 202 0
-37 -202 196 194 0
-38 -202 196 0
-38 202 -196 0
-39 -202 196 0
-39 202 -196 0
-40 -196 202 0
-40 -195 202 0
-40 -202 196 195 0
-41 -202 196 0
-41 202 -196 0
-42 -202 196 0
-42 202 -196 0
-43 -202 196 0
-43 -202 197 0
-43 202 -196 -197 0
-44 -202 196 0
-44 -202 198 0
-44 202 -196 -198 0
-45 -202 196 0
-45 202 -196 0
-93 -202 196 0
-93 202 -196 0
-31 -203 197 0
-31 203 -197 0
-32 -203 197 0
-32 203 -197 0
-33 -203 197 0
-33 203 -197 0
-34 -197 203 0
-34 -193 203 0
-34 -203 197 193 0
-35 -203 197 0
-35 203 -197 0
-36 -203 197 0
-36 203 -197 0
-37 -203 197 0
-37 203 -197 0
-38 -197 203 0
-38 -194 203 0
-38 -203 197 194 0
-39 -203 197 0
-39 203 -197 0
-40 -203 197 0
-40 203 -197 0
-41 -197 203 0
-41 -195 203 0
-41 -203 197 195 0
-42 -203 197 0
-42 203 -197 0
-43 -197 203 0
-43 -196 203 0
-43 -203 197 196 0
-44 -203 197 0
-44 203 -197 0
-45 -203 197 0
-45 -203 198 0
-45 203 -197 -198 0
-93 -203 197 0
-93 203 -197 0
-31 -204 198 0
-31 204 -198 0
-32 -204 198 0
-32 204 -198 0
-33 -204 198 0
-33 204 -198 0
-34 -204 198 0
-34 204 -198 0
-35 -198 204 0
-35 -193 204 0
-35 -204 198 193 0
-36 -204 198 0
-36 204 -198 0
-37 -204 198 0
-37 204 -198 0
-38 -204 198 0
-38 204 -198 0
-39 -198 204 0
-39 -194 204 0
-39 -204 198 194 0
-40 -204 198 0
-40 204 -198 0
-41 -204 198 0
-41 204 -198 0
-42 -198 204 0
-42 -195 204 0
-42 -204 198 195 0
-43 -204 198 0
-43 204 -198 0
-44 -198 204 0
-44 -196 204 0
-44 -204 198 196 0
-45 -198 204 0
-45 -197 204 0
-45 -204 198 197 0
-93 -204 198 0
-93 204 -198 0
-46 -205 199 0
-46 -205 200 0
-46 205 -199 -200 0
-47 -205 199 0
-47 -205 201 0
-47 205 -199 -201 0
-48 -205 199 0
-48 -205 202 0
-48 205 -199 -202 0
-49 -205 199 0
-49 -205 203 0
-49 205 -199 -203 0
-50 -205 199 0
-50 -205 204 0
-50 205 -199 -204 0
-51 -205 199 0
-51 205 -199 0
-52 -205 199 0
-52 205 -199 0
-53 -205 199 0
-53 205 -199 0
-54 -205 199 0
-54 205 -199 0
-55 -205 199 0
-55 205 -199 0
-56 -205 199 0
-56 205 -199 0
-57 -205 199 0
-57 205 -199 0
-58 -205 199 0
-58 205 -199 0
-59 -205 199 0
-59 205 -199 0
-60 -205 199 0
-60 205 -199 0
-94 -205 199 0
-94 205 -199 0
-46 -200 206 0
-46 -199 206 0
-46 -206 200 199 0
-47 -206 200 0
-47 206 -200 0
-48 -206 200 0
-48 206 -200 0
-49 -206 200 0
-49 206 -200 0
-50 -206 200 0
-50 206 -200 0
-51 -206 200 0
-51 -206 201 0
-51 206 -200 -201 0
-52 -206 200 0
-52 -206 202 0
-52 206 -200 -202 0
-53 -206 200 0
-53 -206 203 0
-53 206 -200 -203 0
-54 -206 200 0
-54 -206 204 0
-54 206 -200 -204 0
-55 -206 200 0
-55 206 -200 0
-56 -206 200 0
-56 206 -200 0
-57 -206 200 0
-57 206 -200 0
-58 -206 200 0
-58 206 -200 0
-59 -206 200 0
-59 206 -200 0
-60 -206 200 0
-60 206 -200 0
-94 -206 200 0
-94 206 -200 0
-46 -207 201 0
-46 207 -201 0
-47 -201 207 0
-47 -199 207 0
-47 -207 201 199 0
-48 -207 201 0
-48 207 -201 0
-49 -207 201 0
-49 207 -201 0
-50 -207 201 0
-50 207 -201 0
-51 -201 207 0
-51 -200 207 0
-51 -207 201 200 0
-52 -207 201 0
-52 207 -201 0
-53 -207 201 0
-53 207 -201 0
-54 -207 201 0
-54 207 -201 0
-55 -207 201 0
-55 -207 202 0
-55 207 -201 -202 0
-56 -207 201 0
-56 -207 203 0
-56 207 -201 -203 0
-57 -207 201 0
-57 -207 204 0
-57 207 -201 -204 0
-58 -207 201 0
-58 207 -201 0
-59 -207 201 0
-59 207 -201 0
-60 -207 201 0
-60 207 -201 0
-94 -207 201 0
-94 207 -201 0
-46 -208 202 0
-46 208 -202 0
-47 -208 202 0
-47 208 -202 0
-48 -202 208 0
-48 -199 208 0
-48 -208 202 199 0
-49 -208 202 0
-49 208 -202 0
-50 -208 202 0
-50 208 -202 0
-51 -208 202 0
-51 208 -202 0
-52 -202 208 0
-52 -200 208 0
-52 -208 202 200 0
-53 -208 202 0
-53 208 -202 0
-54 -208 202 0
-54 208 -202 0
-55 -202 208 0
-55 -201 208 0
-55 -208 202 201 0
-56 -208 202 0
-56 208 -202 0
-57 -208 202 0
-57 208 -202 0
-58 -208 202 0
-58 -208 203 0
-58 208 -202 -203 0
-59 -208 202 0
-59 -208 204 0
-59 208 -202 -204 0
-60 -208 202 0
-60 208 -202 0
-94 -208 202 0
-94 208 -202 0
-46 -209 203 0
-46 209 -203 0
-47 -209 203 0
-47 209 -203 0
-48 -209 203 0
-48 209 -203 0
-49 -203 209 0
-49 -199 209 0
-49 -209 203 199 0
-50 -209 203 0
-50 209 -203 0
-51 -209 203 0
-51 209 -203 0
-52 -209 203 0
-52 209 -203 0
-53 -203 209 0
-53 -200 209 0
-53 -209 203 200 0
-54 -209 203 0
-54 209 -203 0
-55 -209 203 0
-55 209 -203 0
-56 -203 209 0
-56 -201 209 0
-56 -209 203 201 0
-57 -209 203 0
-57 209 -203 0
-58 -203 209 0
-58 -202 209 0
-58 -209 203 202 0
-59 -209 203 0
-59 209 -203 0
-60 -209 203 0
-60 -209 204 0
-60 209 -203 -204 0
-94 -209 203 0
-94 209 -203 0
-46 -210 204 0
-46 210 -204 0
-47 -210 204 0
-47 210 -204 0
-48 -210 204 0
-48 210 -204 0
-49 -210 204 0
-49 210 -204 0
-50 -204 210 0
-50 -199 210 0
-50 -210 204 199 0
-51 -210 204 0
-51 210 -204 0
-52 -210 204 0
-52 210 -204 0
-53 -210 204 0
-53 210 -204 0
-54 -204 210 0
-54 -200 210 0
-54 -210 204 200 0
-55 -210 204 0
-55 210 -204 0
-56 -210 204 0
-56 210 -204 0
-57 -204 210 0
-57 -201 210 0
-57 -210 204 201 0
-58 -210 204 0
-58 210 -204 0
-59 -204 210 0
-59 -202 210 0
-59 -210 204 202 0
-60 -204 210 0
-60 -203 210 0
-60 -210 204 203 0
-94 -210 204 0
-94 210 -204 0
-61 -211 205 0
-61 -211 206 0
-61 211 -205 -206 0
-62 -211 205 0
-62 -211 207 0
-62 211 -205 -207 0
-63 -211 205 0
-63 -211 208 0
-63 211 -205 -208 0
-64 -211 205 0
-64 -211 209 0
-64 211 -205 -209 0
-65 -211 205 0
-65 -211 210 0
-65 211 -205 -210 0
-66 -211 205 0
-66 211 -205 0
-67 -211 205 0
-67 211 -205 0
-68 -211 205 0
-68 211 -205 0
-69 -211 205 0
-69 211 -205 0
-70 -211 205 0
-70 211 -205 0
-71 -211 205 0
-71 211 -205 0
-72 -211 205 0
-72 211 -205 0
-73 -211 205 0
-73 211 -205 0
-74 -211 205 0
-74 211 -205 0
-75 -211 205 0
-75 211 -205 0
-95 -211 205 0
-95 211 -205 0
-61 -206 212 0
-61 -205 212 0
-61 -212 206 205 0
-62 -212 206 0
-62 212 -206 0
-63 -212 206 0
-63 212 -206 0
-64 -212 206 0
-64 212 -206 0
-65 -212 206 0
-65 212 -206 0
-66 -212 206 0
-66 -212 207 0
-66 212 -206 -207 0
-67 -212 206 0
-67 -212 208 0
-67 212 -206 -208 0
-68 -212 206 0
-68 -212 209 0
-68 212 -206 -209 0
-69 -212 206 0
-69 -212 210 0
-69 212 -206 -210 0
-70 -212 206 0
-70 212 -206 0
-71 -212 206 0
-71 212 -206 0
-72 -212 206 0
-72 212 -206 0
-73 -212 206 0
-73 212 -206 0
-74 -212 206 0
-74 212 -206 0
-75 -212 206 0
-75 212 -206 0
-95 -212 206 0
-95 212 -206 0
-61 -213 207 0
-61 213 -207 0
-62 -207 213 0
-62 -205 213 0
-62 -213 207 205 0
-63 -213 207 0
-63 213 -207 0
-64 -213 207 0
-64 213 -207 0
-65 -213 207 0
-65 213 -207 0
-66 -207 213 0
-66 -206 213 0
-66 -213 207 206 0
-67 -213 207 0
-67 213 -207 0
-68 -213 207 0
-68 213 -207 0
-69 -213 207 0
-69 213 -207 0
-70 -213 207 0
-70 -213 208 0
-70 213 -207 -208 0
-71 -213 207 0
-71 -213 209 0
-71 213 -207 -209 0
-72 -213 207 0
-72 -213 210 0
-72 213 -207 -210 0
-73 -213 207 0
-73 213 -207 0
-74 -213 207 0
-74 213 -207 0
-75 -213 207 0
-75 213 -207 0
-95 -213 207 0
-95 213 -207 0
-61 -214 208 0
-61 214 -208 0
-62 -214 208 0
-62 214 -208 0
-63 -208 214 0
-63 -205 214 0
-63 -214 208 205 0
-64 -214 208 0
-64 214 -208 0
-65 -214 208 0
-65 214 -208 0
-66 -214 208 0
-66 214 -208 0
-67 -208 214 0
-67 -206 214 0
-67 -214 208 206 0
-68 -214 208 0
-68 214 -208 0
-69 -214 208 0
-69 214 -208 0
-70 -208 214 0
-70 -207 214 0
-70 -214 208 207 0
-71 -214 208 0
-71 214 -208 0
-72 -214 208 0
-72 214 -208 0
-73 -214 208 0
-73 -214 209 0
-73 214 -208 -209 0
-74 -214 208 0
-74 -214 210 0
-74 214 -208 -210 0
-75 -214 208 0
-75 214 -208 0
-95 -214 208 0
-95 214 -208 0
-61 -215 209 0
-61 215 -209 0
-62 -215 209 0
-62 215 -209 0
-63 -215 209 0
-63 215 -209 0
-64 -209 215 0
-64 -205 215 0
-64 -215 209 205 0
-65 -215 209 0
-65 215 -209 0
-66 -215 209 0
-66 215 -209 0
-67 -215 209 0
-67 215 -209 0
-68 -209 215 0
-68 -206 215 0
-68 -215 209 206 0
-69 -215 209 0
-69 215 -209 0
-70 -215 209 0
-70 215 -209 0
-71 -209 215 0
-71 -207 215 0
-71 -215 209 207 0
-72 -215 209 0
-72 215 -209 0
-73 -209 215 0
-73 -208 215 0
-73 -215 209 208 0
-74 -215 209 0
-74 215 -209 0
-75 -215 209 0
-75 -215 210 0
-75 215 -209 -210 0
-95 -215 209 0
-95 215 -209 0
-61 -216 210 0
-61 216 -210 0
-62 -216 210 0
-62 216 -210 0
-63 -216 210 0
-63 216 -210 0
-64 -216 210 0
-64 216 -210 0
-65 -210 216 0
-65 -205 216 0
-65 -216 210 205 0
-66 -216 210 0
-66 216 -210 0
-67 -216 210 0
-67 216 -210 0
-68 -216 210 0
-68 216 -210 0
-69 -210 216 0
-69 -206 216 0
-69 -216 210 206 0
-70 -216 210 0
-70 216 -210 0
-71 -216 210 0
-71 216 -210 0
-72 -210 216 0
-72 -207 216 0
-72 -216 210 207 0
-73 -216 210 0
-73 216 -210 0
-74 -210 216 0
-74 -208 216 0
-74 -216 210 208 0
-75 -210 216 0
-75 -209 216 0
-75 -216 210 209 0
-95 -216 210 0
-95 216 -210 0
-76 -217 211 0
-76 -217 212 0
-76 217 -211 -212 0
-77 -217 211 0
-77 -217 213 0
-77 217 -211 -213 0
-78 -217 211 0
-78 -217 214 0
-78 217 -211 -214 0
-79 -217 211 0
-79 -217 215 0
-79 217 -211 -215 0
-80 -217 211 0
-80 -217 216 0
-80 217 -211 -216 0
-81 -217 211 0
-81 217 -211 0
-82 -217 211 0
-82 217 -211 0
-83 -217 211 0
-83 217 -211 0
-84 -217 211 0
-84 217 -211 0
-85 -217 211 0
-85 217 -211 0
-86 -217 211 0
-86 217 -211 0
-87 -217 211 0
-87 217 -211 0
-88 -217 211 0
-88 217 -211 0
-89 -217 211 0
-89 217 -211 0
-90 -217 211 0
-90 217 -211 0
-96 -217 211 0
-96 217 -211 0
-76 -212 218 0
-76 -211 218 0
-76 -218 212 211 0
-77 -218 212 0
-77 218 -212 0
-78 -218 212 0
-78 218 -212 0
-79 -218 212 0
-79 218 -212 0
-80 -218 212 0
-80 218 -212 0
-81 -218 212 0
-81 -218 213 0
-81 218 -212 -213 0
-82 -218 212 0
-82 -218 214 0
-82 218 -212 -214 0
-83 -218 212 0
-83 -218 215 0
-83 218 -212 -215 0
-84 -218 212 0
-84 -218 216 0
-84 218 -212 -216 0
-85 -218 212 0
-85 218 -212 0
-86 -218 212 0
-86 218 -212 0
-87 -218 212 0
-87 218 -212 0
-88 -218 212 0
-88 218 -212 0
-89 -218 212 0
-89 218 -212 0
-90 -218 212 0
-90 218 -212 0
-96 -218 212 0
-96 218 -212 0
-76 -219 213 0
-76 219 -213 0
-77 -213 219 0
-77 -211 219 0
-77 -219 213 211 0
-78 -219 213 0
-78 219 -213 0
-79 -219 213 0
-79 219 -213 0
-80 -219 213 0
-80 219 -213 0
-81 -213 219 0
-81 -212 219 0
-81 -219 213 212 0
-82 -219 213 0
-82 219 -213 0
-83 -219 213 0
-83 219 -213 0
-84 -219 213 0
-84 219 -213 0
-85 -219 213 0
-85 -219 214 0
-85 219 -213 -214 0
-86 -219 213 0
-86 -219 215 0
-86 219 -213 -215 0
-87 -219 213 0
-87 -219 216 0
-87 219 -213 -216 0
-88 -219 213 0
-88 219 -213 0
-89 -219 213 0
-89 219 -213 0
-90 -219 213 0
-90 219 -213 0
-96 -219 213 0
-96 219 -213 0
-76 -220 214 0
-76 220 -214 0
-77 -220 214 0
-77 220 -214 0
-78 -214 220 0
-78 -211 220 0
-78 -220 214 211 0
-79 -220 214 0
-79 220 -214 0
-80 -220 214 0
-80 220 -214 0
-81 -220 214 0
-81 220 -214 0
-82 -214 220 0
-82 -212 220 0
-82 -220 214 212 0
-83 -220 214 0
-83 220 -214 0
-84 -220 214 0
-84 220 -214 0
-85 -214 220 0
-85 -213 220 0
-85 -220 214 213 0
-86 -220 214 0
-86 220 -214 0
-87 -220 214 0
-87 220 -214 0
-88 -220 214 0
-88 -220 215 0
-88 220 -214 -215 0
-89 -220 214 0
-89 -220 216 0
-89 220 -214 -216 0
-90 -220 214 0
-90 220 -214 0
-96 -220 214 0
-96 220 -214 0
-76 -221 215 0
-76 221 -215 0
-77 -221 215 0
-77 221 -215 0
-78 -221 215 0
-78 221 -215 0
-79 -215 221 0
-79 -211 221 0
-79 -221 215 211 0
-80 -221 215 0
-80 221 -215 0
-81 -221 215 0
-81 221 -215 0
-82 -221 215 0
-82 221 -215 0
-83 -215 221 0
-83 -212 221 0
-83 -221 215 212 0
-84 -221 215 0
-84 221 -215 0
-85 -221 215 0
-85 221 -215 0
-86 -215 221 0
-86 -213 221 0
-86 -221 215 213 0
-87 -221 215 0
-87 221 -215 0
-88 -215 221 0
-88 -214 221 0
-88 -221 215 214 0
-89 -221 215 0
-89 221 -215 0
-90 -221 215 0
-90 -221 216 0
-90 221 -215 -216 0
-96 -221 215 0
-96 221 -215 0
-76 -222 216 0
-76 222 -216 0
-77 -222 216 0
-77 222 -216 0
-78 -222 216 0
-78 222 -216 0
-79 -222 216 0
-79 222 -216 0
-80 -216 222 0
-80 -211 222 0
-80 -222 216 211 0
-81 -222 216 0
-81 222 -216 0
-82 -222 216 0
-82 222 -216 0
-83 -222 216 0
-83 222 -216 0
-84 -216 222 0
-84 -212 222 0
-84 -222 216 212 0
-85 -222 216 0
-85 222 -216 0
-86 -222 216 0
-86 222 -216 0
-87 -216 222 0
-87 -213 222 0
-87 -222 216 213 0
-88 -222 216 0
-88 222 -216 0
-89 -216 222 0
-89 -214 222 0
-89 -222 216 214 0
-90 -216 222 0
-90 -215 222 0
-90 -222 216 215 0
-96 -222 216 0
-96 222 -216 0
-223 0
-1 -229 223 0
-1 -229 224 0
-1 229 -223 -224 0
-2 -229 223 0
-2 -229 225 0
-2 229 -223 -225 0
-3 -229 223 0
-3 -229 226 0
-3 229 -223 -226 0
-4 -229 223 0
-4 -229 227 0
-4 229 -223 -227 0
-5 -229 223 0
-5 -229 228 0
-5 229 -223 -228 0
-6 -229 223 0
-6 229 -223 0
-7 -229 223 0
-7 229 -223 0
-8 -229 223 0
-8 229 -223 0
-9 -229 223 0
-9 229 -223 0
-10 -229 223 0
-10 229 -223 0
-11 -229 223 0
-11 229 -223 0
-12 -229 223 0
-12 229 -223 0
-13 -229 223 0
-13 229 -223 0
-14 -229 223 0
-14 229 -223 0
-15 -229 223 0
-15 229 -223 0
-91 -229 223 0
-91 229 -223 0
-224 0
-1 -224 230 0
-1 -223 230 0
-1 -230 224 223 0
-2 -230 224 0
-2 230 -224 0
-3 -230 224 0
-3 230 -224 0
-4 -230 224 0
-4 230 -224 0
-5 -230 224 0
-5 230 -224 0
-6 -230 224 0
-6 -230 225 0
-6 230 -224 -225 0
-7 -230 224 0
-7 -230 226 0
-7 230 -224 -226 0
-8 -230 224 0
-8 -230 227 0
-8 230 -224 -227 0
-9 -230 224 0
-9 -230 228 0
-9 230 -224 -228 0
-10 -230 224 0
-10 230 -224 0
-11 -230 224 0
-11 230 -224 0
-12 -230 224 0
-12 230 -224 0
-13 -230 224 0
-13 230 -224 0
-14 -230 224 0
-14 230 -224 0
-15 -230 224 0
-15 230 -224 0
-91 -230 224 0
-91 230 -224 0
-225 0
-1 -231 225 0
-1 231 -225 0
-2 -225 231 0
-2 -223 231 0
-2 -231 225 223 0
-3 -231 225 0
-3 231 -225 0
-4 -231 225 0
-4 231 -225 0
-5 -231 225 0
-5 231 -225 0
-6 -225 231 0
-6 -224 231 0
-6 -231 225 224 0
-7 -231 225 0
-7 231 -225 0
-8 -231 225 0
-8 231 -225 0
-9 -231 225 0
-9 231 -225 0
-10 -231 225 0
-10 -231 226 0
-10 231 -225 -226 0
-11 -231 225 0
-11 -231 227 0
-11 231 -225 -227 0
-12 -231 225 0
-12 -231 228 0
-12 231 -225 -228 0
-13 -231 225 0
-13 231 -225 0
-14 -231 225 0
-14 231 -225 0
-15 -231 225 0
-15 231 -225 0
-91 -231 225 0
-91 231 -225 0
226 0
-1 -232 226 0
-1 232 -226 0
-2 -232 226 0
-2 232 -226 0
-3 -226 232 0
-3 -223 232 0
-3 -232 226 223 0
-4 -232 226 0
-4 232 -226 0
-5 -232 226 0
-5 232 -226 0
-6 -232 226 0
-6 232 -226 0
-7 -226 232 0
-7 -224 232 0
-7 -232 226 224 0
-8 -232 226 0
-8 232 -226 0
-9 -232 226 0
-9 232 -226 0
-10 -226 232 0
-10 -225 232 0
-10 -232 226 225 0
-11 -232 226 0
-11 232 -226 0
-12 -232 226 0
-12 232 -226 0
-13 -232 226 0
-13 -232 227 0
-13 232 -226 -227 0
-14 -232 226 0
-14 -232 228 0
-14 232 -226 -228 0
-15 -232 226 0
-15 232 -226 0
-91 -232 226 0
-91 232 -226 0
227 0
-1 -233 227 0
-1 233 -227 0
-2 -233 227 0
-2 233 -227 0
-3 -233 227 0
-3 233 -227 0
-4 -227 233 0
-4 -223 233 0
-4 -233 227 223 0
-5 -233 227 0
-5 233 -227 0
-6 -233 227 0
-6 233 -227 0
-7 -233 227 0
-7 233 -227 0
-8 -227 233 0
-8 -224 233 0
-8 -233 227 224 0
-9 -233 227 0
-9 233 -227 0
-10 -233 227 0
-10 233 -227 0
-11 -227 233 0
-11 -225 233 0
-11 -233 227 225 0
-12 -233 227 0
-12 233 -227 0
-13 -227 233 0
-13 -226 233 0
-13 -233 227 226 0
-14 -233 227 0
-14 233 -227 0
-15 -233 227 0
-15 -233 228 0
-15 233 -227 -228 0
-91 -233 227 0
-91 233 -227 0
228 0
-1 -234 228 0
-1 234 -228 0
-2 -234 228 0
-2 234 -228 0
-3 -234 228 0
-3 234 -228 0
-4 -234 228 0
-4 234 -228 0
-5 -228 234 0
-5 -223 234 0
-5 -234 228 223 0
-6 -234 228 0
-6 234 -228 0
-7 -234 228 0
-7 234 -228 0
-8 -234 228 0
-8 234 -228 0
-9 -228 234 0
-9 -224 234 0
-9 -234 228 224 0
-10 -234 228 0
-10 234 -228 0
-11 -234 228 0
-11 234 -228 0
-12 -228 234 0
-12 -225 234 0
-12 -234 228 225 0
-13 -234 228 0
-13 234 -228 0
-14 -228 234 0
-14 -226 234 0
-14 -234 228 226 0
-15 -228 234 0
-15 -227 234 0
-15 -234 228 227 0
-91 -234 228 0
-91 234 -228 0
-16 -235 229 0
-16 -235 230 0
-16 235 -229 -230 0
-17 -235 229 0
-17 -235 231 0
-17 235 -229 -231 0
-18 -235 229 0
-18 -235 232 0
-18 235 -229 -232 0
-19 -235 229 0
-19 -235 233 0
-19 235 -229 -233 0
-20 -235 229 0
-20 -235 234 0
-20 235 -229 -234 0
-21 -235 229 0
-21 235 -229 0
-22 -235 229 0
-22 235 -229 0
-23 -235 229 0
-23 235 -229 0
-24 -235 229 0
-24 235 -229 0
-25 -235 229 0
-25 235 -229 0
-26 -235 229 0
-26 235 -229 0
-27 -235 229 0
-27 235 -229 0
-28 -235 229 0
-28 235 -229 0
-29 -235 229 0
-29 235 -229 0
-30 -235 229 0
-30 235 -229 0
-92 -235 229 0
-92 235 -229 0
-16 -230 236 0
-16 -229 236 0
-16 -236 230 229 0
-17 -236 230 0
-17 236 -230 0
-18 -236 230 0
-18 236 -230 0
-19 -236 230 0
-19 236 -230 0
-20 -236 230 0
-20 236 -230 0
-21 -236 230 0
-21 -236 231 0
-21 236 -230 -231 0
-22 -236 230 0
-22 -236 232 0
-22 236 -230 -232 0
-23 -236 230 0
-23 -236 233 0
-23 236 -230 -233 0
-24 -236 230 0
-24 -236 234 0
-24 236 -230 -234 0
-25 -236 230 0
-25 236 -230 0
-26 -236 230 0
-26 236 -230 0
-27 -236 230 0
-27 236 -230 0
-28 -236 230 0
-28 236 -230 0
-29 -236 230 0
-29 236 -230 0
-30 -236 230 0
-30 236 -230 0
-92 -236 230 0
-92 236 -230 0
-16 -237 231 0
-16 237 -231 0
-17 -231 237 0
-17 -229 237 0
-17 -237 231 229 0
-18 -237 231 0
-18 237 -231 0
-19 -237 231 0
-19 237 -231 0
-20 -237 231 0
-20 237 -231 0
-21 -231 237 0
-21 -230 237 0
-21 -237 231 230 0
-22 -237 231 0
-22 237 -231 0
-23 -237 231 0
-23 237 -231 0
-24 -237 231 0
-24 237 -231 0
-25 -237 231 0
-25 -237 232 0
-25 237 -231 -232 0
-26 -237 231 0
-26 -237 233 0
-26 237 -231 -233 0
-27 -237 231 0
-27 -237 234 0
-27 237 -231 -234 0
-28 -237 231 0
-28 237 -231 0
-29 -237 231 0
-29 237 -231 0
-30 -237 231 0
-30 237 -231 0
-92 -237 231 0
-92 237 -231 0
-16 -238 232 0
-16 238 -232 0
-17 -238 232 0
-17 238 -232 0
-18 -232 238 0
-18 -229 238 0
-18 -238 232 229 0
-19 -238 232 0
-19 238 -232 0
-20 -238 232 0
-20 238 -232 0
-21 -238 232 0
-21 238 -232 0
-22 -232 238 0
-22 -230 238 0
-22 -238 232 230 0
-23 -238 232 0
-23 238 -232 0
-24 -238 232 0
-24 238 -232 0
-25 -232 238 0
-25 -231 238 0
-25 -238 232 231 0
-26 -238 232 0
-26 238 -232 0
-27 -238 232 0
-27 238 -232 0
-28 -238 232 0
-28 -238 233 0
-28 238 -232 -233 0
-29 -238 232 0
-29 -238 234 0
-29 238 -232 -234 0
-30 -238 232 0
-30 238 -232 0
-92 -238 232 0
-92 238 -232 0
-16 -239 233 0
-16 239 -233 0
-17 -239 233 0
-17 239 -233 0
-18 -239 233 0
-18 239 -233 0
-19 -233 239 0
-19 -229 239 0
-19 -239 233 229 0
-20 -239 233 0
-20 239 -233 0
-21 -239 233 0
-21 239 -233 0
-22 -239 233 0
-22 239 -233 0
-23 -233 239 0
-23 -230 239 0
-23 -239 233 230 0
-24 -239 233 0
-24 239 -233 0
-25 -239 233 0
-25 239 -233 0
-26 -233 239 0
-26 -231 239 0
-26 -239 233 231 0
-27 -239 233 0
-27 239 -233 0
-28 -233 239 0
-28 -232 239 0
-28 -239 233 232 0
-29 -239 233 0
-29 239 -233 0
-30 -239 233 0
-30 -239 234 0
-30 239 -233 -234 0
-92 -239 233 0
-92 239 -233 0
-16 -240 234 0
-16 240 -234 0
-17 -240 234 0
-17 240 -234 0
-18 -240 234 0
-18 240 -234 0
-19 -240 234 0
-19 240 -234 0
-20 -234 240 0
-20 -229 240 0
-20 -240 234 229 0
-21 -240 234 0
-21 240 -234 0
-22 -240 234 0
-22 240 -234 0
-23 -240 234 0
-23 240 -234 0
-24 -234 240 0
-24 -230 240 0
-24 -240 234 230 0
-25 -240 234 0
-25 240 -234 0
-26 -240 234 0
-26 240 -234 0
-27 -234 240 0
-27 -231 240 0
-27 -240 234 231 0
-28 -240 234 0
-28 240 -234 0
-29 -234 240 0
-29 -232 240 0
-29 -240 234 232 0
-30 -234 240 0
-30 -233 240 0
-30 -240 234 233 0
-92 -240 234 0
-92 240 -234 0
-31 -241 235 0
-31 -241 236 0
-31 241 -235 -236 0
-32 -241 235 0
-32 -241 237 0
-32 241 -235 -237 0
-33 -241 235 0
-33 -241 238 0
-33 241 -235 -238 0
-34 -241 235 0
-34 -241 239 0
-34 241 -235 -239 0
-35 -241 235 0
-35 -241 240 0
-35 241 -235 -240 0
-36 -241 235 0
-36 241 -235 0
-37 -241 235 0
-37 241 -235 0
-38 -241 235 0
-38 241 -235 0
-39 -241 235 0
-39 241 -235 0
-40 -241 235 0
-40 241 -235 0
-41 -241 235 0
-41 241 -235 0
-42 -241 235 0
-42 241 -235 0
-43 -241 235 0
-43 241 -235 0
-44 -241 235 0
-44 241 -235 0
-45 -241 235 0
-45 241 -235 0
-93 -241 235 0
-93 241 -235 0
-31 -236 242 0
-31 -235 242 0
-31 -242 236 235 0
-32 -242 236 0
-32 242 -236 0
-33 -242 236 0
-33 242 -236 0
-34 -242 236 0
-34 242 -236 0
-35 -242 236 0
-35 242 -236 0
-36 -242 236 0
-36 -242 237 0
-36 242 -236 -237 0
-37 -242 236 0
-37 -242 238 0
-37 242 -236 -238 0
-38 -242 236 0
-38 -242 239 0
-38 242 -236 -239 0
-39 -242 236 0
-39 -242 240 0
-39 242 -236 -240 0
-40 -242 236 0
-40 242 -236 0
-41 -242 236 0
-41 242 -236 0
-42 -242 236 0
-42 242 -236 0
-43 -242 236 0
-43 242 -236 0
-44 -242 236 0
-44 242 -236 0
-45 -242 236 0
-45 242 -236 0
-93 -242 236 0
-93 242 -236 0
-31 -243 237 0
-31 243 -237 0
-32 -237 243 0
-32 -235 243 0
-32 -243 237 235 0
-33 -243 237 0
-33 243 -237 0
-34 -243 237 0
-34 243 -237 0
-35 -243 237 0
-35 243 -237 0
-36 -237 243 0
-36 -236 243 0
-36 -243 237 236 0
-37 -243 237 0
-37 243 -237 0
-38 -243 237 0
-38 243 -237 0
-39 -243 237 0
-39 243 -237 0
-40 -243 237 0
-40 -243 238 0
-40 243 -237 -238 0
-41 -243 237 0
-41 -243 239 0
-41 243 -237 -239 0
-42 -243 237 0
-42 -243 240 0
-42 243 -237 -240 0
-43 -243 237 0
-43 243 -237 0
-44 -243 237 0
-44 243 -237 0
-45 -243 237 0
-45 243 -237 0
-93 -243 237 0
-93 243 -237 0
-31 -244 238 0
-31 244 -238 0
-32 -244 238 0
-32 244 -238 0
-33 -238 244 0
-33 -235 244 0
-33 -244 238 235 0
-34 -244 238 0
-34 244 -238 0
-35 -244 238 0
-35 244 -238 0
-36 -244 238 0
-36 244 -238 0
-37 -238 244 0
-37 -236 244 0
-37 -244 238 236 0
-38 -244 238 0
-38 244 -238 0
-39 -244 238 0
-39 244 -238 0
-40 -238 244 0
-40 -237 244 0
-40 -244 238 237 0
-41 -244 238 0
-41 244 -238 0
-42 -244 238 0
-42 244 -238 0
-43 -244 238 0
-43 -244 239 0
-43 244 -238 -239 0
-44 -244 238 0
-44 -244 240 0
-44 244 -238 -240 0
-45 -244 238 0
-45 244 -238 0
-93 -244 238 0
-93 244 -238 0
-31 -245 239 0
-31 245 -239 0
-32 -245 239 0
-32 245 -239 0
-33 -245 239 0
-33 245 -239 0
-34 -239 245 0
-34 -235 245 0
-34 -245 239 235 0
-35 -245 239 0
-35 245 -239 0
-36 -245 239 0
-36 245 -239 0
-37 -245 239 0
-37 245 -239 0
-38 -239 245 0
-38 -236 245 0
-38 -245 239 236 0
-39 -245 239 0
-39 245 -239 0
-40 -245 239 0
-40 245 -239 0
-41 -239 245 0
-41 -237 245 0
-41 -245 239 237 0
-42 -245 239 0
-42 245 -239 0
-43 -239 245 0
-43 -238 245 0
-43 -245 239 238 0
-44 -245 239 0
-44 245 -239 0
-45 -245 239 0
-45 -245 240 0
-45 245 -239 -240 0
-93 -245 239 0
-93 245 -239 0
-31 -246 240 0
-31 246 -240 0
-32 -246 240 0
-32 246 -240 0
-33 -246 240 0
-33 246 -240 0
-34 -246 240 0
-34 246 -240 0
-35 -240 246 0
-35 -235 246 0
-35 -246 240 235 0
-36 -246 240 0
-36 246 -240 0
-37 -246 240 0
-37 246 -240 0
-38 -246 240 0
-38 246 -240 0
-39 -240 246 0
-39 -236 246 0
-39 -246 240 236 0
-40 -246 240 0
-40 246 -240 0
-41 -246 240 0
-41 246 -240 0
-42 -240 246 0
-42 -237 246 0
-42 -246 240 237 0
-43 -246 240 0
-43 246 -240 0
-44 -240 246 0
-44 -238 246 0
-44 -246 240 238 0
-45 -240 246 0
-45 -239 246 0
-45 -246 240 239 0
-93 -246 240 0
-93 246 -240 0
-46 -247 241 0
-46 -247 242 0
-46 247 -241 -242 0
-47 -247 241 0
-47 -247 243 0
-47 247 -241 -243 0
-48 -247 241 0
-48 -247 244 0
-48 247 -241 -244 0
-49 -247 241 0
-49 -247 245 0
-49 247 -241 -245 0
-50 -247 241 0
-50 -247 246 0
-50 247 -241 -246 0
-51 -247 241 0
-51 247 -241 0
-52 -247 241 0
-52 247 -241 0
-53 -247 241 0
-53 247 -241 0
-54 -247 241 0
-54 247 -241 0
-55 -247 241 0
-55 247 -241 0
-56 -247 241 0
-56 247 -241 0
-57 -247 241 0
-57 247 -241 0
-58 -247 241 0
-58 247 -241 0
-59 -247 241 0
-59 247 -241 0
-60 -247 241 0
-60 247 -241 0
-94 -247 241 0
-94 247 -241 0
-46 -242 248 0
-46 -241 248 0
-46 -248 242 241 0
-47 -248 242 0
-47 248 -242 0
-48 -248 242 0
-48 248 -242 0
-49 -248 242 0
-49 248 -242 0
-50 -248 242 0
-50 248 -242 0
-51 -248 242 0
-51 -248 243 0
-51 248 -242 -243 0
-52 -248 242 0
-52 -248 244 0
-52 248 -242 -244 0
-53 -248 242 0
-53 -248 245 0
-53 248 -242 -245 0
-54 -248 242 0
-54 -248 246 0
-54 248 -242 -246 0
-55 -248 242 0
-55 248 -242 0
-56 -248 242 0
-56 248 -242 0
-57 -248 242 0
-57 248 -242 0
-58 -248 242 0
-58 248 -242 0
-59 -248 242 0
-59 248 -242 0
-60 -248 242 0
-60 248 -242 0
-94 -248 242 0
-94 248 -242 0
-46 -249 243 0
-46 249 -243 0
-47 -243 249 0
-47 -241 249 0
-47 -249 243 241 0
-48 -249 243 0
-48 249 -243 0
-49 -249 243 0
-49 249 -243 0
-50 -249 243 0
-50 249 -243 0
-51 -243 249 0
-51 -242 249 0
-51 -249 243 242 0
-52 -249 243 0
-52 249 -243 0
-53 -249 243 0
-53 249 -243 0
-54 -249 243 0
-54 249 -243 0
-55 -249 243 0
-55 -249 244 0
-55 249 -243 -244 0
-56 -249 243 0
-56 -249 245 0
-56 249 -243 -245 0
-57 -249 243 0
-57 -249 246 0
-57 249 -243 -246 0
-58 -249 243 0
-58 249 -243 0
-59 -249 243 0
-59 249 -243 0
-60 -249 243 0
-60 249 -243 0
-94 -249 243 0
-94 249 -243 0
-46 -250 244 0
-46 250 -244 0
-47 -250 244 0
-47 250 -244 0
-48 -244 250 0
-48 -241 250 0
-48 -250 244 241 0
-49 -250 244 0
-49 250 -244 0
-50 -250 244 0
-50 250 -244 0
-51 -250 244 0
-51 250 -244 0
-52 -244 250 0
-52 -242 250 0
-52 -250 244 242 0
-53 -250 244 0
-53 250 -244 0
-54 -250 244 0
-54 250 -244 0
-55 -244 250 0
-55 -243 250 0
-55 -250 244 243 0
-56 -250 244 0
-56 250 -244 0
-57 -250 244 0
-57 250 -244 0
-58 -250 244 0
-58 -250 245 0
-58 250 -244 -245 0
-59 -250 244 0
-59 -250 246 0
-59 250 -244 -246 0
-60 -250 244 0
-60 250 -244 0
-94 -250 244 0
-94 250 -244 0
-46 -251 245 0
-46 251 -245 0
-47 -251 245 0
-47 251 -245 0
-48 -251 245 0
-48 251 -245 0
-49 -245 251 0
-49 -241 251 0
-49 -251 245 241 0
-50 -251 245 0
-50 251 -245 0
-51 -251 245 0
-51 251 -245 0
-52 -251 245 0
-52 251 -245 0
-53 -245 251 0
-53 -242 251 0
-53 -251 245 242 0
-54 -251 245 0
-54 251 -245 0
-55 -251 245 0
-55 251 -245 0
-56 -245 251 0
-56 -243 251 0
-56 -251 245 243 0
-57 -251 245 0
-57 251 -245 0
-58 -245 251 0
-58 -244 251 0
-58 -251 245 244 0
-59 -251 245 0
-59 251 -245 0
-60 -251 245 0
-60 -251 246 0
-60 251 -245 -246 0
-94 -251 245 0
-94 251 -245 0
-46 -252 246 0
-46 252 -246 0
-47 -252 246 0
-47 252 -246 0
-48 -252 246 0
-48 252 -246 0
-49 -252 246 0
-49 252 -246 0
-50 -246 252 0
-50 -241 252 0
-50 -252 246 241 0
-51 -252 246 0
-51 252 -246 0
-52 -252 246 0
-52 252 -246 0
-53 -252 246 0
-53 252 -246 0
-54 -246 252 0
-54 -242 252 0
-54 -252 246 242 0
-55 -252 246 0
-55 252 -246 0
-56 -252 246 0
-56 252 -246 0
-57 -246 252 0
-57 -243 252 0
-57 -252 246 243 0
-58 -252 246 0
-58 252 -246 0
-59 -246 252 0
-59 -244 252 0
-59 -252 246 244 0
-60 -246 252 0
-60 -245 252 0
-60 -252 246 245 0
-94 -252 246 0
-94 252 -246 0
-61 -253 247 0
-61 -253 248 0
-61 253 -247 -248 0
-62 -253 247 0
-62 -253 249 0
-62 253 -247 -249 0
-63 -253 247 0
-63 -253 250 0
-63 253 -247 -250 0
-64 -253 247 0
-64 -253 251 0
-64 253 -247 -251 0
-65 -253 247 0
-65 -253 252 0
-65 253 -247 -252 0
-66 -253 247 0
-66 253 -247 0
-67 -253 247 0
-67 253 -247 0
-68 -253 247 0
-68 253 -247 0
-69 -253 247 0
-69 253 -247 0
-70 -253 247 0
-70 253 -247 0
-71 -253 247 0
-71 253 -247 0
-72 -253 247 0
-72 253 -247 0
-73 -253 247 0
-73 253 -247 0
-74 -253 247 0
-74 253 -247 0
-75 -253 247 0
-75 253 -247 0
-95 -253 247 0
-95 253 -247 0
-61 -248 254 0
-61 -247 254 0
-61 -254 248 247 0
-62 -254 248 0
-62 254 -248 0
-63 -254 248 0
-63 254 -248 0
-64 -254 248 0
-64 254 -248 0
-65 -254 248 0
-65 254 -248 0
-66 -254 248 0
-66 -254 249 0
-66 254 -248 -249 0
-67 -254 248 0
-67 -254 250 0
-67 254 -248 -250 0
-68 -254 248 0
-68 -254 251 0
-68 254 -248 -251 0
-69 -254 248 0
-69 -254 252 0
-69 254 -248 -252 0
-70 -254 248 0
-70 254 -248 0
-71 -254 248 0
-71 254 -248 0
-72 -254 248 0
-72 254 -248 0
-73 -254 248 0
-73 254 -248 0
-74 -254 248 0
-74 254 -248 0
-75 -254 248 0
-75 254 -248 0
-95 -254 248 0
-95 254 -248 0
-61 -255 249 0
-61 255 -249 0
-62 -249 255 0
-62 -247 255 0
-62 -255 249 247 0
-63 -255 249 0
-63 255 -249 0
-64 -255 249 0
-64 255 -249 0
-65 -255 249 0
-65 255 -249 0
-66 -249 255 0
-66 -248 255 0
-66 -255 249 248 0
-67 -255 249 0
-67 255 -249 0
-68 -255 249 0
-68 255 -249 0
-69 -255 249 0
-69 255 -249 0
-70 -255 249 0
-70 -255 250 0
-70 255 -249 -250 0
-71 -255 249 0
-71 -255 251 0
-71 255 -249 -251 0
-72 -255 249 0
-72 -255 252 0
-72 255 -249 -252 0
-73 -255 249 0
-73 255 -249 0
-74 -255 249 0
-74 255 -249 0
-75 -255 249 0
-75 255 -249 0
-95 -255 249 0
-95 255 -249 0
-61 -256 250 0
-61 256 -250 0
-62 -256 250 0
-62 256 -250 0
-63 -250 256 0
-63 -247 256 0
-63 -256 250 247 0
-64 -256 250 0
-64 256 -250 0
-65 -256 250 0
-65 256 -250 0
-66 -256 250 0
-66 256 -250 0
-67 -250 256 0
-67 -248 256 0
-67 -256 250 248 0
-68 -256 250 0
-68 256 -250 0
-69 -256 250 0
-69 256 -250 0
-70 -250 256 0
-70 -249 256 0
-70 -256 250 249 0
-71 -256 250 0
-71 256 -250 0
-72 -256 250 0
-72 256 -250 0
-73 -256 250 0
-73 -256 251 0
-73 256 -250 -251 0
-74 -256 250 0
-74 -256 252 0
-74 256 -250 -252 0
-75 -256 250 0
-75 256 -250 0
-95 -256 250 0
-95 256 -250 0
-61 -257 251 0
-61 257 -251 0
-62 -257 251 0
-62 257 -251 0
-63 -257 251 0
-63 257 -251 0
-64 -251 257 0
-64 -247 257 0
-64 -257 251 247 0
-65 -257 251 0
-65 257 -251 0
-66 -257 251 0
-66 257 -251 0
-67 -257 251 0
-67 257 -251 0
-68 -251 257 0
-68 -248 257 0
-68 -257 251 248 0
-69 -257 251 0
-69 257 -251 0
-70 -257 251 0
-70 257 -251 0
-71 -251 257 0
-71 -249 257 0
-71 -257 251 249 0
-72 -257 251 0
-72 257 -251 0
-73 -251 257 0
-73 -250 257 0
-73 -257 251 250 0
-74 -257 251 0
-74 257 -251 0
-75 -257 251 0
-75 -257 252 0
-75 257 -251 -252 0
-95 -257 251 0
-95 257 -251 0
-61 -258 252 0
-61 258 -252 0
-62 -258 252 0
-62 258 -252 0
-63 -258 252 0
-63 258 -252 0
-64 -258 252 0
-64 258 -252 0
-65 -252 258 0
-65 -247 258 0
-65 -258 252 247 0
-66 -258 252 0
-66 258 -252 0
-67 -258 252 0
-67 258 -252 0
-68 -258 252 0
-68 258 -252 0
-69 -252 258 0
-69 -248 258 0
-69 -258 252 248 0
-70 -258 252 0
-70 258 -252 0
-71 -258 252 0
-71 258 -252 0
-72 -252 258 0
-72 -249 258 0
-72 -258 252 249 0
-73 -258 252 0
-73 258 -252 0
-74 -252 258 0
-74 -250 258 0
-74 -258 252 250 0
-75 -252 258 0
-75 -251 258 0
-75 -258 252 251 0
-95 -258 252 0
-95 258 -252 0
-76 -259 253 0
-76 -259 254 0
-76 259 -253 -254 0
-77 -259 253 0
-77 -259 255 0
-77 259 -253 -255 0
-78 -259 253 0
-78 -259 256 0
-78 259 -253 -256 0
-79 -259 253 0
-79 -259 257 0
-79 259 -253 -257 0
-80 -259 253 0
-80 -259 258 0
-80 259 -253 -258 0
-81 -259 253 0
-81 259 -253 0
-82 -259 253 0
-82 259 -253 0
-83 -259 253 0
-83 259 -253 0
-84 -259 253 0
-84 259 -253 0
-85 -259 253 0
-85 259 -253 0
-86 -259 253 0
-86 259 -253 0
-87 -259 253 0
-87 259 -253 0
-88 -259 253 0
-88 259 -253 0
-89 -259 253 0
-89 259 -253 0
-90 -259 253 0
-90 259 -253 0
-96 -259 253 0
-96 259 -253 0
-76 -254 260 0
-76 -253 260 0
-76 -260 254 253 0
-77 -260 254 0
-77 260 -254 0
-78 -260 254 0
-78 260 -254 0
-79 -260 254 0
-79 260 -254 0
-80 -260 254 0
-80 260 -254 0
-81 -260 254 0
-81 -260 255 0
-81 260 -254 -255 0
-82 -260 254 0
-82 -260 256 0
-82 260 -254 -256 0
-83 -260 254 0
-83 -260 257 0
-83 260 -254 -257 0
-84 -260 254 0
-84 -260 258 0
-84 260 -254 -258 0
-85 -260 254 0
-85 260 -254 0
-86 -260 254 0
-86 260 -254 0
-87 -260 254 0
-87 260 -254 0
-88 -260 254 0
-88 260 -254 0
-89 -260 254 0
-89 260 -254 0
-90 -260 254 0
-90 260 -254 0
-96 -260 254 0
-96 260 -254 0
-76 -261 255 0
-76 261 -255 0
-77 -255 261 0
-77 -253 261 0
-77 -261 255 253 0
-78 -261 255 0
-78 261 -255 0
-79 -261 255 0
-79 261 -255 0
-80 -261 255 0
-80 261 -255 0
-81 -255 261 0
-81 -254 261 0
-81 -261 255 254 0
-82 -261 255 0
-82 261 -255 0
-83 -261 255 0
-83 261 -255 0
-84 -261 255 0
-84 261 -255 0
-85 -261 255 0
-85 -261 256 0
-85 261 -255 -256 0
-86 -261 255 0
-86 -261 257 0
-86 261 -255 -257 0
-87 -261 255 0
-87 -261 258 0
-87 261 -255 -258 0
-88 -261 255 0
-88 261 -255 0
-89 -261 255 0
-89 261 -255 0
-90 -261 255 0
-90 261 -255 0
-96 -261 255 0
-96 261 -255 0
-76 -262 256 0
-76 262 -256 0
-77 -262 256 0
-77 262 -256 0
-78 -256 262 0
-78 -253 262 0
-78 -262 256 253 0
-79 -262 256 0
-79 262 -256 0
-80 -262 256 0
-80 262 -256 0
-81 -262 256 0
-81 262 -256 0
-82 -256 262 0
-82 -254 262 0
-82 -262 256 254 0
-83 -262 256 0
-83 262 -256 0
-84 -262 256 0
-84 262 -256 0
-85 -256 262 0
-85 -255 262 0
-85 -262 256 255 0
-86 -262 256 0
-86 262 -256 0
-87 -262 256 0
-87 262 -256 0
-88 -262 256 0
-88 -262 257 0
-88 262 -256 -257 0
-89 -262 256 0
-89 -262 258 0
-89 262 -256 -258 0
-90 -262 256 0
-90 262 -256 0
-96 -262 256 0
-96 262 -256 0
-76 -263 257 0
-76 263 -257 0
-77 -263 257 0
-77 263 -257 0
-78 -263 257 0
-78 263 -257 0
-79 -257 263 0
-79 -253 263 0
-79 -263 257 253 0
-80 -263 257 0
-80 263 -257 0
-81 -263 257 0
-81 263 -257 0
-82 -263 257 0
-82 263 -257 0
-83 -257 263 0
-83 -254 263 0
-83 -263 257 254 0
-84 -263 257 0
-84 263 -257 0
-85 -263 257 0
-85 263 -257 0
-86 -257 263 0
-86 -255 263 0
-86 -263 257 255 0
-87 -263 257 0
-87 263 -257 0
-88 -257 263 0
-88 -256 263 0
-88 -263 257 256 0
-89 -263 257 0
-89 263 -257 0
-90 -263 257 0
-90 -263 258 0
-90 263 -257 -258 0
-96 -263 257 0
-96 263 -257 0
-76 -264 258 0
-76 264 -258 0
-77 -264 258 0
-77 264 -258 0
-78 -264 258 0
-78 264 -258 0
-79 -264 258 0
-79 264 -258 0
-80 -258 264 0
-80 -253 264 0
-80 -264 258 253 0
-81 -264 258 0
-81 264 -258 0
-82 -264 258 0
-82 264 -258 0
-83 -264 258 0
-83 264 -258 0
-84 -258 264 0
-84 -254 264 0
-84 -264 258 254 0
-85 -264 258 0
-85 264 -258 0
-86 -264 258 0
-86 264 -258 0
-87 -258 264 0
-87 -255 264 0
-87 -264 258 255 0
-88 -264 258 0
-88 264 -258 0
-89 -258 264 0
-89 -256 264 0
-89 -264 258 256 0
-90 -258 264 0
-90 -257 264 0
-90 -264 258 257 0
-96 -264 258 0
-96 264 -258 0
-265 0
-1 -271 265 0
-1 -271 266 0
-1 271 -265 -266 0
-2 -271 265 0
-2 -271 267 0
-2 271 -265 -267 0
-3 -271 265 0
-3 -271 268 0
-3 271 -265 -268 0
-4 -271 265 0
-4 -271 269 0
-4 271 -265 -269 0
-5 -271 265 0
-5 -271 270 0
-5 271 -265 -270 0
-6 -271 265 0
-6 271 -265 0
-7 -271 265 0
-7 271 -265 0
-8 -271 265 0
-8 271 -265 0
-9 -271 265 0
-9 271 -265 0
-10 -271 265 0
-10 271 -265 0
-11 -271 265 0
-11 271 -265 0
-12 -271 265 0
-12 271 -265 0
-13 -271 265 0
-13 271 -265 0
-14 -271 265 0
-14 271 -265 0
-15 -271 265 0
-15 271 -265 0
-91 -271 265 0
-91 271 -265 0
-266 0
-1 -266 272 0
-1 -265 272 0
-1 -272 266 265 0
-2 -272 266 0
-2 272 -266 0
-3 -272 266 0
-3 272 -266 0
-4 -272 266 0
-4 272 -266 0
-5 -272 266 0
-5 272 -266 0
-6 -272 266 0
-6 -272 267 0
-6 272 -266 -267 0
-7 -272 266 0
-7 -272 268 0
-7 272 -266 -268 0
-8 -272 266 0
-8 -272 269 0
-8 272 -266 -269 0
-9 -272 266 0
-9 -272 270 0
-9 272 -266 -270 0
-10 -272 266 0
-10 272 -266 0
-11 -272 266 0
-11 272 -266 0
-12 -272 266 0
-12 272 -266 0
-13 -272 266 0
-13 272 -266 0
-14 -272 266 0
-14 272 -266 0
-15 -272 266 0
-15 272 -266 0
-91 -272 266 0
-91 272 -266 0
267 0
-1 -273 267 0
-1 273 -267 0
-2 -267 273 0
-2 -265 273 0
-2 -273 267 265 0
-3 -273 267 0
-3 273 -267 0
-4 -273 267 0
-4 273 -267 0
-5 -273 267 0
-5 273 -267 0
-6 -267 273 0
-6 -266 273 0
-6 -273 267 266 0
-7 -273 267 0
-7 273 -267 0
-8 -273 267 0
-8 273 -267 0
-9 -273 267 0
-9 273 -267 0
-10 -273 267 0
-10 -273 268 0
-10 273 -267 -268 0
-11 -273 267 0
-11 -273 269 0
-11 273 -267 -269 0
-12 -273 267 0
-12 -273 270 0
-12 273 -267 -270 0
-13 -273 267 0
-13 273 -267 0
-14 -273 267 0
-14 273 -267 0
-15 -273 267 0
-15 273 -267 0
-91 -273 267 0
-91 273 -267 0
-268 0
-1 -274 268 0
-1 274 -268 0
-2 -274 268 0
-2 274 -268 0
-3 -268 274 0
-3 -265 274 0
-3 -274 268 265 0
-4 -274 268 0
-4 274 -268 0
-5 -274 268 0
-5 274 -268 0
-6 -274 268 0
-6 274 -268 0
-7 -268 274 0
-7 -266 274 0
-7 -274 268 266 0
-8 -274 268 0
-8 274 -268 0
-9 -274 268 0
-9 274 -268 0
-10 -268 274 0
-10 -267 274 0
-10 -274 268 267 0
-11 -274 268 0
-11 274 -268 0
-12 -274 268 0
-12 274 -268 0
-13 -274 268 0
-13 -274 269 0
-13 274 -268 -269 0
-14 -274 268 0
-14 -274 270 0
-14 274 -268 -270 0
-15 -274 268 0
-15 274 -268 0
-91 -274 268 0
-91 274 -268 0
-269 0
-1 -275 269 0
-1 275 -269 0
-2 -275 269 0
-2 275 -269 0
-3 -275 269 0
-3 275 -269 0
-4 -269 275 0
-4 -265 275 0
-4 -275 269 265 0
-5 -275 269 0
-5 275 -269 0
-6 -275 269 0
-6 275 -269 0
-7 -275 269 0
-7 275 -269 0
-8 -269 275 0
-8 -266 275 0
-8 -275 269 266 0
-9 -275 269 0
-9 275 -269 0
-10 -275 269 0
-10 275 -269 0
-11 -269 275 0
-11 -267 275 0
-11 -275 269 267 0
-12 -275 269 0
-12 275 -269 0
-13 -269 275 0
-13 -268 275 0
-13 -275 269 268 0
-14 -275 269 0
-14 275 -269 0
-15 -275 269 0
-15 -275 270 0
-15 275 -269 -270 0
-91 -275 269 0
-91 275 -269 0
-270 0
-1 -276 270 0
-1 276 -270 0
-2 -276 270 0
-2 276 -270 0
-3 -276 270 0
-3 276 -270 0
-4 -276 270 0
-4 276 -270 0
-5 -270 276 0
-5 -265 276 0
-5 -276 270 265 0
-6 -276 270 0
-6 276 -270 0
-7 -276 270 0
-7 276 -270 0
-8 -276 270 0
-8 276 -270 0
-9 -270 276 0
-9 -266 276 0
-9 -276 270 266 0
-10 -276 270 0
-10 276 -270 0
-11 -276 270 0
-11 276 -270 0
-12 -270 276 0
-12 -267 276 0
-12 -276 270 267 0
-13 -276 270 0
-13 276 -270 0
-14 -270 276 0
-14 -268 276 0
-14 -276 270 268 0
-15 -270 276 0
-15 -269 276 0
-15 -276 270 269 0
-91 -276 270 0
-91 276 -270 0
-16 -277 271 0
-16 -277 272 0
-16 277 -271 -272 0
-17 -277 271 0
-17 -277 273 0
-17 277 -271 -273 0
-18 -277 271 0
-18 -277 274 0
-18 277 -271 -274 0
-19 -277 271 0
-19 -277 275 0
-19 277 -271 -275 0
-20 -277 271 0
-20 -277 276 0
-20 277 -271 -276 0
-21 -277 271 0
-21 277 -271 0
-22 -277 271 0
-22 277 -271 0
-23 -277 271 0
-23 277 -271 0
-24 -277 271 0
-24 277 -271 0
-25 -277 271 0
-25 277 -271 0
-26 -277 271 0
-26 277 -271 0
-27 -277 271 0
-27 277 -271 0
-28 -277 271 0
-28 277 -271 0
-29 -277 271 0
-29 277 -271 0
-30 -277 271 0
-30 277 -271 0
-92 -277 271 0
-92 277 -271 0
-16 -272 278 0
-16 -271 278 0
-16 -278 272 271 0
-17 -278 272 0
-17 278 -272 0
-18 -278 272 0
-18 278 -272 0
-19 -278 272 0
-19 278 -272 0
-20 -278 272 0
-20 278 -272 0
-21 -278 272 0
-21 -278 273 0
-21 278 -272 -273 0
-22 -278 272 0
-22 -278 274 0
-22 278 -272 -274 0
-23 -278 272 0
-23 -278 275 0
-23 278 -272 -275 0
-24 -278 272 0
-24 -278 276 0
-24 278 -272 -276 0
-25 -278 272 0
-25 278 -272 0
-26 -278 272 0
-26 278 -272 0
-27 -278 272 0
-27 278 -272 0
-28 -278 272 0
-28 278 -272 0
-29 -278 272 0
-29 278 -272 0
-30 -278 272 0
-30 278 -272 0
-92 -278 272 0
-92 278 -272 0
-16 -279 273 0
-16 279 -273 0
-17 -273 279 0
-17 -271 279 0
-17 -279 273 271 0
-18 -279 273 0
-18 279 -273 0
-19 -279 273 0
-19 279 -273 0
-20 -279 273 0
-20 279 -273 0
-21 -273 279 0
-21 -272 279 0
-21 -279 273 272 0
-22 -279 273 0
-22 279 -273 0
-23 -279 273 0
-23 279 -273 0
-24 -279 273 0
-24 279 -273 0
-25 -279 273 0
-25 -279 274 0
-25 279 -273 -274 0
-26 -279 273 0
-26 -279 275 0
-26 279 -273 -275 0
-27 -279 273 0
-27 -279 276 0
-27 279 -273 -276 0
-28 -279 273 0
-28 279 -273 0
-29 -279 273 0
-29 279 -273 0
-30 -279 273 0
-30 279 -273 0
-92 -279 273 0
-92 279 -273 0
-16 -280 274 0
-16 280 -274 0
-17 -280 274 0
-17 280 -274 0
-18 -274 280 0
-18 -271 280 0
-18 -280 274 271 0
-19 -280 274 0
-19 280 -274 0
-20 -280 274 0
-20 280 -274 0
-21 -280 274 0
-21 280 -274 0
-22 -274 280 0
-22 -272 280 0
-22 -280 274 272 0
-23 -280 274 0
-23 280 -274 0
-24 -280 274 0
-24 280 -274 0
-25 -274 280 0
-25 -273 280 0
-25 -280 274 273 0
-26 -280 274 0
-26 280 -274 0
-27 -280 274 0
-27 280 -274 0
-28 -280 274 0
-28 -280 275 0
-28 280 -274 -275 0
-29 -280 274 0
-29 -280 276 0
-29 280 -274 -276 0
-30 -280 274 0
-30 280 -274 0
-92 -280 274 0
-92 280 -274 0
-16 -281 275 0
-16 281 -275 0
-17 -281 275 0
-17 281 -275 0
-18 -281 275 0
-18 281 -275 0
-19 -275 281 0
-19 -271 281 0
-19 -281 275 271 0
-20 -281 275 0
-20 281 -275 0
-21 -281 275 0
-21 281 -275 0
-22 -281 275 0
-22 281 -275 0
-23 -275 281 0
-23 -272 281 0
-23 -281 275 272 0
-24 -281 275 0
-24 281 -275 0
-25 -281 275 0
-25 281 -275 0
-26 -275 281 0
-26 -273 281 0
-26 -281 275 273 0
-27 -281 275 0
-27 281 -275 0
-28 -275 281 0
-28 -274 281 0
-28 -281 275 274 0
-29 -281 275 0
-29 281 -275 0
-30 -281 275 0
-30 -281 276 0
-30 281 -275 -276 0
-92 -281 275 0
-92 281 -275 0
-16 -282 276 0
-16 282 -276 0
-17 -282 276 0
-17 282 -276 0
-18 -282 276 0
-18 282 -276 0
-19 -282 276 0
-19 282 -276 0
-20 -276 282 0
-20 -271 282 0
-20 -282 276 271 0
-21 -282 276 0
-21 282 -276 0
-22 -282 276 0
-22 282 -276 0
-23 -282 276 0
-23 282 -276 0
-24 -276 282 0
-24 -272 282 0
-24 -282 276 272 0
-25 -282 276 0
-25 282 -276 0
-26 -282 276 0
-26 282 -276 0
-27 -276 282 0
-27 -273 282 0
-27 -282 276 273 0
-28 -282 276 0
-28 282 -276 0
-29 -276 282 0
-29 -274 282 0
-29 -282 276 274 0
-30 -276 282 0
-30 -275 282 0
-30 -282 276 275 0
-92 -282 276 0
-92 282 -276 0
-31 -283 277 0
-31 -283 278 0
-31 283 -277 -278 0
-32 -283 277 0
-32 -283 279 0
-32 283 -277 -279 0
-33 -283 277 0
-33 -283 280 0
-33 283 -277 -280 0
-34 -283 277 0
-34 -283 281 0
-34 283 -277 -281 0
-35 -283 277 0
-35 -283 282 0
-35 283 -277 -282 0
-36 -283 277 0
-36 283 -277 0
-37 -283 277 0
-37 283 -277 0
-38 -283 277 0
-38 283 -277 0
-39 -283 277 0
-39 283 -277 0
-40 -283 277 0
-40 283 -277 0
-41 -283 277 0
-41 283 -277 0
-42 -283 277 0
-42 283 -277 0
-43 -283 277 0
-43 283 -277 0
-44 -283 277 0
-44 283 -277 0
-45 -283 277 0
-45 283 -277 0
-93 -283 277 0
-93 283 -277 0
-31 -278 284 0
-31 -277 284 0
-31 -284 278 277 0
-32 -284 278 0
-32 284 -278 0
-33 -284 278 0
-33 284 -278 0
-34 -284 278 0
-34 284 -278 0
-35 -284 278 0
-35 284 -278 0
-36 -284 278 0
-36 -284 279 0
-36 284 -278 -279 0
-37 -284 278 0
-37 -284 280 0
-37 284 -278 -280 0
-38 -284 278 0
-38 -284 281 0
-38 284 -278 -281 0
-39 -284 278 0
-39 -284 282 0
-39 284 -278 -282 0
-40 -284 278 0
-40 284 -278 0
-41 -284 278 0
-41 284 -278 0
-42 -284 278 0
-42 284 -278 0
-43 -284 278 0
-43 284 -278 0
-44 -284 278 0
-44 284 -278 0
-45 -284 278 0
-45 284 -278 0
-93 -284 278 0
-93 284 -278 0
-31 -285 279 0
-31 285 -279 0
-32 -279 285 0
-32 -277 285 0
-32 -285 279 277 0
-33 -285 279 0
-33 285 -279 0
-34 -285 279 0
-34 285 -279 0
-35 -285 279 0
-35 285 -279 0
-36 -279 285 0
-36 -278 285 0
-36 -285 279 278 0
-37 -285 279 0
-37 285 -279 0
-38 -285 279 0
-38 285 -279 0
-39 -285 279 0
-39 285 -279 0
-40 -285 279 0
-40 -285 280 0
-40 285 -279 -280 0
-41 -285 279 0
-41 -285 281 0
-41 285 -279 -281 0
-42 -285 279 0
-42 -285 282 0
-42 285 -279 -282 0
-43 -285 279 0
-43 285 -279 0
-44 -285 279 0
-44 285 -279 0
-45 -285 279 0
-45 285 -279 0
-93 -285 279 0
-93 285 -279 0
-31 -286 280 0
-31 286 -280 0
-32 -286 280 0
-32 286 -280 0
-33 -280 286 0
-33 -277 286 0
-33 -286 280 277 0
-34 -286 280 0
-34 286 -280 0
-35 -286 280 0
-35 286 -280 0
-36 -286 280 0
-36 286 -280 0
-37 -280 286 0
-37 -278 286 0
-37 -286 280 278 0
-38 -286 280 0
-38 286 -280 0
-39 -286 280 0
-39 286 -280 0
-40 -280 286 0
-40 -279 286 0
-40 -286 280 279 0
-41 -286 280 0
-41 286 -280 0
-42 -286 280 0
-42 286 -280 0
-43 -286 280 0
-43 -286 281 0
-43 286 -280 -281 0
-44 -286 280 0
-44 -286 282 0
-44 286 -280 -282 0
-45 -286 280 0
-45 286 -280 0
-93 -286 280 0
-93 286 -280 0
-31 -287 281 0
-31 287 -281 0
-32 -287 281 0
-32 287 -281 0
-33 -287 281 0
-33 287 -281 0
-34 -281 287 0
-34 -277 287 0
-34 -287 281 277 0
-35 -287 281 0
-35 287 -281 0
-36 -287 281 0
-36 287 -281 0
-37 -287 281 0
-37 287 -281 0
-38 -281 287 0
-38 -278 287 0
-38 -287 281 278 0
-39 -287 281 0
-39 287 -281 0
-40 -287 281 0
-40 287 -281 0
-41 -281 287 0
-41 -279 287 0
-41 -287 281 279 0
-42 -287 281 0
-42 287 -281 0
-43 -281 287 0
-43 -280 287 0
-43 -287 281 280 0
-44 -287 281 0
-44 287 -281 0
-45 -287 281 0
-45 -287 282 0
-45 287 -281 -282 0
-93 -287 281 0
-93 287 -281 0
-31 -288 282 0
-31 288 -282 0
-32 -288 282 0
-32 288 -282 0
-33 -288 282 0
-33 288 -282 0
-34 -288 282 0
-34 288 -282 0
-35 -282 288 0
-35 -277 288 0
-35 -288 282 277 0
-36 -288 282 0
-36 288 -282 0
-37 -288 282 0
-37 288 -282 0
-38 -288 282 0
-38 288 -282 0
-39 -282 288 0
-39 -278 288 0
-39 -288 282 278 0
-40 -288 282 0
-40 288 -282 0
-41 -288 282 0
-41 288 -282 0
-42 -282 288 0
-42 -279 288 0
-42 -288 282 279 0
-43 -288 282 0
-43 288 -282 0
-44 -282 288 0
-44 -280 288 0
-44 -288 282 280 0
-45 -282 288 0
-45 -281 288 0
-45 -288 282 281 0
-93 -288 282 0
-93 288 -282 0
-46 -289 283 0
-46 -289 284 0
-46 289 -283 -284 0
-47 -289 283 0
-47 -289 285 0
-47 289 -283 -285 0
-48 -289 283 0
-48 -289 286 0
-48 289 -283 -286 0
-49 -289 283 0
-49 -289 287 0
-49 289 -283 -287 0
-50 -289 283 0
-50 -289 288 0
-50 289 -283 -288 0
-51 -289 283 0
-51 289 -283 0
-52 -289 283 0
-52 289 -283 0
-53 -289 283 0
-53 289 -283 0
-54 -289 283 0
-54 289 -283 0
-55 -289 283 0
-55 289 -283 0
-56 -289 283 0
-56 289 -283 0
-57 -289 283 0
-57 289 -283 0
-58 -289 283 0
-58 289 -283 0
-59 -289 283 0
-59 289 -283 0
-60 -289 283 0
-60 289 -283 0
-94 -289 283 0
-94 289 -283 0
-46 -284 290 0
-46 -283 290 0
-46 -290 284 283 0
-47 -290 284 0
-47 290 -284 0
-48 -290 284 0
-48 290 -284 0
-49 -290 284 0
-49 290 -284 0
-50 -290 284 0
-50 290 -284 0
-51 -290 284 0
-51 -290 285 0
-51 290 -284 -285 0
-52 -290 284 0
-52 -290 286 0
-52 290 -284 -286 0
-53 -290 284 0
-53 -290 287 0
-53 290 -284 -287 0
-54 -290 284 0
-54 -290 288 0
-54 290 -284 -288 0
-55 -290 284 0
-55 290 -284 0
-56 -290 284 0
-56 290 -284 0
-57 -290 284 0
-57 290 -284 0
-58 -290 284 0
-58 290 -284 0
-59 -290 284 0
-59 290 -284 0
-60 -290 284 0
-60 290 -284 0
-94 -290 284 0
-94 290 -284 0
-46 -291 285 0
-46 291 -285 0
-47 -285 291 0
-47 -283 291 0
-47 -291 285 283 0
-48 -291 285 0
-48 291 -285 0
-49 -291 285 0
-49 291 -285 0
-50 -291 285 0
-50 291 -285 0
-51 -285 291 0
-51 -284 291 0
-51 -291 285 284 0
-52 -291 285 0
-52 291 -285 0
-53 -291 285 0
-53 291 -285 0
-54 -291 285 0
-54 291 -285 0
-55 -291 285 0
-55 -291 286 0
-55 291 -285 -286 0
-56 -291 285 0
-56 -291 287 0
-56 291 -285 -287 0
-57 -291 285 0
-57 -291 288 0
-57 291 -285 -288 0
-58 -291 285 0
-58 291 -285 0
-59 -291 285 0
-59 291 -285 0
-60 -291 285 0
-60 291 -285 0
-94 -291 285 0
-94 291 -285 0
-46 -292 286 0
-46 292 -286 0
-47 -292 286 0
-47 292 -286 0
-48 -286 292 0
-48 -283 292 0
-48 -292 286 283 0
-49 -292 286 0
-49 292 -286 0
-50 -292 286 0
-50 292 -286 0
-51 -292 286 0
-51 292 -286 0
-52 -286 292 0
-52 -284 292 0
-52 -292 286 284 0
-53 -292 286 0
-53 292 -286 0
-54 -292 286 0
-54 292 -286 0
-55 -286 292 0
-55 -285 292 0
-55 -292 286 285 0
-56 -292 286 0
-56 292 -286 0
-57 -292 286 0
-57 292 -286 0
-58 -292 286 0
-58 -292 287 0
-58 292 -286 -287 0
-59 -292 286 0
-59 -292 288 0
-59 292 -286 -288 0
-60 -292 286 0
-60 292 -286 0
-94 -292 286 0
-94 292 -286 0
-46 -293 287 0
-46 293 -287 0
-47 -293 287 0
-47 293 -287 0
-48 -293 287 0
-48 293 -287 0
-49 -287 293 0
-49 -283 293 0
-49 -293 287 283 0
-50 -293 287 0
-50 293 -287 0
-51 -293 287 0
-51 293 -287 0
-52 -293 287 0
-52 293 -287 0
-53 -287 293 0
-53 -284 293 0
-53 -293 287 284 0
-54 -293 287 0
-54 293 -287 0
-55 -293 287 0
-55 293 -287 0
-56 -287 293 0
-56 -285 293 0
-56 -293 287 285 0
-57 -293 287 0
-57 293 -287 0
-58 -287 293 0
-58 -286 293 0
-58 -293 287 286 0
-59 -293 287 0
-59 293 -287 0
-60 -293 287 0
-60 -293 288 0
-60 293 -287 -288 0
-94 -293 287 0
-94 293 -287 0
-46 -294 288 0
-46 294 -288 0
-47 -294 288 0
-47 294 -288 0
-48 -294 288 0
-48 294 -288 0
-49 -294 288 0
-49 294 -288 0
-50 -288 294 0
-50 -283 294 0
-50 -294 288 283 0
-51 -294 288 0
-51 294 -288 0
-52 -294 288 0
-52 294 -288 0
-53 -294 288 0
-53 294 -288 0
-54 -288 294 0
-54 -284 294 0
-54 -294 288 284 0
-55 -294 288 0
-55 294 -288 0
-56 -294 288 0
-56 294 -288 0
-57 -288 294 0
-57 -285 294 0
-57 -294 288 285 0
-58 -294 288 0
-58 294 -288 0
-59 -288 294 0
-59 -286 294 0
-59 -294 288 286 0
-60 -288 294 0
-60 -287 294 0
-60 -294 288 287 0
-94 -294 288 0
-94 294 -288 0
-61 -295 289 0
-61 -295 290 0
-61 295 -289 -290 0
-62 -295 289 0
-62 -295 291 0
-62 295 -289 -291 0
-63 -295 289 0
-63 -295 292 0
-63 295 -289 -292 0
-64 -295 289 0
-64 -295 293 0
-64 295 -289 -293 0
-65 -295 289 0
-65 -295 294 0
-65 295 -289 -294 0
-66 -295 289 0
-66 295 -289 0
-67 -295 289 0
-67 295 -289 0
-68 -295 289 0
-68 295 -289 0
-69 -295 289 0
-69 295 -289 0
-70 -295 289 0
-70 295 -289 0
-71 -295 289 0
-71 295 -289 0
-72 -295 289 0
-72 295 -289 0
-73 -295 289 0
-73 295 -289 0
-74 -295 289 0
-74 295 -289 0
-75 -295 289 0
-75 295 -289 0
-95 -295 289 0
-95 295 -289 0
-61 -290 296 0
-61 -289 296 0
-61 -296 290 289 0
-62 -296 290 0
-62 296 -290 0
-63 -296 290 0
-63 296 -290 0
-64 -296 290 0
-64 296 -290 0
-65 -296 290 0
-65 296 -290 0
-66 -296 290 0
-66 -296 291 0
-66 296 -290 -291 0
-67 -296 290 0
-67 -296 292 0
-67 296 -290 -292 0
-68 -296 290 0
-68 -296 293 0
-68 296 -290 -293 0
-69 -296 290 0
-69 -296 294 0
-69 296 -290 -294 0
-70 -296 290 0
-70 296 -290 0
-71 -296 290 0
-71 296 -290 0
-72 -296 290 0
-72 296 -290 0
-73 -296 290 0
-73 296 -290 0
-74 -296 290 0
-74 296 -290 0
-75 -296 290 0
-75 296 -290 0
-95 -296 290 0
-95 296 -290 0
-61 -297 291 0
-61 297 -291 0
-62 -291 297 0
-62 -289 297 0
-62 -297 291 289 0
-63 -297 291 0
-63 297 -291 0
-64 -297 291 0
-64 297 -291 0
-65 -297 291 0
-65 297 -291 0
-66 -291 297 0
-66 -290 297 0
-66 -297 291 290 0
-67 -297 291 0
-67 297 -291 0
-68 -297 291 0
-68 297 -291 0
-69 -297 291 0
-69 297 -291 0
-70 -297 291 0
-70 -297 292 0
-70 297 -291 -292 0
-71 -297 291 0
-71 -297 293 0
-71 297 -291 -293 0
-72 -297 291 0
-72 -297 294 0
-72 297 -291 -294 0
-73 -297 291 0
-73 297 -291 0
-74 -297 291 0
-74 297 -291 0
-75 -297 291 0
-75 297 -291 0
-95 -297 291 0
-95 297 -291 0
-61 -298 292 0
-61 298 -292 0
-62 -298 292 0
-62 298 -292 0
-63 -292 298 0
-63 -289 298 0
-63 -298 292 289 0
-64 -298 292 0
-64 298 -292 0
-65 -298 292 0
-65 298 -292 0
-66 -298 292 0
-66 298 -292 0
-67 -292 298 0
-67 -290 298 0
-67 -298 292 290 0
-68 -298 292 0
-68 298 -292 0
-69 -298 292 0
-69 298 -292 0
-70 -292 298 0
-70 -291 298 0
-70 -298 292 291 0
-71 -298 292 0
-71 298 -292 0
-72 -298 292 0
-72 298 -292 0
-73 -298 292 0
-73 -298 293 0
-73 298 -292 -293 0
-74 -298 292 0
-74 -298 294 0
-74 298 -292 -294 0
-75 -298 292 0
-75 298 -292 0
-95 -298 292 0
-95 298 -292 0
-61 -299 293 0
-61 299 -293 0
-62 -299 293 0
-62 299 -293 0
-63 -299 293 0
-63 299 -293 0
-64 -293 299 0
-64 -289 299 0
-64 -299 293 289 0
-65 -299 293 0
-65 299 -293 0
-66 -299 293 0
-66 299 -293 0
-67 -299 293 0
-67 299 -293 0
-68 -293 299 0
-68 -290 299 0
-68 -299 293 290 0
-69 -299 293 0
-69 299 -293 0
-70 -299 293 0
-70 299 -293 0
-71 -293 299 0
-71 -291 299 0
-71 -299 293 291 0
-72 -299 293 0
-72 299 -293 0
-73 -293 299 0
-73 -292 299 0
-73 -299 293 292 0
-74 -299 293 0
-74 299 -293 0
-75 -299 293 0
-75 -299 294 0
-75 299 -293 -294 0
-95 -299 293 0
-95 299 -293 0
-61 -300 294 0
-61 300 -294 0
-62 -300 294 0
-62 300 -294 0
-63 -300 294 0
-63 300 -294 0
-64 -300 294 0
-64 300 -294 0
-65 -294 300 0
-65 -289 300 0
-65 -300 294 289 0
-66 -300 294 0
-66 300 -294 0
-67 -300 294 0
-67 300 -294 0
-68 -300 294 0
-68 300 -294 0
-69 -294 300 0
-69 -290 300 0
-69 -300 294 290 0
-70 -300 294 0
-70 300 -294 0
-71 -300 294 0
-71 300 -294 0
-72 -294 300 0
-72 -291 300 0
-72 -300 294 291 0
-73 -300 294 0
-73 300 -294 0
-74 -294 300 0
-74 -292 300 0
-74 -300 294 292 0
-75 -294 300 0
-75 -293 300 0
-75 -300 294 293 0
-95 -300 294 0
-95 300 -294 0
-76 -301 295 0
-76 -301 296 0
-76 301 -295 -296 0
-77 -301 295 0
-77 -301 297 0
-77 301 -295 -297 0
-78 -301 295 0
-78 -301 298 0
-78 301 -295 -298 0
-79 -301 295 0
-79 -301 299 0
-79 301 -295 -299 0
-80 -301 295 0
-80 -301 300 0
-80 301 -295 -300 0
-81 -301 295 0
-81 301 -295 0
-82 -301 295 0
-82 301 -295 0
-83 -301 295 0
-83 301 -295 0
-84 -301 295 0
-84 301 -295 0
-85 -301 295 0
-85 301 -295 0
-86 -301 295 0
-86 301 -295 0
-87 -301 295 0
-87 301 -295 0
-88 -301 295 0
-88 301 -295 0
-89 -301 295 0
-89 301 -295 0
-90 -301 295 0
-90 301 -295 0
-96 -301 295 0
-96 301 -295 0
-76 -296 302 0
-76 -295 302 0
-76 -302 296 295 0
-77 -302 296 0
-77 302 -296 0
-78 -302 296 0
-78 302 -296 0
-79 -302 296 0
-79 302 -296 0
-80 -302 296 0
-80 302 -296 0
-81 -302 296 0
-81 -302 297 0
-81 302 -296 -297 0
-82 -302 296 0
-82 -302 298 0
-82 302 -296 -298 0
-83 -302 296 0
-83 -302 299 0
-83 302 -296 -299 0
-84 -302 296 0
-84 -302 300 0
-84 302 -296 -300 0
-85 -302 296 0
-85 302 -296 0
-86 -302 296 0
-86 302 -296 0
-87 -302 296 0
-87 302 -296 0
-88 -302 296 0
-88 302 -296 0
-89 -302 296 0
-89 302 -296 0
-90 -302 296 0
-90 302 -296 0
-96 -302 296 0
-96 302 -296 0
-76 -303 297 0
-76 303 -297 0
-77 -297 303 0
-77 -295 303 0
-77 -303 297 295 0
-78 -303 297 0
-78 303 -297 0
-79 -303 297 0
-79 303 -297 0
-80 -303 297 0
-80 303 -297 0
-81 -297 303 0
-81 -296 303 0
-81 -303 297 296 0
-82 -303 297 0
-82 303 -297 0
-83 -303 297 0
-83 303 -297 0
-84 -303 297 0
-84 303 -297 0
-85 -303 297 0
-85 -303 298 0
-85 303 -297 -298 0
-86 -303 297 0
-86 -303 299 0
-86 303 -297 -299 0
-87 -303 297 0
-87 -303 300 0
-87 303 -297 -300 0
-88 -303 297 0
-88 303 -297 0
-89 -303 297 0
-89 303 -297 0
-90 -303 297 0
-90 303 -297 0
-96 -303 297 0
-96 303 -297 0
-76 -304 298 0
-76 304 -298 0
-77 -304 298 0
-77 304 -298 0
-78 -298 304 0
-78 -295 304 0
-78 -304 298 295 0
-79 -304 298 0
-79 304 -298 0
-80 -304 298 0
-80 304 -298 0
-81 -304 298 0
-81 304 -298 0
-82 -298 304 0
-82 -296 304 0
-82 -304 298 296 0
-83 -304 298 0
-83 304 -298 0
-84 -304 298 0
-84 304 -298 0
-85 -298 304 0
-85 -297 304 0
-85 -304 298 297 0
-86 -304 298 0
-86 304 -298 0
-87 -304 298 0
-87 304 -298 0
-88 -304 298 0
-88 -304 299 0
-88 304 -298 -299 0
-89 -304 298 0
-89 -304 300 0
-89 304 -298 -300 0
-90 -304 298 0
-90 304 -298 0
-96 -304 298 0
-96 304 -298 0
-76 -305 299 0
-76 305 -299 0
-77 -305 299 0
-77 305 -299 0
-78 -305 299 0
-78 305 -299 0
-79 -299 305 0
-79 -295 305 0
-79 -305 299 295 0
-80 -305 299 0
-80 305 -299 0
-81 -305 299 0
-81 305 -299 0
-82 -305 299 0
-82 305 -299 0
-83 -299 305 0
-83 -296 305 0
-83 -305 299 296 0
-84 -305 299 0
-84 305 -299 0
-85 -305 299 0
-85 305 -299 0
-86 -299 305 0
-86 -297 305 0
-86 -305 299 297 0
-87 -305 299 0
-87 305 -299 0
-88 -299 305 0
-88 -298 305 0
-88 -305 299 298 0
-89 -305 299 0
-89 305 -299 0
-90 -305 299 0
-90 -305 300 0
-90 305 -299 -300 0
-96 -305 299 0
-96 305 -299 0
-76 -306 300 0
-76 306 -300 0
-77 -306 300 0
-77 306 -300 0
-78 -306 300 0
-78 306 -300 0
-79 -306 300 0
-79 306 -300 0
-80 -300 306 0
-80 -295 306 0
-80 -306 300 295 0
-81 -306 300 0
-81 306 -300 0
-82 -306 300 0
-82 306 -300 0
-83 -306 300 0
-83 306 -300 0
-84 -300 306 0
-84 -296 306 0
-84 -306 300 296 0
-85 -306 300 0
-85 306 -300 0
-86 -306 300 0
-86 306 -300 0
-87 -300 306 0
-87 -297 306 0
-87 -306 300 297 0
-88 -306 300 0
-88 306 -300 0
-89 -300 306 0
-89 -298 306 0
-89 -306 300 298 0
-90 -300 306 0
-90 -299 306 0
-90 -306 300 299 0
-96 -306 300 0
-96 306 -300 0
-307 0
-1 -313 307 0
-1 -313 308 0
-1 313 -307 -308 0
-2 -313 307 0
-2 -313 309 0
-2 313 -307 -309 0
-3 -313 307 0
-3 -313 310 0
-3 313 -307 -310 0
-4 -313 307 0
-4 -313 311 0
-4 313 -307 -311 0
-5 -313 307 0
-5 -313 312 0
-5 313 -307 -312 0
-6 -313 307 0
-6 313 -307 0
-7 -313 307 0
-7 313 -307 0
-8 -313 307 0
-8 313 -307 0
-9 -313 307 0
-9 313 -307 0
-10 -313 307 0
-10 313 -307 0
-11 -313 307 0
-11 313 -307 0
-12 -313 307 0
-12 313 -307 0
-13 -313 307 0
-13 313 -307 0
-14 -313 307 0
-14 313 -307 0
-15 -313 307 0
-15 313 -307 0
-91 -313 307 0
-91 313 -307 0
-308 0
-1 -308 314 0
-1 -307 314 0
-1 -314 308 307 0
-2 -314 308 0
-2 314 -308 0
-3 -314 308 0
-3 314 -308 0
-4 -314 308 0
-4 314 -308 0
-5 -314 308 0
-5 314 -308 0
-6 -314 308 0
-6 -314 309 0
-6 314 -308 -309 0
-7 -314 308 0
-7 -314 310 0
-7 314 -308 -310 0
-8 -314 308 0
-8 -314 311 0
-8 314 -308 -311 0
-9 -314 308 0
-9 -314 312 0
-9 314 -308 -312 0
-10 -314 308 0
-10 314 -308 0
-11 -314 308 0
-11 314 -308 0
-12 -314 308 0
-12 314 -308 0
-13 -314 308 0
-13 314 -308 0
-14 -314 308 0
-14 314 -308 0
-15 -314 308 0
-15 314 -308 0
-91 -314 308 0
-91 314 -308 0
309 0
-1 -315 309 0
-1 315 -309 0
-2 -309 315 0
-2 -307 315 0
-2 -315 309 307 0
-3 -315 309 0
-3 315 -309 0
-4 -315 309 0
-4 315 -309 0
-5 -315 309 0
-5 315 -309 0
-6 -309 315 0
-6 -308 315 0
-6 -315 309 308 0
-7 -315 309 0
-7 315 -309 0
-8 -315 309 0
-8 315 -309 0
-9 -315 309 0
-9 315 -309 0
-10 -315 309 0
-10 -315 310 0
-10 315 -309 -310 0
-11 -315 309 0
-11 -315 311 0
-11 315 -309 -311 0
-12 -315 309 0
-12 -315 312 0
-12 315 -309 -312 0
-13 -315 309 0
-13 315 -309 0
-14 -315 309 0
-14 315 -309 0
-15 -315 309 0
-15 315 -309 0
-91 -315 309 0
-91 315 -309 0
-310 0
-1 -316 310 0
-1 316 -310 0
-2 -316 310 0
-2 316 -310 0
-3 -310 316 0
-3 -307 316 0
-3 -316 310 307 0
-4 -316 310 0
-4 316 -310 0
-5 -316 310 0
-5 316 -310 0
-6 -316 310 0
-6 316 -310 0
-7 -310 316 0
-7 -308 316 0
-7 -316 310 308 0
-8 -316 310 0
-8 316 -310 0
-9 -316 310 0
-9 316 -310 0
-10 -310 316 0
-10 -309 316 0
-10 -316 310 309 0
-11 -316 310 0
-11 316 -310 0
-12 -316 310 0
-12 316 -310 0
-13 -316 310 0
-13 -316 311 0
-13 316 -310 -311 0
-14 -316 310 0
-14 -316 312 0
-14 316 -310 -312 0
-15 -316 310 0
-15 316 -310 0
-91 -316 310 0
-91 316 -310 0
-311 0
-1 -317 311 0
-1 317 -311 0
-2 -317 311 0
-2 317 -311 0
-3 -317 311 0
-3 317 -311 0
-4 -311 317 0
-4 -307 317 0
-4 -317 311 307 0
-5 -317 311 0
-5 317 -311 0
-6 -317 311 0
-6 317 -311 0
-7 -317 311 0
-7 317 -311 0
-8 -311 317 0
-8 -308 317 0
-8 -317 311 308 0
-9 -317 311 0
-9 317 -311 0
-10 -317 311 0
-10 317 -311 0
-11 -311 317 0
-11 -309 317 0
-11 -317 311 309 0
-12 -317 311 0
-12 317 -311 0
-13 -311 317 0
-13 -310 317 0
-13 -317 311 310 0
-14 -317 311 0
-14 317 -311 0
-15 -317 311 0
-15 -317 312 0
-15 317 -311 -312 0
-91 -317 311 0
-91 317 -311 0
312 0
-1 -318 312 0
-1 318 -312 0
-2 -318 312 0
-2 318 -312 0
-3 -318 312 0
-3 318 -312 0
-4 -318 312 0
-4 318 -312 0
-5 -312 318 0
-5 -307 318 0
-5 -318 312 307 0
-6 -318 312 0
-6 318 -312 0
-7 -318 312 0
-7 318 -312 0
-8 -318 312 0
-8 318 -312 0
-9 -312 318 0
-9 -308 318 0
-9 -318 312 308 0
-10 -318 312 0
-10 318 -312 0
-11 -318 312 0
-11 318 -312 0
-12 -312 318 0
-12 -309 318 0
-12 -318 312 309 0
-13 -318 312 0
-13 318 -312 0
-14 -312 318 0
-14 -310 318 0
-14 -318 312 310 0
-15 -312 318 0
-15 -311 318 0
-15 -318 312 311 0
-91 -318 312 0
-91 318 -312 0
-16 -319 313 0
-16 -319 314 0
-16 319 -313 -314 0
-17 -319 313 0
-17 -319 315 0
-17 319 -313 -315 0
-18 -319 313 0
-18 -319 316 0
-18 319 -313 -316 0
-19 -319 313 0
-19 -319 317 0
-19 319 -313 -317 0
-20 -319 313 0
-20 -319 318 0
-20 319 -313 -318 0
-21 -319 313 0
-21 319 -313 0
-22 -319 313 0
-22 319 -313 0
-23 -319 313 0
-23 319 -313 0
-24 -319 313 0
-24 319 -313 0
-25 -319 313 0
-25 319 -313 0
-26 -319 313 0
-26 319 -313 0
-27 -319 313 0
-27 319 -313 0
-28 -319 313 0
-28 319 -313 0
-29 -319 313 0
-29 319 -313 0
-30 -319 313 0
-30 319 -313 0
-92 -319 313 0
-92 319 -313 0
-16 -314 320 0
-16 -313 320 0
-16 -320 314 313 0
-17 -320 314 0
-17 320 -314 0
-18 -320 314 0
-18 320 -314 0
-19 -320 314 0
-19 320 -314 0
-20 -320 314 0
-20 320 -314 0
-21 -320 314 0
-21 -320 315 0
-21 320 -314 -315 0
-22 -320 314 0
-22 -320 316 0
-22 320 -314 -316 0
-23 -320 314 0
-23 -320 317 0
-23 320 -314 -317 0
-24 -320 314 0
-24 -320 318 0
-24 320 -314 -318 0
-25 -320 314 0
-25 320 -314 0
-26 -320 314 0
-26 320 -314 0
-27 -320 314 0
-27 320 -314 0
-28 -320 314 0
-28 320 -314 0
-29 -320 314 0
-29 320 -314 0
-30 -320 314 0
-30 320 -314 0
-92 -320 314 0
-92 320 -314 0
-16 -321 315 0
-16 321 -315 0
-17 -315 321 0
-17 -313 321 0
-17 -321 315 313 0
-18 -321 315 0
-18 321 -315 0
-19 -321 315 0
-19 321 -315 0
-20 -321 315 0
-20 321 -315 0
-21 -315 321 0
-21 -314 321 0
-21 -321 315 314 0
-22 -321 315 0
-22 321 -315 0
-23 -321 315 0
-23 321 -315 0
-24 -321 315 0
-24 321 -315 0
-25 -321 315 0
-25 -321 316 0
-25 321 -315 -316 0
-26 -321 315 0
-26 -321 317 0
-26 321 -315 -317 0
-27 -321 315 0
-27 -321 318 0
-27 321 -315 -318 0
-28 -321 315 0
-28 321 -315 0
-29 -321 315 0
-29 321 -315 0
-30 -321 315 0
-30 321 -315 0
-92 -321 315 0
-92 321 -315 0
-16 -322 316 0
-16 322 -316 0
-17 -322 316 0
-17 322 -316 0
-18 -316 322 0
-18 -313 322 0
-18 -322 316 313 0
-19 -322 316 0
-19 322 -316 0
-20 -322 316 0
-20 322 -316 0
-21 -322 316 0
-21 322 -316 0
-22 -316 322 0
-22 -314 322 0
-22 -322 316 314 0
-23 -322 316 0
-23 322 -316 0
-24 -322 316 0
-24 322 -316 0
-25 -316 322 0
-25 -315 322 0
-25 -322 316 315 0
-26 -322 316 0
-26 322 -316 0
-27 -322 316 0
-27 322 -316 0
-28 -322 316 0
-28 -322 317 0
-28 322 -316 -317 0
-29 -322 316 0
-29 -322 318 0
-29 322 -316 -318 0
-30 -322 316 0
-30 322 -316 0
-92 -322 316 0
-92 322 -316 0
-16 -323 317 0
-16 323 -317 0
-17 -323 317 0
-17 323 -317 0
-18 -323 317 0
-18 323 -317 0
-19 -317 323 0
-19 -313 323 0
-19 -323 317 313 0
-20 -323 317 0
-20 323 -317 0
-21 -323 317 0
-21 323 -317 0
-22 -323 317 0
-22 323 -317 0
-23 -317 323 0
-23 -314 323 0
-23 -323 317 314 0
-24 -323 317 0
-24 323 -317 0
-25 -323 317 0
-25 323 -317 0
-26 -317 323 0
-26 -315 323 0
-26 -323 317 315 0
-27 -323 317 0
-27 323 -317 0
-28 -317 323 0
-28 -316 323 0
-28 -323 317 316 0
-29 -323 317 0
-29 323 -317 0
-30 -323 317 0
-30 -323 318 0
-30 323 -317 -318 0
-92 -323 317 0
-92 323 -317 0
-16 -324 318 0
-16 324 -318 0
-17 -324 318 0
-17 324 -318 0
-18 -324 318 0
-18 324 -318 0
-19 -324 318 0
-19 324 -318 0
-20 -318 324 0
-20 -313 324 0
-20 -324 318 313 0
-21 -324 318 0
-21 324 -318 0
-22 -324 318 0
-22 324 -318 0
-23 -324 318 0
-23 324 -318 0
-24 -318 324 0
-24 -314 324 0
-24 -324 318 314 0
-25 -324 318 0
-25 324 -318 0
-26 -324 318 0
-26 324 -318 0
-27 -318 324 0
-27 -315 324 0
-27 -324 318 315 0
-28 -324 318 0
-28 324 -318 0
-29 -318 324 0
-29 -316 324 0
-29 -324 318 316 0
-30 -318 324 0
-30 -317 324 0
-30 -324 318 317 0
-92 -324 318 0
-92 324 -318 0
-31 -325 319 0
-31 -325 320 0
-31 325 -319 -320 0
-32 -325 319 0
-32 -325 321 0
-32 325 -319 -321 0
-33 -325 319 0
-33 -325 322 0
-33 325 -319 -322 0
-34 -325 319 0
-34 -325 323 0
-34 325 -319 -323 0
-35 -325 319 0
-35 -325 324 0
-35 325 -319 -324 0
-36 -325 319 0
-36 325 -319 0
-37 -325 319 0
-37 325 -319 0
-38 -325 319 0
-38 325 -319 0
-39 -325 319 0
-39 325 -319 0
-40 -325 319 0
-40 325 -319 0
-41 -325 319 0
-41 325 -319 0
-42 -325 319 0
-42 325 -319 0
-43 -325 319 0
-43 325 -319 0
-44 -325 319 0
-44 325 -319 0
-45 -325 319 0
-45 325 -319 0
-93 -325 319 0
-93 325 -319 0
-31 -320 326 0
-31 -319 326 0
-31 -326 320 319 0
-32 -326 320 0
-32 326 -320 0
-33 -326 320 0
-33 326 -320 0
-34 -326 320 0
-34 326 -320 0
-35 -326 320 0
-35 326 -320 0
-36 -326 320 0
-36 -326 321 0
-36 326 -320 -321 0
-37 -326 320 0
-37 -326 322 0
-37 326 -320 -322 0
-38 -326 320 0
-38 -326 323 0
-38 326 -320 -323 0
-39 -326 320 0
-39 -326 324 0
-39 326 -320 -324 0
-40 -326 320 0
-40 326 -320 0
-41 -326 320 0
-41 326 -320 0
-42 -326 320 0
-42 326 -320 0
-43 -326 320 0
-43 326 -320 0
-44 -326 320 0
-44 326 -320 0
-45 -326 320 0
-45 326 -320 0
-93 -326 320 0
-93 326 -320 0
-31 -327 321 0
-31 327 -321 0
-32 -321 327 0
-32 -319 327 0
-32 -327 321 319 0
-33 -327 321 0
-33 327 -321 0
-34 -327 321 0
-34 327 -321 0
-35 -327 321 0
-35 327 -321 0
-36 -321 327 0
-36 -320 327 0
-36 -327 321 320 0
-37 -327 321 0
-37 327 -321 0
-38 -327 321 0
-38 327 -321 0
-39 -327 321 0
-39 327 -321 0
-40 -327 321 0
-40 -327 322 0
-40 327 -321 -322 0
-41 -327 321 0
-41 -327 323 0
-41 327 -321 -323 0
-42 -327 321 0
-42 -327 324 0
-42 327 -321 -324 0
-43 -327 321 0
-43 327 -321 0
-44 -327 321 0
-44 327 -321 0
-45 -327 321 0
-45 327 -321 0
-93 -327 321 0
-93 327 -321 0
-31 -328 322 0
-31 328 -322 0
-32 -328 322 0
-32 328 -322 0
-33 -322 328 0
-33 -319 328 0
-33 -328 322 319 0
-34 -328 322 0
-34 328 -322 0
-35 -328 322 0
-35 328 -322 0
-36 -328 322 0
-36 328 -322 0
-37 -322 328 0
-37 -320 328 0
-37 -328 322 320 0
-38 -328 322 0
-38 328 -322 0
-39 -328 322 0
-39 328 -322 0
-40 -322 328 0
-40 -321 328 0
-40 -328 322 321 0
-41 -328 322 0
-41 328 -322 0
-42 -328 322 0
-42 328 -322 0
-43 -328 322 0
-43 -328 323 0
-43 328 -322 -323 0
-44 -328 322 0
-44 -328 324 0
-44 328 -322 -324 0
-45 -328 322 0
-45 328 -322 0
-93 -328 322 0
-93 328 -322 0
-31 -329 323 0
-31 329 -323 0
-32 -329 323 0
-32 329 -323 0
-33 -329 323 0
-33 329 -323 0
-34 -323 329 0
-34 -319 329 0
-34 -329 323 319 0
-35 -329 323 0
-35 329 -323 0
-36 -329 323 0
-36 329 -323 0
-37 -329 323 0
-37 329 -323 0
-38 -323 329 0
-38 -320 329 0
-38 -329 323 320 0
-39 -329 323 0
-39 329 -323 0
-40 -329 323 0
-40 329 -323 0
-41 -323 329 0
-41 -321 329 0
-41 -329 323 321 0
-42 -329 323 0
-42 329 -323 0
-43 -323 329 0
-43 -322 329 0
-43 -329 323 322 0
-44 -329 323 0
-44 329 -323 0
-45 -329 323 0
-45 -329 324 0
-45 329 -323 -324 0
-93 -329 323 0
-93 329 -323 0
-31 -330 324 0
-31 330 -324 0
-32 -330 324 0
-32 330 -324 0
-33 -330 324 0
-33 330 -324 0
-34 -330 324 0
-34 330 -324 0
-35 -324 330 0
-35 -319 330 0
-35 -330 324 319 0
-36 -330 324 0
-36 330 -324 0
-37 -330 324 0
-37 330 -324 0
-38 -330 324 0
-38 330 -324 0
-39 -324 330 0
-39 -320 330 0
-39 -330 324 320 0
-40 -330 324 0
-40 330 -324 0
-41 -330 324 0
-41 330 -324 0
-42 -324 330 0
-42 -321 330 0
-42 -330 324 321 0
-43 -330 324 0
-43 330 -324 0
-44 -324 330 0
-44 -322 330 0
-44 -330 324 322 0
-45 -324 330 0
-45 -323 330 0
-45 -330 324 323 0
-93 -330 324 0
-93 330 -324 0
-46 -331 325 0
-46 -331 326 0
-46 331 -325 -326 0
-47 -331 325 0
-47 -331 327 0
-47 331 -325 -327 0
-48 -331 325 0
-48 -331 328 0
-48 331 -325 -328 0
-49 -331 325 0
-49 -331 329 0
-49 331 -325 -329 0
-50 -331 325 0
-50 -331 330 0
-50 331 -325 -330 0
-51 -331 325 0
-51 331 -325 0
-52 -331 325 0
-52 331 -325 0
-53 -331 325 0
-53 331 -325 0
-54 -331 325 0
-54 331 -325 0
-55 -331 325 0
-55 331 -325 0
-56 -331 325 0
-56 331 -325 0
-57 -331 325 0
-57 331 -325 0
-58 -331 325 0
-58 331 -325 0
-59 -331 325 0
-59 331 -325 0
-60 -331 325 0
-60 331 -325 0
-94 -331 325 0
-94 331 -325 0
-46 -326 332 0
-46 -325 332 0
-46 -332 326 325 0
-47 -332 326 0
-47 332 -326 0
-48 -332 326 0
-48 332 -326 0
-49 -332 326 0
-49 332 -326 0
-50 -332 326 0
-50 332 -326 0
-51 -332 326 0
-51 -332 327 0
-51 332 -326 -327 0
-52 -332 326 0
-52 -332 328 0
-52 332 -326 -328 0
-53 -332 326 0
-53 -332 329 0
-53 332 -326 -329 0
-54 -332 326 0
-54 -332 330 0
-54 332 -326 -330 0
-55 -332 326 0
-55 332 -326 0
-56 -332 326 0
-56 332 -326 0
-57 -332 326 0
-57 332 -326 0
-58 -332 326 0
-58 332 -326 0
-59 -332 326 0
-59 332 -326 0
-60 -332 326 0
-60 332 -326 0
-94 -332 326 0
-94 332 -326 0
-46 -333 327 0
-46 333 -327 0
-47 -327 333 0
-47 -325 333 0
-47 -333 327 325 0
-48 -333 327 0
-48 333 -327 0
-49 -333 327 0
-49 333 -327 0
-50 -333 327 0
-50 333 -327 0
-51 -327 333 0
-51 -326 333 0
-51 -333 327 326 0
-52 -333 327 0
-52 333 -327 0
-53 -333 327 0
-53 333 -327 0
-54 -333 327 0
-54 333 -327 0
-55 -333 327 0
-55 -333 328 0
-55 333 -327 -328 0
-56 -333 327 0
-56 -333 329 0
-56 333 -327 -329 0
-57 -333 327 0
-57 -333 330 0
-57 333 -327 -330 0
-58 -333 327 0
-58 333 -327 0
-59 -333 327 0
-59 333 -327 0
-60 -333 327 0
-60 333 -327 0
-94 -333 327 0
-94 333 -327 0
-46 -334 328 0
-46 334 -328 0
-47 -334 328 0
-47 334 -328 0
-48 -328 334 0
-48 -325 334 0
-48 -334 328 325 0
-49 -334 328 0
-49 334 -328 0
-50 -334 328 0
-50 334 -328 0
-51 -334 328 0
-51 334 -328 0
-52 -328 334 0
-52 -326 334 0
-52 -334 328 326 0
-53 -334 328 0
-53 334 -328 0
-54 -334 328 0
-54 334 -328 0
-55 -328 334 0
-55 -327 334 0
-55 -334 328 327 0
-56 -334 328 0
-56 334 -328 0
-57 -334 328 0
-57 334 -328 0
-58 -334 328 0
-58 -334 329 0
-58 334 -328 -329 0
-59 -334 328 0
-59 -334 330 0
-59 334 -328 -330 0
-60 -334 328 0
-60 334 -328 0
-94 -334 328 0
-94 334 -328 0
-46 -335 329 0
-46 335 -329 0
-47 -335 329 0
-47 335 -329 0
-48 -335 329 0
-48 335 -329 0
-49 -329 335 0
-49 -325 335 0
-49 -335 329 325 0
-50 -335 329 0
-50 335 -329 0
-51 -335 329 0
-51 335 -329 0
-52 -335 329 0
-52 335 -329 0
-53 -329 335 0
-53 -326 335 0
-53 -335 329 326 0
-54 -335 329 0
-54 335 -329 0
-55 -335 329 0
-55 335 -329 0
-56 -329 335 0
-56 -327 335 0
-56 -335 329 327 0
-57 -335 329 0
-57 335 -329 0
-58 -329 335 0
-58 -328 335 0
-58 -335 329 328 0
-59 -335 329 0
-59 335 -329 0
-60 -335 329 0
-60 -335 330 0
-60 335 -329 -330 0
-94 -335 329 0
-94 335 -329 0
-46 -336 330 0
-46 336 -330 0
-47 -336 330 0
-47 336 -330 0
-48 -336 330 0
-48 336 -330 0
-49 -336 330 0
-49 336 -330 0
-50 -330 336 0
-50 -325 336 0
-50 -336 330 325 0
-51 -336 330 0
-51 336 -330 0
-52 -336 330 0
-52 336 -330 0
-53 -336 330 0
-53 336 -330 0
-54 -330 336 0
-54 -326 336 0
-54 -336 330 326 0
-55 -336 330 0
-55 336 -330 0
-56 -336 330 0
-56 336 -330 0
-57 -330 336 0
-57 -327 336 0
-57 -336 330 327 0
-58 -336 330 0
-58 336 -330 0
-59 -330 336 0
-59 -328 336 0
-59 -336 330 328 0
-60 -330 336 0
-60 -329 336 0
-60 -336 330 329 0
-94 -336 330 0
-94 336 -330 0
-61 -337 331 0
-61 -337 332 0
-61 337 -331 -332 0
-62 -337 331 0
-62 -337 333 0
-62 337 -331 -333 0
-63 -337 331 0
-63 -337 334 0
-63 337 -331 -334 0
-64 -337 331 0
-64 -337 335 0
-64 337 -331 -335 0
-65 -337 331 0
-65 -337 336 0
-65 337 -331 -336 0
-66 -337 331 0
-66 337 -331 0
-67 -337 331 0
-67 337 -331 0
-68 -337 331 0
-68 337 -331 0
-69 -337 331 0
-69 337 -331 0
-70 -337 331 0
-70 337 -331 0
-71 -337 331 0
-71 337 -331 0
-72 -337 331 0
-72 337 -331 0
-73 -337 331 0
-73 337 -331 0
-74 -337 331 0
-74 337 -331 0
-75 -337 331 0
-75 337 -331 0
-95 -337 331 0
-95 337 -331 0
-61 -332 338 0
-61 -331 338 0
-61 -338 332 331 0
-62 -338 332 0
-62 338 -332 0
-63 -338 332 0
-63 338 -332 0
-64 -338 332 0
-64 338 -332 0
-65 -338 332 0
-65 338 -332 0
-66 -338 332 0
-66 -338 333 0
-66 338 -332 -333 0
-67 -338 332 0
-67 -338 334 0
-67 338 -332 -334 0
-68 -338 332 0
-68 -338 335 0
-68 338 -332 -335 0
-69 -338 332 0
-69 -338 336 0
-69 338 -332 -336 0
-70 -338 332 0
-70 338 -332 0
-71 -338 332 0
-71 338 -332 0
-72 -338 332 0
-72 338 -332 0
-73 -338 332 0
-73 338 -332 0
-74 -338 332 0
-74 338 -332 0
-75 -338 332 0
-75 338 -332 0
-95 -338 332 0
-95 338 -332 0
-61 -339 333 0
-61 339 -333 0
-62 -333 339 0
-62 -331 339 0
-62 -339 333 331 0
-63 -339 333 0
-63 339 -333 0
-64 -339 333 0
-64 339 -333 0
-65 -339 333 0
-65 339 -333 0
-66 -333 339 0
-66 -332 339 0
-66 -339 333 332 0
-67 -339 333 0
-67 339 -333 0
-68 -339 333 0
-68 339 -333 0
-69 -339 333 0
-69 339 -333 0
-70 -339 333 0
-70 -339 334 0
-70 339 -333 -334 0
-71 -339 333 0
-71 -339 335 0
-71 339 -333 -335 0
-72 -339 333 0
-72 -339 336 0
-72 339 -333 -336 0
-73 -339 333 0
-73 339 -333 0
-74 -339 333 0
-74 339 -333 0
-75 -339 333 0
-75 339 -333 0
-95 -339 333 0
-95 339 -333 0
-61 -340 334 0
-61 340 -334 0
-62 -340 334 0
-62 340 -334 0
-63 -334 340 0
-63 -331 340 0
-63 -340 334 331 0
-64 -340 334 0
-64 340 -334 0
-65 -340 334 0
-65 340 -334 0
-66 -340 334 0
-66 340 -334 0
-67 -334 340 0
-67 -332 340 0
-67 -340 334 332 0
-68 -340 334 0
-68 340 -334 0
-69 -340 334 0
-69 340 -334 0
-70 -334 340 0
-70 -333 340 0
-70 -340 334 333 0
-71 -340 334 0
-71 340 -334 0
-72 -340 334 0
-72 340 -334 0
-73 -340 334 0
-73 -340 335 0
-73 340 -334 -335 0
-74 -340 334 0
-74 -340 336 0
-74 340 -334 -336 0
-75 -340 334 0
-75 340 -334 0
-95 -340 334 0
-95 340 -334 0
-61 -341 335 0
-61 341 -335 0
-62 -341 335 0
-62 341 -335 0
-63 -341 335 0
-63 341 -335 0
-64 -335 341 0
-64 -331 341 0
-64 -341 335 331 0
-65 -341 335 0
-65 341 -335 0
-66 -341 335 0
-66 341 -335 0
-67 -341 335 0
-67 341 -335 0
-68 -335 341 0
-68 -332 341 0
-68 -341 335 332 0
-69 -341 335 0
-69 341 -335 0
-70 -341 335 0
-70 341 -335 0
-71 -335 341 0
-71 -333 341 0
-71 -341 335 333 0
-72 -341 335 0
-72 341 -335 0
-73 -335 341 0
-73 -334 341 0
-73 -341 335 334 0
-74 -341 335 0
-74 341 -335 0
-75 -341 335 0
-75 -341 336 0
-75 341 -335 -336 0
-95 -341 335 0
-95 341 -335 0
-61 -342 336 0
-61 342 -336 0
-62 -342 336 0
-62 342 -336 0
-63 -342 336 0
-63 342 -336 0
-64 -342 336 0
-64 342 -336 0
-65 -336 342 0
-65 -331 342 0
-65 -342 336 331 0
-66 -342 336 0
-66 342 -336 0
-67 -342 336 0
-67 342 -336 0
-68 -342 336 0
-68 342 -336 0
-69 -336 342 0
-69 -332 342 0
-69 -342 336 332 0
-70 -342 336 0
-70 342 -336 0
-71 -342 336 0
-71 342 -336 0
-72 -336 342 0
-72 -333 342 0
-72 -342 336 333 0
-73 -342 336 0
-73 342 -336 0
-74 -336 342 0
-74 -334 342 0
-74 -342 336 334 0
-75 -336 342 0
-75 -335 342 0
-75 -342 336 335 0
-95 -342 336 0
-95 342 -336 0
-76 -343 337 0
-76 -343 338 0
-76 343 -337 -338 0
-77 -343 337 0
-77 -343 339 0
-77 343 -337 -339 0
-78 -343 337 0
-78 -343 340 0
-78 343 -337 -340 0
-79 -343 337 0
-79 -343 341 0
-79 343 -337 -341 0
-80 -343 337 0
-80 -343 342 0
-80 343 -337 -342 0
-81 -343 337 0
-81 343 -337 0
-82 -343 337 0
-82 343 -337 0
-83 -343 337 0
-83 343 -337 0
-84 -343 337 0
-84 343 -337 0
-85 -343 337 0
-85 343 -337 0
-86 -343 337 0
-86 343 -337 0
-87 -343 337 0
-87 343 -337 0
-88 -343 337 0
-88 343 -337 0
-89 -343 337 0
-89 343 -337 0
-90 -343 337 0
-90 343 -337 0
-96 -343 337 0
-96 343 -337 0
-76 -338 344 0
-76 -337 344 0
-76 -344 338 337 0
-77 -344 338 0
-77 344 -338 0
-78 -344 338 0
-78 344 -338 0
-79 -344 338 0
-79 344 -338 0
-80 -344 338 0
-80 344 -338 0
-81 -344 338 0
-81 -344 339 0
-81 344 -338 -339 0
-82 -344 338 0
-82 -344 340 0
-82 344 -338 -340 0
-83 -344 338 0
-83 -344 341 0
-83 344 -338 -341 0
-84 -344 338 0
-84 -344 342 0
-84 344 -338 -342 0
-85 -344 338 0
-85 344 -338 0
-86 -344 338 0
-86 344 -338 0
-87 -344 338 0
-87 344 -338 0
-88 -344 338 0
-88 344 -338 0
-89 -344 338 0
-89 344 -338 0
-90 -344 338 0
-90 344 -338 0
-96 -344 338 0
-96 344 -338 0
-76 -345 339 0
-76 345 -339 0
-77 -339 345 0
-77 -337 345 0
-77 -345 339 337 0
-78 -345 339 0
-78 345 -339 0
-79 -345 339 0
-79 345 -339 0
-80 -345 339 0
-80 345 -339 0
-81 -339 345 0
-81 -338 345 0
-81 -345 339 338 0
-82 -345 339 0
-82 345 -339 0
-83 -345 339 0
-83 345 -339 0
-84 -345 339 0
-84 345 -339 0
-85 -345 339 0
-85 -345 340 0
-85 345 -339 -340 0
-86 -345 339 0
-86 -345 341 0
-86 345 -339 -341 0
-87 -345 339 0
-87 -345 342 0
-87 345 -339 -342 0
-88 -345 339 0
-88 345 -339 0
-89 -345 339 0
-89 345 -339 0
-90 -345 339 0
-90 345 -339 0
-96 -345 339 0
-96 345 -339 0
-76 -346 340 0
-76 346 -340 0
-77 -346 340 0
-77 346 -340 0
-78 -340 346 0
-78 -337 346 0
-78 -346 340 337 0
-79 -346 340 0
-79 346 -340 0
-80 -346 340 0
-80 346 -340 0
-81 -346 340 0
-81 346 -340 0
-82 -340 346 0
-82 -338 346 0
-82 -346 340 338 0
-83 -346 340 0
-83 346 -340 0
-84 -346 340 0
-84 346 -340 0
-85 -340 346 0
-85 -339 346 0
-85 -346 340 339 0
-86 -346 340 0
-86 346 -340 0
-87 -346 340 0
-87 346 -340 0
-88 -346 340 0
-88 -346 341 0
-88 346 -340 -341 0
-89 -346 340 0
-89 -346 342 0
-89 346 -340 -342 0
-90 -346 340 0
-90 346 -340 0
-96 -346 340 0
-96 346 -340 0
-76 -347 341 0
-76 347 -341 0
-77 -347 341 0
-77 347 -341 0
-78 -347 341 0
-78 347 -341 0
-79 -341 347 0
-79 -337 347 0
-79 -347 341 337 0
-80 -347 341 0
-80 347 -341 0
-81 -347 341 0
-81 347 -341 0
-82 -347 341 0
-82 347 -341 0
-83 -341 347 0
-83 -338 347 0
-83 -347 341 338 0
-84 -347 341 0
-84 347 -341 0
-85 -347 341 0
-85 347 -341 0
-86 -341 347 0
-86 -339 347 0
-86 -347 341 339 0
-87 -347 341 0
-87 347 -341 0
-88 -341 347 0
-88 -340 347 0
-88 -347 341 340 0
-89 -347 341 0
-89 347 -341 0
-90 -347 341 0
-90 -347 342 0
-90 347 -341 -342 0
-96 -347 341 0
-96 347 -341 0
-76 -348 342 0
-76 348 -342 0
-77 -348 342 0
-77 348 -342 0
-78 -348 342 0
-78 348 -342 0
-79 -348 342 0
-79 348 -342 0
-80 -342 348 0
-80 -337 348 0
-80 -348 342 337 0
-81 -348 342 0
-81 348 -342 0
-82 -348 342 0
-82 348 -342 0
-83 -348 342 0
-83 348 -342 0
-84 -342 348 0
-84 -338 348 0
-84 -348 342 338 0
-85 -348 342 0
-85 348 -342 0
-86 -348 342 0
-86 348 -342 0
-87 -342 348 0
-87 -339 348 0
-87 -348 342 339 0
-88 -348 342 0
-88 348 -342 0
-89 -342 348 0
-89 -340 348 0
-89 -348 342 340 0
-90 -342 348 0
-90 -341 348 0
-90 -348 342 341 0
-96 -348 342 0
-96 348 -342 0
-349 0
-1 -355 349 0
-1 -355 350 0
-1 355 -349 -350 0
-2 -355 349 0
-2 -355 351 0
-2 355 -349 -351 0
-3 -355 349 0
-3 -355 352 0
-3 355 -349 -352 0
-4 -355 349 0
-4 -355 353 0
-4 355 -349 -353 0
-5 -355 349 0
-5 -355 354 0
-5 355 -349 -354 0
-6 -355 349 0
-6 355 -349 0
-7 -355 349 0
-7 355 -349 0
-8 -355 349 0
-8 355 -349 0
-9 -355 349 0
-9 355 -349 0
-10 -355 349 0
-10 355 -349 0
-11 -355 349 0
-11 355 -349 0
-12 -355 349 0
-12 355 -349 0
-13 -355 349 0
-13 355 -349 0
-14 -355 349 0
-14 355 -349 0
-15 -355 349 0
-15 355 -349 0
-91 -355 349 0
-91 355 -349 0
-350 0
-1 -350 356 0
-1 -349 356 0
-1 -356 350 349 0
-2 -356 350 0
-2 356 -350 0
-3 -356 350 0
-3 356 -350 0
-4 -356 350 0
-4 356 -350 0
-5 -356 350 0
-5 356 -350 0
-6 -356 350 0
-6 -356 351 0
-6 356 -350 -351 0
-7 -356 350 0
-7 -356 352 0
-7 356 -350 -352 0
-8 -356 350 0
-8 -356 353 0
-8 356 -350 -353 0
-9 -356 350 0
-9 -356 354 0
-9 356 -350 -354 0
-10 -356 350 0
-10 356 -350 0
-11 -356 350 0
-11 356 -350 0
-12 -356 350 0
-12 356 -350 0
-13 -356 350 0
-13 356 -350 0
-14 -356 350 0
-14 356 -350 0
-15 -356 350 0
-15 356 -350 0
-91 -356 350 0
-91 356 -350 0
351 0
-1 -357 351 0
-1 357 -351 0
-2 -351 357 0
-2 -349 357 0
-2 -357 351 349 0
-3 -357 351 0
-3 357 -351 0
-4 -357 351 0
-4 357 -351 0
-5 -357 351 0
-5 357 -351 0
-6 -351 357 0
-6 -350 357 0
-6 -357 351 350 0
-7 -357 351 0
-7 357 -351 0
-8 -357 351 0
-8 357 -351 0
-9 -357 351 0
-9 357 -351 0
-10 -357 351 0
-10 -357 352 0
-10 357 -351 -352 0
-11 -357 351 0
-11 -357 353 0
-11 357 -351 -353 0
-12 -357 351 0
-12 -357 354 0
-12 357 -351 -354 0
-13 -357 351 0
-13 357 -351 0
-14 -357 351 0
-14 357 -351 0
-15 -357 351 0
-15 357 -351 0
-91 -357 351 0
-91 357 -351 0
-352 0
-1 -358 352 0
-1 358 -352 0
-2 -358 352 0
-2 358 -352 0
-3 -352 358 0
-3 -349 358 0
-3 -358 352 349 0
-4 -358 352 0
-4 358 -352 0
-5 -358 352 0
-5 358 -352 0
-6 -358 352 0
-6 358 -352 0
-7 -352 358 0
-7 -350 358 0
-7 -358 352 350 0
-8 -358 352 0
-8 358 -352 0
-9 -358 352 0
-9 358 -352 0
-10 -352 358 0
-10 -351 358 0
-10 -358 352 351 0
-11 -358 352 0
-11 358 -352 0
-12 -358 352 0
-12 358 -352 0
-13 -358 352 0
-13 -358 353 0
-13 358 -352 -353 0
-14 -358 352 0
-14 -358 354 0
-14 358 -352 -354 0
-15 -358 352 0
-15 358 -352 0
-91 -358 352 0
-91 358 -352 0
353 0
-1 -359 353 0
-1 359 -353 0
-2 -359 353 0
-2 359 -353 0
-3 -359 353 0
-3 359 -353 0
-4 -353 359 0
-4 -349 359 0
-4 -359 353 349 0
-5 -359 353 0
-5 359 -353 0
-6 -359 353 0
-6 359 -353 0
-7 -359 353 0
-7 359 -353 0
-8 -353 359 0
-8 -350 359 0
-8 -359 353 350 0
-9 -359 353 0
-9 359 -353 0
-10 -359 353 0
-10 359 -353 0
-11 -353 359 0
-11 -351 359 0
-11 -359 353 351 0
-12 -359 353 0
-12 359 -353 0
-13 -353 359 0
-13 -352 359 0
-13 -359 353 352 0
-14 -359 353 0
-14 359 -353 0
-15 -359 353 0
-15 -359 354 0
-15 359 -353 -354 0
-91 -359 353 0
-91 359 -353 0
354 0
-1 -360 354 0
-1 360 -354 0
-2 -360 354 0
-2 360 -354 0
-3 -360 354 0
-3 360 -354 0
-4 -360 354 0
-4 360 -354 0
-5 -354 360 0
-5 -349 360 0
-5 -360 354 349 0
-6 -360 354 0
-6 360 -354 0
-7 -360 354 0
-7 360 -354 0
-8 -360 354 0
-8 360 -354 0
-9 -354 360 0
-9 -350 360 0
-9 -360 354 350 0
-10 -360 354 0
-10 360 -354 0
-11 -360 354 0
-11 360 -354 0
-12 -354 360 0
-12 -351 360 0
-12 -360 354 351 0
-13 -360 354 0
-13 360 -354 0
-14 -354 360 0
-14 -352 360 0
-14 -360 354 352 0
-15 -354 360 0
-15 -353 360 0
-15 -360 354 353 0
-91 -360 354 0
-91 360 -354 0
-16 -361 355 0
-16 -361 356 0
-16 361 -355 -356 0
-17 -361 355 0
-17 -361 357 0
-17 361 -355 -357 0
-18 -361 355 0
-18 -361 358 0
-18 361 -355 -358 0
-19 -361 355 0
-19 -361 359 0
-19 361 -355 -359 0
-20 -361 355 0
-20 -361 360 0
-20 361 -355 -360 0
-21 -361 355 0
-21 361 -355 0
-22 -361 355 0
-22 361 -355 0
-23 -361 355 0
-23 361 -355 0
-24 -361 355 0
-24 361 -355 0
-25 -361 355 0
-25 361 -355 0
-26 -361 355 0
-26 361 -355 0
-27 -361 355 0
-27 361 -355 0
-28 -361 355 0
-28 361 -355 0
-29 -361 355 0
-29 361 -355 0
-30 -361 355 0
-30 361 -355 0
-92 -361 355 0
-92 361 -355 0
-16 -356 362 0
-16 -355 362 0
-16 -362 356 355 0
-17 -362 356 0
-17 362 -356 0
-18 -362 356 0
-18 362 -356 0
-19 -362 356 0
-19 362 -356 0
-20 -362 356 0
-20 362 -356 0
-21 -362 356 0
-21 -362 357 0
-21 362 -356 -357 0
-22 -362 356 0
-22 -362 358 0
-22 362 -356 -358 0
-23 -362 356 0
-23 -362 359 0
-23 362 -356 -359 0
-24 -362 356 0
-24 -362 360 0
-24 362 -356 -360 0
-25 -362 356 0
-25 362 -356 0
-26 -362 356 0
-26 362 -356 0
-27 -362 356 0
-27 362 -356 0
-28 -362 356 0
-28 362 -356 0
-29 -362 356 0
-29 362 -356 0
-30 -362 356 0
-30 362 -356 0
-92 -362 356 0
-92 362 -356 0
-16 -363 357 0
-16 363 -357 0
-17 -357 363 0
-17 -355 363 0
-17 -363 357 355 0
-18 -363 357 0
-18 363 -357 0
-19 -363 357 0
-19 363 -357 0
-20 -363 357 0
-20 363 -357 0
-21 -357 363 0
-21 -356 363 0
-21 -363 357 356 0
-22 -363 357 0
-22 363 -357 0
-23 -363 357 0
-23 363 -357 0
-24 -363 357 0
-24 363 -357 0
-25 -363 357 0
-25 -363 358 0
-25 363 -357 -358 0
-26 -363 357 0
-26 -363 359 0
-26 363 -357 -359 0
-27 -363 357 0
-27 -363 360 0
-27 363 -357 -360 0
-28 -363 357 0
-28 363 -357 0
-29 -363 357 0
-29 363 -357 0
-30 -363 357 0
-30 363 -357 0
-92 -363 357 0
-92 363 -357 0
-16 -364 358 0
-16 364 -358 0
-17 -364 358 0
-17 364 -358 0
-18 -358 364 0
-18 -355 364 0
-18 -364 358 355 0
-19 -364 358 0
-19 364 -358 0
-20 -364 358 0
-20 364 -358 0
-21 -364 358 0
-21 364 -358 0
-22 -358 364 0
-22 -356 364 0
-22 -364 358 356 0
-23 -364 358 0
-23 364 -358 0
-24 -364 358 0
-24 364 -358 0
-25 -358 364 0
-25 -357 364 0
-25 -364 358 357 0
-26 -364 358 0
-26 364 -358 0
-27 -364 358 0
-27 364 -358 0
-28 -364 358 0
-28 -364 359 0
-28 364 -358 -359 0
-29 -364 358 0
-29 -364 360 0
-29 364 -358 -360 0
-30 -364 358 0
-30 364 -358 0
-92 -364 358 0
-92 364 -358 0
-16 -365 359 0
-16 365 -359 0
-17 -365 359 0
-17 365 -359 0
-18 -365 359 0
-18 365 -359 0
-19 -359 365 0
-19 -355 365 0
-19 -365 359 355 0
-20 -365 359 0
-20 365 -359 0
-21 -365 359 0
-21 365 -359 0
-22 -365 359 0
-22 365 -359 0
-23 -359 365 0
-23 -356 365 0
-23 -365 359 356 0
-24 -365 359 0
-24 365 -359 0
-25 -365 359 0
-25 365 -359 0
-26 -359 365 0
-26 -357 365 0
-26 -365 359 357 0
-27 -365 359 0
-27 365 -359 0
-28 -359 365 0
-28 -358 365 0
-28 -365 359 358 0
-29 -365 359 0
-29 365 -359 0
-30 -365 359 0
-30 -365 360 0
-30 365 -359 -360 0
-92 -365 359 0
-92 365 -359 0
-16 -366 360 0
-16 366 -360 0
-17 -366 360 0
-17 366 -360 0
-18 -366 360 0
-18 366 -360 0
-19 -366 360 0
-19 366 -360 0
-20 -360 366 0
-20 -355 366 0
-20 -366 360 355 0
-21 -366 360 0
-21 366 -360 0
-22 -366 360 0
-22 366 -360 0
-23 -366 360 0
-23 366 -360 0
-24 -360 366 0
-24 -356 366 0
-24 -366 360 356 0
-25 -366 360 0
-25 366 -360 0
-26 -366 360 0
-26 366 -360 0
-27 -360 366 0
-27 -357 366 0
-27 -366 360 357 0
-28 -366 360 0
-28 366 -360 0
-29 -360 366 0
-29 -358 366 0
-29 -366 360 358 0
-30 -360 366 0
-30 -359 366 0
-30 -366 360 359 0
-92 -366 360 0
-92 366 -360 0
-31 -367 361 0
-31 -367 362 0
-31 367 -361 -362 0
-32 -367 361 0
-32 -367 363 0
-32 367 -361 -363 0
-33 -367 361 0
-33 -367 364 0
-33 367 -361 -364 0
-34 -367 361 0
-34 -367 365 0
-34 367 -361 -365 0
-35 -367 361 0
-35 -367 366 0
-35 367 -361 -366 0
-36 -367 361 0
-36 367 -361 0
-37 -367 361 0
-37 367 -361 0
-38 -367 361 0
-38 367 -361 0
-39 -367 361 0
-39 367 -361 0
-40 -367 361 0
-40 367 -361 0
-41 -367 361 0
-41 367 -361 0
-42 -367 361 0
-42 367 -361 0
-43 -367 361 0
-43 367 -361 0
-44 -367 361 0
-44 367 -361 0
-45 -367 361 0
-45 367 -361 0
-93 -367 361 0
-93 367 -361 0
-31 -362 368 0
-31 -361 368 0
-31 -368 362 361 0
-32 -368 362 0
-32 368 -362 0
-33 -368 362 0
-33 368 -362 0
-34 -368 362 0
-34 368 -362 0
-35 -368 362 0
-35 368 -362 0
-36 -368 362 0
-36 -368 363 0
-36 368 -362 -363 0
-37 -368 362 0
-37 -368 364 0
-37 368 -362 -364 0
-38 -368 362 0
-38 -368 365 0
-38 368 -362 -365 0
-39 -368 362 0
-39 -368 366 0
-39 368 -362 -366 0
-40 -368 362 0
-40 368 -362 0
-41 -368 362 0
-41 368 -362 0
-42 -368 362 0
-42 368 -362 0
-43 -368 362 0
-43 368 -362 0
-44 -368 362 0
-44 368 -362 0
-45 -368 362 0
-45 368 -362 0
-93 -368 362 0
-93 368 -362 0
-31 -369 363 0
-31 369 -363 0
-32 -363 369 0
-32 -361 369 0
-32 -369 363 361 0
-33 -369 363 0
-33 369 -363 0
-34 -369 363 0
-34 369 -363 0
-35 -369 363 0
-35 369 -363 0
-36 -363 369 0
-36 -362 369 0
-36 -369 363 362 0
-37 -369 363 0
-37 369 -363 0
-38 -369 363 0
-38 369 -363 0
-39 -369 363 0
-39 369 -363 0
-40 -369 363 0
-40 -369 364 0
-40 369 -363 -364 0
-41 -369 363 0
-41 -369 365 0
-41 369 -363 -365 0
-42 -369 363 0
-42 -369 366 0
-42 369 -363 -366 0
-43 -369 363 0
-43 369 -363 0
-44 -369 363 0
-44 369 -363 0
-45 -369 363 0
-45 369 -363 0
-93 -369 363 0
-93 369 -363 0
-31 -370 364 0
-31 370 -364 0
-32 -370 364 0
-32 370 -364 0
-33 -364 370 0
-33 -361 370 0
-33 -370 364 361 0
-34 -370 364 0
-34 370 -364 0
-35 -370 364 0
-35 370 -364 0
-36 -370 364 0
-36 370 -364 0
-37 -364 370 0
-37 -362 370 0
-37 -370 364 362 0
-38 -370 364 0
-38 370 -364 0
-39 -370 364 0
-39 370 -364 0
-40 -364 370 0
-40 -363 370 0
-40 -370 364 363 0
-41 -370 364 0
-41 370 -364 0
-42 -370 364 0
-42 370 -364 0
-43 -370 364 0
-43 -370 365 0
-43 370 -364 -365 0
-44 -370 364 0
-44 -370 366 0
-44 370 -364 -366 0
-45 -370 364 0
-45 370 -364 0
-93 -370 364 0
-93 370 -364 0
-31 -371 365 0
-31 371 -365 0
-32 -371 365 0
-32 371 -365 0
-33 -371 365 0
-33 371 -365 0
-34 -365 371 0
-34 -361 371 0
-34 -371 365 361 0
-35 -371 365 0
-35 371 -365 0
-36 -371 365 0
-36 371 -365 0
-37 -371 365 0
-37 371 -365 0
-38 -365 371 0
-38 -362 371 0
-38 -371 365 362 0
-39 -371 365 0
-39 371 -365 0
-40 -371 365 0
-40 371 -365 0
-41 -365 371 0
-41 -363 371 0
-41 -371 365 363 0
-42 -371 365 0
-42 371 -365 0
-43 -365 371 0
-43 -364 371 0
-43 -371 365 364 0
-44 -371 365 0
-44 371 -365 0
-45 -371 365 0
-45 -371 366 0
-45 371 -365 -366 0
-93 -371 365 0
-93 371 -365 0
-31 -372 366 0
-31 372 -366 0
-32 -372 366 0
-32 372 -366 0
-33 -372 366 0
-33 372 -366 0
-34 -372 366 0
-34 372 -366 0
-35 -366 372 0
-35 -361 372 0
-35 -372 366 361 0
-36 -372 366 0
-36 372 -366 0
-37 -372 366 0
-37 372 -366 0
-38 -372 366 0
-38 372 -366 0
-39 -366 372 0
-39 -362 372 0
-39 -372 366 362 0
-40 -372 366 0
-40 372 -366 0
-41 -372 366 0
-41 372 -366 0
-42 -366 372 0
-42 -363 372 0
-42 -372 366 363 0
-43 -372 366 0
-43 372 -366 0
-44 -366 372 0
-44 -364 372 0
-44 -372 366 364 0
-45 -366 372 0
-45 -365 372 0
-45 -372 366 365 0
-93 -372 366 0
-93 372 -366 0
-46 -373 367 0
-46 -373 368 0
-46 373 -367 -368 0
-47 -373 367 0
-47 -373 369 0
-47 373 -367 -369 0
-48 -373 367 0
-48 -373 370 0
-48 373 -367 -370 0
-49 -373 367 0
-49 -373 371 0
-49 373 -367 -371 0
-50 -373 367 0
-50 -373 372 0
-50 373 -367 -372 0
-51 -373 367 0
-51 373 -367 0
-52 -373 367 0
-52 373 -367 0
-53 -373 367 0
-53 373 -367 0
-54 -373 367 0
-54 373 -367 0
-55 -373 367 0
-55 373 -367 0
-56 -373 367 0
-56 373 -367 0
-57 -373 367 0
-57 373 -367 0
-58 -373 367 0
-58 373 -367 0
-59 -373 367 0
-59 373 -367 0
-60 -373 367 0
-60 373 -367 0
-94 -373 367 0
-94 373 -367 0
-46 -368 374 0
-46 -367 374 0
-46 -374 368 367 0
-47 -374 368 0
-47 374 -368 0
-48 -374 368 0
-48 374 -368 0
-49 -374 368 0
-49 374 -368 0
-50 -374 368 0
-50 374 -368 0
-51 -374 368 0
-51 -374 369 0
-51 374 -368 -369 0
-52 -374 368 0
-52 -374 370 0
-52 374 -368 -370 0
-53 -374 368 0
-53 -374 371 0
-53 374 -368 -371 0
-54 -374 368 0
-54 -374 372 0
-54 374 -368 -372 0
-55 -374 368 0
-55 374 -368 0
-56 -374 368 0
-56 374 -368 0
-57 -374 368 0
-57 374 -368 0
-58 -374 368 0
-58 374 -368 0
-59 -374 368 0
-59 374 -368 0
-60 -374 368 0
-60 374 -368 0
-94 -374 368 0
-94 374 -368 0
-46 -375 369 0
-46 375 -369 0
-47 -369 375 0
-47 -367 375 0
-47 -375 369 367 0
-48 -375 369 0
-48 375 -369 0
-49 -375 369 0
-49 375 -369 0
-50 -375 369 0
-50 375 -369 0
-51 -369 375 0
-51 -368 375 0
-51 -375 369 368 0
-52 -375 369 0
-52 375 -369 0
-53 -375 369 0
-53 375 -369 0
-54 -375 369 0
-54 375 -369 0
-55 -375 369 0
-55 -375 370 0
-55 375 -369 -370 0
-56 -375 369 0
-56 -375 371 0
-56 375 -369 -371 0
-57 -375 369 0
-57 -375 372 0
-57 375 -369 -372 0
-58 -375 369 0
-58 375 -369 0
-59 -375 369 0
-59 375 -369 0
-60 -375 369 0
-60 375 -369 0
-94 -375 369 0
-94 375 -369 0
-46 -376 370 0
-46 376 -370 0
-47 -376 370 0
-47 376 -370 0
-48 -370 376 0
-48 -367 376 0
-48 -376 370 367 0
-49 -376 370 0
-49 376 -370 0
-50 -376 370 0
-50 376 -370 0
-51 -376 370 0
-51 376 -370 0
-52 -370 376 0
-52 -368 376 0
-52 -376 370 368 0
-53 -376 370 0
-53 376 -370 0
-54 -376 370 0
-54 376 -370 0
-55 -370 376 0
-55 -369 376 0
-55 -376 370 369 0
-56 -376 370 0
-56 376 -370 0
-57 -376 370 0
-57 376 -370 0
-58 -376 370 0
-58 -376 371 0
-58 376 -370 -371 0
-59 -376 370 0
-59 -376 372 0
-59 376 -370 -372 0
-60 -376 370 0
-60 376 -370 0
-94 -376 370 0
-94 376 -370 0
-46 -377 371 0
-46 377 -371 0
-47 -377 371 0
-47 377 -371 0
-48 -377 371 0
-48 377 -371 0
-49 -371 377 0
-49 -367 377 0
-49 -377 371 367 0
-50 -377 371 0
-50 377 -371 0
-51 -377 371 0
-51 377 -371 0
-52 -377 371 0
-52 377 -371 0
-53 -371 377 0
-53 -368 377 0
-53 -377 371 368 0
-54 -377 371 0
-54 377 -371 0
-55 -377 371 0
-55 377 -371 0
-56 -371 377 0
-56 -369 377 0
-56 -377 371 369 0
-57 -377 371 0
-57 377 -371 0
-58 -371 377 0
-58 -370 377 0
-58 -377 371 370 0
-59 -377 371 0
-59 377 -371 0
-60 -377 371 0
-60 -377 372 0
-60 377 -371 -372 0
-94 -377 371 0
-94 377 -371 0
-46 -378 372 0
-46 378 -372 0
-47 -378 372 0
-47 378 -372 0
-48 -378 372 0
-48 378 -372 0
-49 -378 372 0
-49 378 -372 0
-50 -372 378 0
-50 -367 378 0
-50 -378 372 367 0
-51 -378 372 0
-51 378 -372 0
-52 -378 372 0
-52 378 -372 0
-53 -378 372 0
-53 378 -372 0
-54 -372 378 0
-54 -368 378 0
-54 -378 372 368 0
-55 -378 372 0
-55 378 -372 0
-56 -378 372 0
-56 378 -372 0
-57 -372 378 0
-57 -369 378 0
-57 -378 372 369 0
-58 -378 372 0
-58 378 -372 0
-59 -372 378 0
-59 -370 378 0
-59 -378 372 370 0
-60 -372 378 0
-60 -371 378 0
-60 -378 372 371 0
-94 -378 372 0
-94 378 -372 0
-61 -379 373 0
-61 -379 374 0
-61 379 -373 -374 0
-62 -379 373 0
-62 -379 375 0
-62 379 -373 -375 0
-63 -379 373 0
-63 -379 376 0
-63 379 -373 -376 0
-64 -379 373 0
-64 -379 377 0
-64 379 -373 -377 0
-65 -379 373 0
-65 -379 378 0
-65 379 -373 -378 0
-66 -379 373 0
-66 379 -373 0
-67 -379 373 0
-67 379 -373 0
-68 -379 373 0
-68 379 -373 0
-69 -379 373 0
-69 379 -373 0
-70 -379 373 0
-70 379 -373 0
-71 -379 373 0
-71 379 -373 0
-72 -379 373 0
-72 379 -373 0
-73 -379 373 0
-73 379 -373 0
-74 -379 373 0
-74 379 -373 0
-75 -379 373 0
-75 379 -373 0
-95 -379 373 0
-95 379 -373 0
-61 -374 380 0
-61 -373 380 0
-61 -380 374 373 0
-62 -380 374 0
-62 380 -374 0
-63 -380 374 0
-63 380 -374 0
-64 -380 374 0
-64 380 -374 0
-65 -380 374 0
-65 380 -374 0
-66 -380 374 0
-66 -380 375 0
-66 380 -374 -375 0
-67 -380 374 0
-67 -380 376 0
-67 380 -374 -376 0
-68 -380 374 0
-68 -380 377 0
-68 380 -374 -377 0
-69 -380 374 0
-69 -380 378 0
-69 380 -374 -378 0
-70 -380 374 0
-70 380 -374 0
-71 -380 374 0
-71 380 -374 0
-72 -380 374 0
-72 380 -374 0
-73 -380 374 0
-73 380 -374 0
-74 -380 374 0
-74 380 -374 0
-75 -380 374 0
-75 380 -374 0
-95 -380 374 0
-95 380 -374 0
-61 -381 375 0
-61 381 -375 0
-62 -375 381 0
-62 -373 381 0
-62 -381 375 373 0
-63 -381 375 0
-63 381 -375 0
-64 -381 375 0
-64 381 -375 0
-65 -381 375 0
-65 381 -375 0
-66 -375 381 0
-66 -374 381 0
-66 -381 375 374 0
-67 -381 375 0
-67 381 -375 0
-68 -381 375 0
-68 381 -375 0
-69 -381 375 0
-69 381 -375 0
-70 -381 375 0
-70 -381 376 0
-70 381 -375 -376 0
-71 -381 375 0
-71 -381 377 0
-71 381 -375 -377 0
-72 -381 375 0
-72 -381 378 0
-72 381 -375 -378 0
-73 -381 375 0
-73 381 -375 0
-74 -381 375 0
-74 381 -375 0
-75 -381 375 0
-75 381 -375 0
-95 -381 375 0
-95 381 -375 0
-61 -382 376 0
-61 382 -376 0
-62 -382 376 0
-62 382 -376 0
-63 -376 382 0
-63 -373 382 0
-63 -382 376 373 0
-64 -382 376 0
-64 382 -376 0
-65 -382 376 0
-65 382 -376 0
-66 -382 376 0
-66 382 -376 0
-67 -376 382 0
-67 -374 382 0
-67 -382 376 374 0
-68 -382 376 0
-68 382 -376 0
-69 -382 376 0
-69 382 -376 0
-70 -376 382 0
-70 -375 382 0
-70 -382 376 375 0
-71 -382 376 0
-71 382 -376 0
-72 -382 376 0
-72 382 -376 0
-73 -382 376 0
-73 -382 377 0
-73 382 -376 -377 0
-74 -382 376 0
-74 -382 378 0
-74 382 -376 -378 0
-75 -382 376 0
-75 382 -376 0
-95 -382 376 0
-95 382 -376 0
-61 -383 377 0
-61 383 -377 0
-62 -383 377 0
-62 383 -377 0
-63 -383 377 0
-63 383 -377 0
-64 -377 383 0
-64 -373 383 0
-64 -383 377 373 0
-65 -383 377 0
-65 383 -377 0
-66 -383 377 0
-66 383 -377 0
-67 -383 377 0
-67 383 -377 0
-68 -377 383 0
-68 -374 383 0
-68 -383 377 374 0
-69 -383 377 0
-69 383 -377 0
-70 -383 377 0
-70 383 -377 0
-71 -377 383 0
-71 -375 383 0
-71 -383 377 375 0
-72 -383 377 0
-72 383 -377 0
-73 -377 383 0
-73 -376 383 0
-73 -383 377 376 0
-74 -383 377 0
-74 383 -377 0
-75 -383 377 0
-75 -383 378 0
-75 383 -377 -378 0
-95 -383 377 0
-95 383 -377 0
-61 -384 378 0
-61 384 -378 0
-62 -384 378 0
-62 384 -378 0
-63 -384 378 0
-63 384 -378 0
-64 -384 378 0
-64 384 -378 0
-65 -378 384 0
-65 -373 384 0
-65 -384 378 373 0
-66 -384 378 0
-66 384 -378 0
-67 -384 378 0
-67 384 -378 0
-68 -384 378 0
-68 384 -378 0
-69 -378 384 0
-69 -374 384 0
-69 -384 378 374 0
-70 -384 378 0
-70 384 -378 0
-71 -384 378 0
-71 384 -378 0
-72 -378 384 0
-72 -375 384 0
-72 -384 378 375 0
-73 -384 378 0
-73 384 -378 0
-74 -378 384 0
-74 -376 384 0
-74 -384 378 376 0
-75 -378 384 0
-75 -377 384 0
-75 -384 378 377 0
-95 -384 378 0
-95 384 -378 0
-76 -385 379 0
-76 -385 380 0
-76 385 -379 -380 0
-77 -385 379 0
-77 -385 381 0
-77 385 -379 -381 0
-78 -385 379 0
-78 -385 382 0
-78 385 -379 -382 0
-79 -385 379 0
-79 -385 383 0
-79 385 -379 -383 0
-80 -385 379 0
-80 -385 384 0
-80 385 -379 -384 0
-81 -385 379 0
-81 385 -379 0
-82 -385 379 0
-82 385 -379 0
-83 -385 379 0
-83 385 -379 0
-84 -385 379 0
-84 385 -379 0
-85 -385 379 0
-85 385 -379 0
-86 -385 379 0
-86 385 -379 0
-87 -385 379 0
-87 385 -379 0
-88 -385 379 0
-88 385 -379 0
-89 -385 379 0
-89 385 -379 0
-90 -385 379 0
-90 385 -379 0
-96 -385 379 0
-96 385 -379 0
-76 -380 386 0
-76 -379 386 0
-76 -386 380 379 0
-77 -386 380 0
-77 386 -380 0
-78 -386 380 0
-78 386 -380 0
-79 -386 380 0
-79 386 -380 0
-80 -386 380 0
-80 386 -380 0
-81 -386 380 0
-81 -386 381 0
-81 386 -380 -381 0
-82 -386 380 0
-82 -386 382 0
-82 386 -380 -382 0
-83 -386 380 0
-83 -386 383 0
-83 386 -380 -383 0
-84 -386 380 0
-84 -386 384 0
-84 386 -380 -384 0
-85 -386 380 0
-85 386 -380 0
-86 -386 380 0
-86 386 -380 0
-87 -386 380 0
-87 386 -380 0
-88 -386 380 0
-88 386 -380 0
-89 -386 380 0
-89 386 -380 0
-90 -386 380 0
-90 386 -380 0
-96 -386 380 0
-96 386 -380 0
-76 -387 381 0
-76 387 -381 0
-77 -381 387 0
-77 -379 387 0
-77 -387 381 379 0
-78 -387 381 0
-78 387 -381 0
-79 -387 381 0
-79 387 -381 0
-80 -387 381 0
-80 387 -381 0
-81 -381 387 0
-81 -380 387 0
-81 -387 381 380 0
-82 -387 381 0
-82 387 -381 0
-83 -387 381 0
-83 387 -381 0
-84 -387 381 0
-84 387 -381 0
-85 -387 381 0
-85 -387 382 0
-85 387 -381 -382 0
-86 -387 381 0
-86 -387 383 0
-86 387 -381 -383 0
-87 -387 381 0
-87 -387 384 0
-87 387 -381 -384 0
-88 -387 381 0
-88 387 -381 0
-89 -387 381 0
-89 387 -381 0
-90 -387 381 0
-90 387 -381 0
-96 -387 381 0
-96 387 -381 0
-76 -388 382 0
-76 388 -382 0
-77 -388 382 0
-77 388 -382 0
-78 -382 388 0
-78 -379 388 0
-78 -388 382 379 0
-79 -388 382 0
-79 388 -382 0
-80 -388 382 0
-80 388 -382 0
-81 -388 382 0
-81 388 -382 0
-82 -382 388 0
-82 -380 388 0
-82 -388 382 380 0
-83 -388 382 0
-83 388 -382 0
-84 -388 382 0
-84 388 -382 0
-85 -382 388 0
-85 -381 388 0
-85 -388 382 381 0
-86 -388 382 0
-86 388 -382 0
-87 -388 382 0
-87 388 -382 0
-88 -388 382 0
-88 -388 383 0
-88 388 -382 -383 0
-89 -388 382 0
-89 -388 384 0
-89 388 -382 -384 0
-90 -388 382 0
-90 388 -382 0
-96 -388 382 0
-96 388 -382 0
-76 -389 383 0
-76 389 -383 0
-77 -389 383 0
-77 389 -383 0
-78 -389 383 0
-78 389 -383 0
-79 -383 389 0
-79 -379 389 0
-79 -389 383 379 0
-80 -389 383 0
-80 389 -383 0
-81 -389 383 0
-81 389 -383 0
-82 -389 383 0
-82 389 -383 0
-83 -383 389 0
-83 -380 389 0
-83 -389 383 380 0
-84 -389 383 0
-84 389 -383 0
-85 -389 383 0
-85 389 -383 0
-86 -383 389 0
-86 -381 389 0
-86 -389 383 381 0
-87 -389 383 0
-87 389 -383 0
-88 -383 389 0
-88 -382 389 0
-88 -389 383 382 0
-89 -389 383 0
-89 389 -383 0
-90 -389 383 0
-90 -389 384 0
-90 389 -383 -384 0
-96 -389 383 0
-96 389 -383 0
-76 -390 384 0
-76 390 -384 0
-77 -390 384 0
-77 390 -384 0
-78 -390 384 0
-78 390 -384 0
-79 -390 384 0
-79 390 -384 0
-80 -384 390 0
-80 -379 390 0
-80 -390 384 379 0
-81 -390 384 0
-81 390 -384 0
-82 -390 384 0
-82 390 -384 0
-83 -390 384 0
-83 390 -384 0
-84 -384 390 0
-84 -380 390 0
-84 -390 384 380 0
-85 -390 384 0
-85 390 -384 0
-86 -390 384 0
-86 390 -384 0
-87 -384 390 0
-87 -381 390 0
-87 -390 384 381 0
-88 -390 384 0
-88 390 -384 0
-89 -384 390 0
-89 -382 390 0
-89 -390 384 382 0
-90 -384 390 0
-90 -383 390 0
-90 -390 384 383 0
-96 -390 384 0
-96 390 -384 0
-391 0
-1 -397 391 0
-1 -397 392 0
-1 397 -391 -392 0
-2 -397 391 0
-2 -397 393 0
-2 397 -391 -393 0
-3 -397 391 0
-3 -397 394 0
-3 397 -391 -394 0
-4 -397 391 0
-4 -397 395 0
-4 397 -391 -395 0
-5 -397 391 0
-5 -397 396 0
-5 397 -391 -396 0
-6 -397 391 0
-6 397 -391 0
-7 -397 391 0
-7 397 -391 0
-8 -397 391 0
-8 397 -391 0
-9 -397 391 0
-9 397 -391 0
-10 -397 391 0
-10 397 -391 0
-11 -397 391 0
-11 397 -391 0
-12 -397 391 0
-12 397 -391 0
-13 -397 391 0
-13 397 -391 0
-14 -397 391 0
-14 397 -391 0
-15 -397 391 0
-15 397 -391 0
-91 -397 391 0
-91 397 -391 0
-392 0
-1 -392 398 0
-1 -391 398 0
-1 -398 392 391 0
-2 -398 392 0
-2 398 -392 0
-3 -398 392 0
-3 398 -392 0
-4 -398 392 0
-4 398 -392 0
-5 -398 392 0
-5 398 -392 0
-6 -398 392 0
-6 -398 393 0
-6 398 -392 -393 0
-7 -398 392 0
-7 -398 394 0
-7 398 -392 -394 0
-8 -398 392 0
-8 -398 395 0
-8 398 -392 -395 0
-9 -398 392 0
-9 -398 396 0
-9 398 -392 -396 0
-10 -398 392 0
-10 398 -392 0
-11 -398 392 0
-11 398 -392 0
-12 -398 392 0
-12 398 -392 0
-13 -398 392 0
-13 398 -392 0
-14 -398 392 0
-14 398 -392 0
-15 -398 392 0
-15 398 -392 0
-91 -398 392 0
-91 398 -392 0
393 0
-1 -399 393 0
-1 399 -393 0
-2 -393 399 0
-2 -391 399 0
-2 -399 393 391 0
-3 -399 393 0
-3 399 -393 0
-4 -399 393 0
-4 399 -393 0
-5 -399 393 0
-5 399 -393 0
-6 -393 399 0
-6 -392 399 0
-6 -399 393 392 0
-7 -399 393 0
-7 399 -393 0
-8 -399 393 0
-8 399 -393 0
-9 -399 393 0
-9 399 -393 0
-10 -399 393 0
-10 -399 394 0
-10 399 -393 -394 0
-11 -399 393 0
-11 -399 395 0
-11 399 -393 -395 0
-12 -399 393 0
-12 -399 396 0
-12 399 -393 -396 0
-13 -399 393 0
-13 399 -393 0
-14 -399 393 0
-14 399 -393 0
-15 -399 393 0
-15 399 -393 0
-91 -399 393 0
-91 399 -393 0
394 0
-1 -400 394 0
-1 400 -394 0
-2 -400 394 0
-2 400 -394 0
-3 -394 400 0
-3 -391 400 0
-3 -400 394 391 0
-4 -400 394 0
-4 400 -394 0
-5 -400 394 0
-5 400 -394 0
-6 -400 394 0
-6 400 -394 0
-7 -394 400 0
-7 -392 400 0
-7 -400 394 392 0
-8 -400 394 0
-8 400 -394 0
-9 -400 394 0
-9 400 -394 0
-10 -394 400 0
-10 -393 400 0
-10 -400 394 393 0
-11 -400 394 0
-11 400 -394 0
-12 -400 394 0
-12 400 -394 0
-13 -400 394 0
-13 -400 395 0
-13 400 -394 -395 0
-14 -400 394 0
-14 -400 396 0
-14 400 -394 -396 0
-15 -400 394 0
-15 400 -394 0
-91 -400 394 0
-91 400 -394 0
395 0
-1 -401 395 0
-1 401 -395 0
-2 -401 395 0
-2 401 -395 0
-3 -401 395 0
-3 401 -395 0
-4 -395 401 0
-4 -391 401 0
-4 -401 395 391 0
-5 -401 395 0
-5 401 -395 0
-6 -401 395 0
-6 401 -395 0
-7 -401 395 0
-7 401 -395 0
-8 -395 401 0
-8 -392 401 0
-8 -401 395 392 0
-9 -401 395 0
-9 401 -395 0
-10 -401 395 0
-10 401 -395 0
-11 -395 401 0
-11 -393 401 0
-11 -401 395 393 0
-12 -401 395 0
-12 401 -395 0
-13 -395 401 0
-13 -394 401 0
-13 -401 395 394 0
-14 -401 395 0
-14 401 -395 0
-15 -401 395 0
-15 -401 396 0
-15 401 -395 -396 0
-91 -401 395 0
-91 401 -395 0
396 0
-1 -402 396 0
-1 402 -396 0
-2 -402 396 0
-2 402 -396 0
-3 -402 396 0
-3 402 -396 0
-4 -402 396 0
-4 402 -396 0
-5 -396 402 0
-5 -391 402 0
-5 -402 396 391 0
-6 -402 396 0
-6 402 -396 0
-7 -402 396 0
-7 402 -396 0
-8 -402 396 0
-8 402 -396 0
-9 -396 402 0
-9 -392 402 0
-9 -402 396 392 0
-10 -402 396 0
-10 402 -396 0
-11 -402 396 0
-11 402 -396 0
-12 -396 402 0
-12 -393 402 0
-12 -402 396 393 0
-13 -402 396 0
-13 402 -396 0
-14 -396 402 0
-14 -394 402 0
-14 -402 396 394 0
-15 -396 402 0
-15 -395 402 0
-15 -402 396 395 0
-91 -402 396 0
-91 402 -396 0
-16 -403 397 0
-16 -403 398 0
-16 403 -397 -398 0
-17 -403 397 0
-17 -403 399 0
-17 403 -397 -399 0
-18 -403 397 0
-18 -403 400 0
-18 403 -397 -400 0
-19 -403 397 0
-19 -403 401 0
-19 403 -397 -401 0
-20 -403 397 0
-20 -403 402 0
-20 403 -397 -402 0
-21 -403 397 0
-21 403 -397 0
-22 -403 397 0
-22 403 -397 0
-23 -403 397 0
-23 403 -397 0
-24 -403 397 0
-24 403 -397 0
-25 -403 397 0
-25 403 -397 0
-26 -403 397 0
-26 403 -397 0
-27 -403 397 0
-27 403 -397 0
-28 -403 397 0
-28 403 -397 0
-29 -403 397 0
-29 403 -397 0
-30 -403 397 0
-30 403 -397 0
-92 -403 397 0
-92 403 -397 0
-16 -398 404 0
-16 -397 404 0
-16 -404 398 397 0
-17 -404 398 0
-17 404 -398 0
-18 -404 398 0
-18 404 -398 0
-19 -404 398 0
-19 404 -398 0
-20 -404 398 0
-20 404 -398 0
-21 -404 398 0
-21 -404 399 0
-21 404 -398 -399 0
-22 -404 398 0
-22 -404 400 0
-22 404 -398 -400 0
-23 -404 398 0
-23 -404 401 0
-23 404 -398 -401 0
-24 -404 398 0
-24 -404 402 0
-24 404 -398 -402 0
-25 -404 398 0
-25 404 -398 0
-26 -404 398 0
-26 404 -398 0
-27 -404 398 0
-27 404 -398 0
-28 -404 398 0
-28 404 -398 0
-29 -404 398 0
-29 404 -398 0
-30 -404 398 0
-30 404 -398 0
-92 -404 398 0
-92 404 -398 0
-16 -405 399 0
-16 405 -399 0
-17 -399 405 0
-17 -397 405 0
-17 -405 399 397 0
-18 -405 399 0
-18 405 -399 0
-19 -405 399 0
-19 405 -399 0
-20 -405 399 0
-20 405 -399 0
-21 -399 405 0
-21 -398 405 0
-21 -405 399 398 0
-22 -405 399 0
-22 405 -399 0
-23 -405 399 0
-23 405 -399 0
-24 -405 399 0
-24 405 -399 0
-25 -405 399 0
-25 -405 400 0
-25 405 -399 -400 0
-26 -405 399 0
-26 -405 401 0
-26 405 -399 -401 0
-27 -405 399 0
-27 -405 402 0
-27 405 -399 -402 0
-28 -405 399 0
-28 405 -399 0
-29 -405 399 0
-29 405 -399 0
-30 -405 399 0
-30 405 -399 0
-92 -405 399 0
-92 405 -399 0
-16 -406 400 0
-16 406 -400 0
-17 -406 400 0
-17 406 -400 0
-18 -400 406 0
-18 -397 406 0
-18 -406 400 397 0
-19 -406 400 0
-19 406 -400 0
-20 -406 400 0
-20 406 -400 0
-21 -406 400 0
-21 406 -400 0
-22 -400 406 0
-22 -398 406 0
-22 -406 400 398 0
-23 -406 400 0
-23 406 -400 0
-24 -406 400 0
-24 406 -400 0
-25 -400 406 0
-25 -399 406 0
-25 -406 400 399 0
-26 -406 400 0
-26 406 -400 0
-27 -406 400 0
-27 406 -400 0
-28 -406 400 0
-28 -406 401 0
-28 406 -400 -401 0
-29 -406 400 0
-29 -406 402 0
-29 406 -400 -402 0
-30 -406 400 0
-30 406 -400 0
-92 -406 400 0
-92 406 -400 0
-16 -407 401 0
-16 407 -401 0
-17 -407 401 0
-17 407 -401 0
-18 -407 401 0
-18 407 -401 0
-19 -401 407 0
-19 -397 407 0
-19 -407 401 397 0
-20 -407 401 0
-20 407 -401 0
-21 -407 401 0
-21 407 -401 0
-22 -407 401 0
-22 407 -401 0
-23 -401 407 0
-23 -398 407 0
-23 -407 401 398 0
-24 -407 401 0
-24 407 -401 0
-25 -407 401 0
-25 407 -401 0
-26 -401 407 0
-26 -399 407 0
-26 -407 401 399 0
-27 -407 401 0
-27 407 -401 0
-28 -401 407 0
-28 -400 407 0
-28 -407 401 400 0
-29 -407 401 0
-29 407 -401 0
-30 -407 401 0
-30 -407 402 0
-30 407 -401 -402 0
-92 -407 401 0
-92 407 -401 0
-16 -408 402 0
-16 408 -402 0
-17 -408 402 0
-17 408 -402 0
-18 -408 402 0
-18 408 -402 0
-19 -408 402 0
-19 408 -402 0
-20 -402 408 0
-20 -397 408 0
-20 -408 402 397 0
-21 -408 402 0
-21 408 -402 0
-22 -408 402 0
-22 408 -402 0
-23 -408 402 0
-23 408 -402 0
-24 -402 408 0
-24 -398 408 0
-24 -408 402 398 0
-25 -408 402 0
-25 408 -402 0
-26 -408 402 0
-26 408 -402 0
-27 -402 408 0
-27 -399 408 0
-27 -408 402 399 0
-28 -408 402 0
-28 408 -402 0
-29 -402 408 0
-29 -400 408 0
-29 -408 402 400 0
-30 -402 408 0
-30 -401 408 0
-30 -408 402 401 0
-92 -408 402 0
-92 408 -402 0
-31 -409 403 0
-31 -409 404 0
-31 409 -403 -404 0
-32 -409 403 0
-32 -409 405 0
-32 409 -403 -405 0
-33 -409 403 0
-33 -409 406 0
-33 409 -403 -406 0
-34 -409 403 0
-34 -409 407 0
-34 409 -403 -407 0
-35 -409 403 0
-35 -409 408 0
-35 409 -403 -408 0
-36 -409 403 0
-36 409 -403 0
-37 -409 403 0
-37 409 -403 0
-38 -409 403 0
-38 409 -403 0
-39 -409 403 0
-39 409 -403 0
-40 -409 403 0
-40 409 -403 0
-41 -409 403 0
-41 409 -403 0
-42 -409 403 0
-42 409 -403 0
-43 -409 403 0
-43 409 -403 0
-44 -409 403 0
-44 409 -403 0
-45 -409 403 0
-45 409 -403 0
-93 -409 403 0
-93 409 -403 0
-31 -404 410 0
-31 -403 410 0
-31 -410 404 403 0
-32 -410 404 0
-32 410 -404 0
-33 -410 404 0
-33 410 -404 0
-34 -410 404 0
-34 410 -404 0
-35 -410 404 0
-35 410 -404 0
-36 -410 404 0
-36 -410 405 0
-36 410 -404 -405 0
-37 -410 404 0
-37 -410 406 0
-37 410 -404 -406 0
-38 -410 404 0
-38 -410 407 0
-38 410 -404 -407 0
-39 -410 404 0
-39 -410 408 0
-39 410 -404 -408 0
-40 -410 404 0
-40 410 -404 0
-41 -410 404 0
-41 410 -404 0
-42 -410 404 0
-42 410 -404 0
-43 -410 404 0
-43 410 -404 0
-44 -410 404 0
-44 410 -404 0
-45 -410 404 0
-45 410 -404 0
-93 -410 404 0
-93 410 -404 0
-31 -411 405 0
-31 411 -405 0
-32 -405 411 0
-32 -403 411 0
-32 -411 405 403 0
-33 -411 405 0
-33 411 -405 0
-34 -411 405 0
-34 411 -405 0
-35 -411 405 0
-35 411 -405 0
-36 -405 411 0
-36 -404 411 0
-36 -411 405 404 0
-37 -411 405 0
-37 411 -405 0
-38 -411 405 0
-38 411 -405 0
-39 -411 405 0
-39 411 -405 0
-40 -411 405 0
-40 -411 406 0
-40 411 -405 -406 0
-41 -411 405 0
-41 -411 407 0
-41 411 -405 -407 0
-42 -411 405 0
-42 -411 408 0
-42 411 -405 -408 0
-43 -411 405 0
-43 411 -405 0
-44 -411 405 0
-44 411 -405 0
-45 -411 405 0
-45 411 -405 0
-93 -411 405 0
-93 411 -405 0
-31 -412 406 0
-31 412 -406 0
-32 -412 406 0
-32 412 -406 0
-33 -406 412 0
-33 -403 412 0
-33 -412 406 403 0
-34 -412 406 0
-34 412 -406 0
-35 -412 406 0
-35 412 -406 0
-36 -412 406 0
-36 412 -406 0
-37 -406 412 0
-37 -404 412 0
-37 -412 406 404 0
-38 -412 406 0
-38 412 -406 0
-39 -412 406 0
-39 412 -406 0
-40 -406 412 0
-40 -405 412 0
-40 -412 406 405 0
-41 -412 406 0
-41 412 -406 0
-42 -412 406 0
-42 412 -406 0
-43 -412 406 0
-43 -412 407 0
-43 412 -406 -407 0
-44 -412 406 0
-44 -412 408 0
-44 412 -406 -408 0
-45 -412 406 0
-45 412 -406 0
-93 -412 406 0
-93 412 -406 0
-31 -413 407 0
-31 413 -407 0
-32 -413 407 0
-32 413 -407 0
-33 -413 407 0
-33 413 -407 0
-34 -407 413 0
-34 -403 413 0
-34 -413 407 403 0
-35 -413 407 0
-35 413 -407 0
-36 -413 407 0
-36 413 -407 0
-37 -413 407 0
-37 413 -407 0
-38 -407 413 0
-38 -404 413 0
-38 -413 407 404 0
-39 -413 407 0
-39 413 -407 0
-40 -413 407 0
-40 413 -407 0
-41 -407 413 0
-41 -405 413 0
-41 -413 407 405 0
-42 -413 407 0
-42 413 -407 0
-43 -407 413 0
-43 -406 413 0
-43 -413 407 406 0
-44 -413 407 0
-44 413 -407 0
-45 -413 407 0
-45 -413 408 0
-45 413 -407 -408 0
-93 -413 407 0
-93 413 -407 0
-31 -414 408 0
-31 414 -408 0
-32 -414 408 0
-32 414 -408 0
-33 -414 408 0
-33 414 -408 0
-34 -414 408 0
-34 414 -408 0
-35 -408 414 0
-35 -403 414 0
-35 -414 408 403 0
-36 -414 408 0
-36 414 -408 0
-37 -414 408 0
-37 414 -408 0
-38 -414 408 0
-38 414 -408 0
-39 -408 414 0
-39 -404 414 0
-39 -414 408 404 0
-40 -414 408 0
-40 414 -408 0
-41 -414 408 0
-41 414 -408 0
-42 -408 414 0
-42 -405 414 0
-42 -414 408 405 0
-43 -414 408 0
-43 414 -408 0
-44 -408 414 0
-44 -406 414 0
-44 -414 408 406 0
-45 -408 414 0
-45 -407 414 0
-45 -414 408 407 0
-93 -414 408 0
-93 414 -408 0
-46 -415 409 0
-46 -415 410 0
-46 415 -409 -410 0
-47 -415 409 0
-47 -415 411 0
-47 415 -409 -411 0
-48 -415 409 0
-48 -415 412 0
-48 415 -409 -412 0
-49 -415 409 0
-49 -415 413 0
-49 415 -409 -413 0
-50 -415 409 0
-50 -415 414 0
-50 415 -409 -414 0
-51 -415 409 0
-51 415 -409 0
-52 -415 409 0
-52 415 -409 0
-53 -415 409 0
-53 415 -409 0
-54 -415 409 0
-54 415 -409 0
-55 -415 409 0
-55 415 -409 0
-56 -415 409 0
-56 415 -409 0
-57 -415 409 0
-57 415 -409 0
-58 -415 409 0
-58 415 -409 0
-59 -415 409 0
-59 415 -409 0
-60 -415 409 0
-60 415 -409 0
-94 -415 409 0
-94 415 -409 0
-46 -410 416 0
-46 -409 416 0
-46 -416 410 409 0
-47 -416 410 0
-47 416 -410 0
-48 -416 410 0
-48 416 -410 0
-49 -416 410 0
-49 416 -410 0
-50 -416 410 0
-50 416 -410 0
-51 -416 410 0
-51 -416 411 0
-51 416 -410 -411 0
-52 -416 410 0
-52 -416 412 0
-52 416 -410 -412 0
-53 -416 410 0
-53 -416 413 0
-53 416 -410 -413 0
-54 -416 410 0
-54 -416 414 0
-54 416 -410 -414 0
-55 -416 410 0
-55 416 -410 0
-56 -416 410 0
-56 416 -410 0
-57 -416 410 0
-57 416 -410 0
-58 -416 410 0
-58 416 -410 0
-59 -416 410 0
-59 416 -410 0
-60 -416 410 0
-60 416 -410 0
-94 -416 410 0
-94 416 -410 0
-46 -417 411 0
-46 417 -411 0
-47 -411 417 0
-47 -409 417 0
-47 -417 411 409 0
-48 -417 411 0
-48 417 -411 0
-49 -417 411 0
-49 417 -411 0
-50 -417 411 0
-50 417 -411 0
-51 -411 417 0
-51 -410 417 0
-51 -417 411 410 0
-52 -417 411 0
-52 417 -411 0
-53 -417 411 0
-53 417 -411 0
-54 -417 411 0
-54 417 -411 0
-55 -417 411 0
-55 -417 412 0
-55 417 -411 -412 0
-56 -417 411 0
-56 -417 413 0
-56 417 -411 -413 0
-57 -417 411 0
-57 -417 414 0
-57 417 -411 -414 0
-58 -417 411 0
-58 417 -411 0
-59 -417 411 0
-59 417 -411 0
-60 -417 411 0
-60 417 -411 0
-94 -417 411 0
-94 417 -411 0
-46 -418 412 0
-46 418 -412 0
-47 -418 412 0
-47 418 -412 0
-48 -412 418 0
-48 -409 418 0
-48 -418 412 409 0
-49 -418 412 0
-49 418 -412 0
-50 -418 412 0
-50 418 -412 0
-51 -418 412 0
-51 418 -412 0
-52 -412 418 0
-52 -410 418 0
-52 -418 412 410 0
-53 -418 412 0
-53 418 -412 0
-54 -418 412 0
-54 418 -412 0
-55 -412 418 0
-55 -411 418 0
-55 -418 412 411 0
-56 -418 412 0
-56 418 -412 0
-57 -418 412 0
-57 418 -412 0
-58 -418 412 0
-58 -418 413 0
-58 418 -412 -413 0
-59 -418 412 0
-59 -418 414 0
-59 418 -412 -414 0
-60 -418 412 0
-60 418 -412 0
-94 -418 412 0
-94 418 -412 0
-46 -419 413 0
-46 419 -413 0
-47 -419 413 0
-47 419 -413 0
-48 -419 413 0
-48 419 -413 0
-49 -413 419 0
-49 -409 419 0
-49 -419 413 409 0
-50 -419 413 0
-50 419 -413 0
-51 -419 413 0
-51 419 -413 0
-52 -419 413 0
-52 419 -413 0
-53 -413 419 0
-53 -410 419 0
-53 -419 413 410 0
-54 -419 413 0
-54 419 -413 0
-55 -419 413 0
-55 419 -413 0
-56 -413 419 0
-56 -411 419 0
-56 -419 413 411 0
-57 -419 413 0
-57 419 -413 0
-58 -413 419 0
-58 -412 419 0
-58 -419 413 412 0
-59 -419 413 0
-59 419 -413 0
-60 -419 413 0
-60 -419 414 0
-60 419 -413 -414 0
-94 -419 413 0
-94 419 -413 0
-46 -420 414 0
-46 420 -414 0
-47 -420 414 0
-47 420 -414 0
-48 -420 414 0
-48 420 -414 0
-49 -420 414 0
-49 420 -414 0
-50 -414 420 0
-50 -409 420 0
-50 -420 414 409 0
-51 -420 414 0
-51 420 -414 0
-52 -420 414 0
-52 420 -414 0
-53 -420 414 0
-53 420 -414 0
-54 -414 420 0
-54 -410 420 0
-54 -420 414 410 0
-55 -420 414 0
-55 420 -414 0
-56 -420 414 0
-56 420 -414 0
-57 -414 420 0
-57 -411 420 0
-57 -420 414 411 0
-58 -420 414 0
-58 420 -414 0
-59 -414 420 0
-59 -412 420 0
-59 -420 414 412 0
-60 -414 420 0
-60 -413 420 0
-60 -420 414 413 0
-94 -420 414 0
-94 420 -414 0
-61 -421 415 0
-61 -421 416 0
-61 421 -415 -416 0
-62 -421 415 0
-62 -421 417 0
-62 421 -415 -417 0
-63 -421 415 0
-63 -421 418 0
-63 421 -415 -418 0
-64 -421 415 0
-64 -421 419 0
-64 421 -415 -419 0
-65 -421 415 0
-65 -421 420 0
-65 421 -415 -420 0
-66 -421 415 0
-66 421 -415 0
-67 -421 415 0
-67 421 -415 0
-68 -421 415 0
-68 421 -415 0
-69 -421 415 0
-69 421 -415 0
-70 -421 415 0
-70 421 -415 0
-71 -421 415 0
-71 421 -415 0
-72 -421 415 0
-72 421 -415 0
-73 -421 415 0
-73 421 -415 0
-74 -421 415 0
-74 421 -415 0
-75 -421 415 0
-75 421 -415 0
-95 -421 415 0
-95 421 -415 0
-61 -416 422 0
-61 -415 422 0
-61 -422 416 415 0
-62 -422 416 0
-62 422 -416 0
-63 -422 416 0
-63 422 -416 0
-64 -422 416 0
-64 422 -416 0
-65 -422 416 0
-65 422 -416 0
-66 -422 416 0
-66 -422 417 0
-66 422 -416 -417 0
-67 -422 416 0
-67 -422 418 0
-67 422 -416 -418 0
-68 -422 416 0
-68 -422 419 0
-68 422 -416 -419 0
-69 -422 416 0
-69 -422 420 0
-69 422 -416 -420 0
-70 -422 416 0
-70 422 -416 0
-71 -422 416 0
-71 422 -416 0
-72 -422 416 0
-72 422 -416 0
-73 -422 416 0
-73 422 -416 0
-74 -422 416 0
-74 422 -416 0
-75 -422 416 0
-75 422 -416 0
-95 -422 416 0
-95 422 -416 0
-61 -423 417 0
-61 423 -417 0
-62 -417 423 0
-62 -415 423 0
-62 -423 417 415 0
-63 -423 417 0
-63 423 -417 0
-64 -423 417 0
-64 423 -417 0
-65 -423 417 0
-65 423 -417 0
-66 -417 423 0
-66 -416 423 0
-66 -423 417 416 0
-67 -423 417 0
-67 423 -417 0
-68 -423 417 0
-68 423 -417 0
-69 -423 417 0
-69 423 -417 0
-70 -423 417 0
-70 -423 418 0
-70 423 -417 -418 0
-71 -423 417 0
-71 -423 419 0
-71 423 -417 -419 0
-72 -423 417 0
-72 -423 420 0
-72 423 -417 -420 0
-73 -423 417 0
-73 423 -417 0
-74 -423 417 0
-74 423 -417 0
-75 -423 417 0
-75 423 -417 0
-95 -423 417 0
-95 423 -417 0
-61 -424 418 0
-61 424 -418 0
-62 -424 418 0
-62 424 -418 0
-63 -418 424 0
-63 -415 424 0
-63 -424 418 415 0
-64 -424 418 0
-64 424 -418 0
-65 -424 418 0
-65 424 -418 0
-66 -424 418 0
-66 424 -418 0
-67 -418 424 0
-67 -416 424 0
-67 -424 418 416 0
-68 -424 418 0
-68 424 -418 0
-69 -424 418 0
-69 424 -418 0
-70 -418 424 0
-70 -417 424 0
-70 -424 418 417 0
-71 -424 418 0
-71 424 -418 0
-72 -424 418 0
-72 424 -418 0
-73 -424 418 0
-73 -424 419 0
-73 424 -418 -419 0
-74 -424 418 0
-74 -424 420 0
-74 424 -418 -420 0
-75 -424 418 0
-75 424 -418 0
-95 -424 418 0
-95 424 -418 0
-61 -425 419 0
-61 425 -419 0
-62 -425 419 0
-62 425 -419 0
-63 -425 419 0
-63 425 -419 0
-64 -419 425 0
-64 -415 425 0
-64 -425 419 415 0
-65 -425 419 0
-65 425 -419 0
-66 -425 419 0
-66 425 -419 0
-67 -425 419 0
-67 425 -419 0
-68 -419 425 0
-68 -416 425 0
-68 -425 419 416 0
-69 -425 419 0
-69 425 -419 0
-70 -425 419 0
-70 425 -419 0
-71 -419 425 0
-71 -417 425 0
-71 -425 419 417 0
-72 -425 419 0
-72 425 -419 0
-73 -419 425 0
-73 -418 425 0
-73 -425 419 418 0
-74 -425 419 0
-74 425 -419 0
-75 -425 419 0
-75 -425 420 0
-75 425 -419 -420 0
-95 -425 419 0
-95 425 -419 0
-61 -426 420 0
-61 426 -420 0
-62 -426 420 0
-62 426 -420 0
-63 -426 420 0
-63 426 -420 0
-64 -426 420 0
-64 426 -420 0
-65 -420 426 0
-65 -415 426 0
-65 -426 420 415 0
-66 -426 420 0
-66 426 -420 0
-67 -426 420 0
-67 426 -420 0
-68 -426 420 0
-68 426 -420 0
-69 -420 426 0
-69 -416 426 0
-69 -426 420 416 0
-70 -426 420 0
-70 426 -420 0
-71 -426 420 0
-71 426 -420 0
-72 -420 426 0
-72 -417 426 0
-72 -426 420 417 0
-73 -426 420 0
-73 426 -420 0
-74 -420 426 0
-74 -418 426 0
-74 -426 420 418 0
-75 -420 426 0
-75 -419 426 0
-75 -426 420 419 0
-95 -426 420 0
-95 426 -420 0
-76 -427 421 0
-76 -427 422 0
-76 427 -421 -422 0
-77 -427 421 0
-77 -427 423 0
-77 427 -421 -423 0
-78 -427 421 0
-78 -427 424 0
-78 427 -421 -424 0
-79 -427 421 0
-79 -427 425 0
-79 427 -421 -425 0
-80 -427 421 0
-80 -427 426 0
-80 427 -421 -426 0
-81 -427 421 0
-81 427 -421 0
-82 -427 421 0
-82 427 -421 0
-83 -427 421 0
-83 427 -421 0
-84 -427 421 0
-84 427 -421 0
-85 -427 421 0
-85 427 -421 0
-86 -427 421 0
-86 427 -421 0
-87 -427 421 0
-87 427 -421 0
-88 -427 421 0
-88 427 -421 0
-89 -427 421 0
-89 427 -421 0
-90 -427 421 0
-90 427 -421 0
-96 -427 421 0
-96 427 -421 0
-76 -422 428 0
-76 -421 428 0
-76 -428 422 421 0
-77 -428 422 0
-77 428 -422 0
-78 -428 422 0
-78 428 -422 0
-79 -428 422 0
-79 428 -422 0
-80 -428 422 0
-80 428 -422 0
-81 -428 422 0
-81 -428 423 0
-81 428 -422 -423 0
-82 -428 422 0
-82 -428 424 0
-82 428 -422 -424 0
-83 -428 422 0
-83 -428 425 0
-83 428 -422 -425 0
-84 -428 422 0
-84 -428 426 0
-84 428 -422 -426 0
-85 -428 422 0
-85 428 -422 0
-86 -428 422 0
-86 428 -422 0
-87 -428 422 0
-87 428 -422 0
-88 -428 422 0
-88 428 -422 0
-89 -428 422 0
-89 428 -422 0
-90 -428 422 0
-90 428 -422 0
-96 -428 422 0
-96 428 -422 0
-76 -429 423 0
-76 429 -423 0
-77 -423 429 0
-77 -421 429 0
-77 -429 423 421 0
-78 -429 423 0
-78 429 -423 0
-79 -429 423 0
-79 429 -423 0
-80 -429 423 0
-80 429 -423 0
-81 -423 429 0
-81 -422 429 0
-81 -429 423 422 0
-82 -429 423 0
-82 429 -423 0
-83 -429 423 0
-83 429 -423 0
-84 -429 423 0
-84 429 -423 0
-85 -429 423 0
-85 -429 424 0
-85 429 -423 -424 0
-86 -429 423 0
-86 -429 425 0
-86 429 -423 -425 0
-87 -429 423 0
-87 -429 426 0
-87 429 -423 -426 0
-88 -429 423 0
-88 429 -423 0
-89 -429 423 0
-89 429 -423 0
-90 -429 423 0
-90 429 -423 0
-96 -429 423 0
-96 429 -423 0
-76 -430 424 0
-76 430 -424 0
-77 -430 424 0
-77 430 -424 0
-78 -424 430 0
-78 -421 430 0
-78 -430 424 421 0
-79 -430 424 0
-79 430 -424 0
-80 -430 424 0
-80 430 -424 0
-81 -430 424 0
-81 430 -424 0
-82 -424 430 0
-82 -422 430 0
-82 -430 424 422 0
-83 -430 424 0
-83 430 -424 0
-84 -430 424 0
-84 430 -424 0
-85 -424 430 0
-85 -423 430 0
-85 -430 424 423 0
-86 -430 424 0
-86 430 -424 0
-87 -430 424 0
-87 430 -424 0
-88 -430 424 0
-88 -430 425 0
-88 430 -424 -425 0
-89 -430 424 0
-89 -430 426 0
-89 430 -424 -426 0
-90 -430 424 0
-90 430 -424 0
-96 -430 424 0
-96 430 -424 0
-76 -431 425 0
-76 431 -425 0
-77 -431 425 0
-77 431 -425 0
-78 -431 425 0
-78 431 -425 0
-79 -425 431 0
-79 -421 431 0
-79 -431 425 421 0
-80 -431 425 0
-80 431 -425 0
-81 -431 425 0
-81 431 -425 0
-82 -431 425 0
-82 431 -425 0
-83 -425 431 0
-83 -422 431 0
-83 -431 425 422 0
-84 -431 425 0
-84 431 -425 0
-85 -431 425 0
-85 431 -425 0
-86 -425 431 0
-86 -423 431 0
-86 -431 425 423 0
-87 -431 425 0
-87 431 -425 0
-88 -425 431 0
-88 -424 431 0
-88 -431 425 424 0
-89 -431 425 0
-89 431 -425 0
-90 -431 425 0
-90 -431 426 0
-90 431 -425 -426 0
-96 -431 425 0
-96 431 -425 0
-76 -432 426 0
-76 432 -426 0
-77 -432 426 0
-77 432 -426 0
-78 -432 426 0
-78 432 -426 0
-79 -432 426 0
-79 432 -426 0
-80 -426 432 0
-80 -421 432 0
-80 -432 426 421 0
-81 -432 426 0
-81 432 -426 0
-82 -432 426 0
-82 432 -426 0
-83 -432 426 0
-83 432 -426 0
-84 -426 432 0
-84 -422 432 0
-84 -432 426 422 0
-85 -432 426 0
-85 432 -426 0
-86 -432 426 0
-86 432 -426 0
-87 -426 432 0
-87 -423 432 0
-87 -432 426 423 0
-88 -432 426 0
-88 432 -426 0
-89 -426 432 0
-89 -424 432 0
-89 -432 426 424 0
-90 -426 432 0
-90 -425 432 0
-90 -432 426 425 0
-96 -432 426 0
-96 432 -426 0
-433 0
-1 -439 433 0
-1 -439 434 0
-1 439 -433 -434 0
-2 -439 433 0
-2 -439 435 0
-2 439 -433 -435 0
-3 -439 433 0
-3 -439 436 0
-3 439 -433 -436 0
-4 -439 433 0
-4 -439 437 0
-4 439 -433 -437 0
-5 -439 433 0
-5 -439 438 0
-5 439 -433 -438 0
-6 -439 433 0
-6 439 -433 0
-7 -439 433 0
-7 439 -433 0
-8 -439 433 0
-8 439 -433 0
-9 -439 433 0
-9 439 -433 0
-10 -439 433 0
-10 439 -433 0
-11 -439 433 0
-11 439 -433 0
-12 -439 433 0
-12 439 -433 0
-13 -439 433 0
-13 439 -433 0
-14 -439 433 0
-14 439 -433 0
-15 -439 433 0
-15 439 -433 0
-91 -439 433 0
-91 439 -433 0
434 0
-1 -434 440 0
-1 -433 440 0
-1 -440 434 433 0
-2 -440 434 0
-2 440 -434 0
-3 -440 434 0
-3 440 -434 0
-4 -440 434 0
-4 440 -434 0
-5 -440 434 0
-5 440 -434 0
-6 -440 434 0
-6 -440 435 0
-6 440 -434 -435 0
-7 -440 434 0
-7 -440 436 0
-7 440 -434 -436 0
-8 -440 434 0
-8 -440 437 0
-8 440 -434 -437 0
-9 -440 434 0
-9 -440 438 0
-9 440 -434 -438 0
-10 -440 434 0
-10 440 -434 0
-11 -440 434 0
-11 440 -434 0
-12 -440 434 0
-12 440 -434 0
-13 -440 434 0
-13 440 -434 0
-14 -440 434 0
-14 440 -434 0
-15 -440 434 0
-15 440 -434 0
-91 -440 434 0
-91 440 -434 0
435 0
-1 -441 435 0
-1 441 -435 0
-2 -435 441 0
-2 -433 441 0
-2 -441 435 433 0
-3 -441 435 0
-3 441 -435 0
-4 -441 435 0
-4 441 -435 0
-5 -441 435 0
-5 441 -435 0
-6 -435 441 0
-6 -434 441 0
-6 -441 435 434 0
-7 -441 435 0
-7 441 -435 0
-8 -441 435 0
-8 441 -435 0
-9 -441 435 0
-9 441 -435 0
-10 -441 435 0
-10 -441 436 0
-10 441 -435 -436 0
-11 -441 435 0
-11 -441 437 0
-11 441 -435 -437 0
-12 -441 435 0
-12 -441 438 0
-12 441 -435 -438 0
-13 -441 435 0
-13 441 -435 0
-14 -441 435 0
-14 441 -435 0
-15 -441 435 0
-15 441 -435 0
-91 -441 435 0
-91 441 -435 0
-436 0
-1 -442 436 0
-1 442 -436 0
-2 -442 436 0
-2 442 -436 0
-3 -436 442 0
-3 -433 442 0
-3 -442 436 433 0
-4 -442 436 0
-4 442 -436 0
-5 -442 436 0
-5 442 -436 0
-6 -442 436 0
-6 442 -436 0
-7 -436 442 0
-7 -434 442 0
-7 -442 436 434 0
-8 -442 436 0
-8 442 -436 0
-9 -442 436 0
-9 442 -436 0
-10 -436 442 0
-10 -435 442 0
-10 -442 436 435 0
-11 -442 436 0
-11 442 -436 0
-12 -442 436 0
-12 442 -436 0
-13 -442 436 0
-13 -442 437 0
-13 442 -436 -437 0
-14 -442 436 0
-14 -442 438 0
-14 442 -436 -438 0
-15 -442 436 0
-15 442 -436 0
-91 -442 436 0
-91 442 -436 0
-437 0
-1 -443 437 0
-1 443 -437 0
-2 -443 437 0
-2 443 -437 0
-3 -443 437 0
-3 443 -437 0
-4 -437 443 0
-4 -433 443 0
-4 -443 437 433 0
-5 -443 437 0
-5 443 -437 0
-6 -443 437 0
-6 443 -437 0
-7 -443 437 0
-7 443 -437 0
-8 -437 443 0
-8 -434 443 0
-8 -443 437 434 0
-9 -443 437 0
-9 443 -437 0
-10 -443 437 0
-10 443 -437 0
-11 -437 443 0
-11 -435 443 0
-11 -443 437 435 0
-12 -443 437 0
-12 443 -437 0
-13 -437 443 0
-13 -436 443 0
-13 -443 437 436 0
-14 -443 437 0
-14 443 -437 0
-15 -443 437 0
-15 -443 438 0
-15 443 -437 -438 0
-91 -443 437 0
-91 443 -437 0
-438 0
-1 -444 438 0
-1 444 -438 0
-2 -444 438 0
-2 444 -438 0
-3 -444 438 0
-3 444 -438 0
-4 -444 438 0
-4 444 -438 0
-5 -438 444 0
-5 -433 444 0
-5 -444 438 433 0
-6 -444 438 0
-6 444 -438 0
-7 -444 438 0
-7 444 -438 0
-8 -444 438 0
-8 444 -438 0
-9 -438 444 0
-9 -434 444 0
-9 -444 438 434 0
-10 -444 438 0
-10 444 -438 0
-11 -444 438 0
-11 444 -438 0
-12 -438 444 0
-12 -435 444 0
-12 -444 438 435 0
-13 -444 438 0
-13 444 -438 0
-14 -438 444 0
-14 -436 444 0
-14 -444 438 436 0
-15 -438 444 0
-15 -437 444 0
-15 -444 438 437 0
-91 -444 438 0
-91 444 -438 0
-16 -445 439 0
-16 -445 440 0
-16 445 -439 -440 0
-17 -445 439 0
-17 -445 441 0
-17 445 -439 -441 0
-18 -445 439 0
-18 -445 442 0
-18 445 -439 -442 0
-19 -445 439 0
-19 -445 443 0
-19 445 -439 -443 0
-20 -445 439 0
-20 -445 444 0
-20 445 -439 -444 0
-21 -445 439 0
-21 445 -439 0
-22 -445 439 0
-22 445 -439 0
-23 -445 439 0
-23 445 -439 0
-24 -445 439 0
-24 445 -439 0
-25 -445 439 0
-25 445 -439 0
-26 -445 439 0
-26 445 -439 0
-27 -445 439 0
-27 445 -439 0
-28 -445 439 0
-28 445 -439 0
-29 -445 439 0
-29 445 -439 0
-30 -445 439 0
-30 445 -439 0
-92 -445 439 0
-92 445 -439 0
-16 -440 446 0
-16 -439 446 0
-16 -446 440 439 0
-17 -446 440 0
-17 446 -440 0
-18 -446 440 0
-18 446 -440 0
-19 -446 440 0
-19 446 -440 0
-20 -446 440 0
-20 446 -440 0
-21 -446 440 0
-21 -446 441 0
-21 446 -440 -441 0
-22 -446 440 0
-22 -446 442 0
-22 446 -440 -442 0
-23 -446 440 0
-23 -446 443 0
-23 446 -440 -443 0
-24 -446 440 0
-24 -446 444 0
-24 446 -440 -444 0
-25 -446 440 0
-25 446 -440 0
-26 -446 440 0
-26 446 -440 0
-27 -446 440 0
-27 446 -440 0
-28 -446 440 0
-28 446 -440 0
-29 -446 440 0
-29 446 -440 0
-30 -446 440 0
-30 446 -440 0
-92 -446 440 0
-92 446 -440 0
-16 -447 441 0
-16 447 -441 0
-17 -441 447 0
-17 -439 447 0
-17 -447 441 439 0
-18 -447 441 0
-18 447 -441 0
-19 -447 441 0
-19 447 -441 0
-20 -447 441 0
-20 447 -441 0
-21 -441 447 0
-21 -440 447 0
-21 -447 441 440 0
-22 -447 441 0
-22 447 -441 0
-23 -447 441 0
-23 447 -441 0
-24 -447 441 0
-24 447 -441 0
-25 -447 441 0
-25 -447 442 0
-25 447 -441 -442 0
-26 -447 441 0
-26 -447 443 0
-26 447 -441 -443 0
-27 -447 441 0
-27 -447 444 0
-27 447 -441 -444 0
-28 -447 441 0
-28 447 -441 0
-29 -447 441 0
-29 447 -441 0
-30 -447 441 0
-30 447 -441 0
-92 -447 441 0
-92 447 -441 0
-16 -448 442 0
-16 448 -442 0
-17 -448 442 0
-17 448 -442 0
-18 -442 448 0
-18 -439 448 0
-18 -448 442 439 0
-19 -448 442 0
-19 448 -442 0
-20 -448 442 0
-20 448 -442 0
-21 -448 442 0
-21 448 -442 0
-22 -442 448 0
-22 -440 448 0
-22 -448 442 440 0
-23 -448 442 0
-23 448 -442 0
-24 -448 442 0
-24 448 -442 0
-25 -442 448 0
-25 -441 448 0
-25 -448 442 441 0
-26 -448 442 0
-26 448 -442 0
-27 -448 442 0
-27 448 -442 0
-28 -448 442 0
-28 -448 443 0
-28 448 -442 -443 0
-29 -448 442 0
-29 -448 444 0
-29 448 -442 -444 0
-30 -448 442 0
-30 448 -442 0
-92 -448 442 0
-92 448 -442 0
-16 -449 443 0
-16 449 -443 0
-17 -449 443 0
-17 449 -443 0
-18 -449 443 0
-18 449 -443 0
-19 -443 449 0
-19 -439 449 0
-19 -449 443 439 0
-20 -449 443 0
-20 449 -443 0
-21 -449 443 0
-21 449 -443 0
-22 -449 443 0
-22 449 -443 0
-23 -443 449 0
-23 -440 449 0
-23 -449 443 440 0
-24 -449 443 0
-24 449 -443 0
-25 -449 443 0
-25 449 -443 0
-26 -443 449 0
-26 -441 449 0
-26 -449 443 441 0
-27 -449 443 0
-27 449 -443 0
-28 -443 449 0
-28 -442 449 0
-28 -449 443 442 0
-29 -449 443 0
-29 449 -443 0
-30 -449 443 0
-30 -449 444 0
-30 449 -443 -444 0
-92 -449 443 0
-92 449 -443 0
-16 -450 444 0
-16 450 -444 0
-17 -450 444 0
-17 450 -444 0
-18 -450 444 0
-18 450 -444 0
-19 -450 444 0
-19 450 -444 0
-20 -444 450 0
-20 -439 450 0
-20 -450 444 439 0
-21 -450 444 0
-21 450 -444 0
-22 -450 444 0
-22 450 -444 0
-23 -450 444 0
-23 450 -444 0
-24 -444 450 0
-24 -440 450 0
-24 -450 444 440 0
-25 -450 444 0
-25 450 -444 0
-26 -450 444 0
-26 450 -444 0
-27 -444 450 0
-27 -441 450 0
-27 -450 444 441 0
-28 -450 444 0
-28 450 -444 0
-29 -444 450 0
-29 -442 450 0
-29 -450 444 442 0
-30 -444 450 0
-30 -443 450 0
-30 -450 444 443 0
-92 -450 444 0
-92 450 -444 0
-31 -451 445 0
-31 -451 446 0
-31 451 -445 -446 0
-32 -451 445 0
-32 -451 447 0
-32 451 -445 -447 0
-33 -451 445 0
-33 -451 448 0
-33 451 -445 -448 0
-34 -451 445 0
-34 -451 449 0
-34 451 -445 -449 0
-35 -451 445 0
-35 -451 450 0
-35 451 -445 -450 0
-36 -451 445 0
-36 451 -445 0
-37 -451 445 0
-37 451 -445 0
-38 -451 445 0
-38 451 -445 0
-39 -451 445 0
-39 451 -445 0
-40 -451 445 0
-40 451 -445 0
-41 -451 445 0
-41 451 -445 0
-42 -451 445 0
-42 451 -445 0
-43 -451 445 0
-43 451 -445 0
-44 -451 445 0
-44 451 -445 0
-45 -451 445 0
-45 451 -445 0
-93 -451 445 0
-93 451 -445 0
-31 -446 452 0
-31 -445 452 0
-31 -452 446 445 0
-32 -452 446 0
-32 452 -446 0
-33 -452 446 0
-33 452 -446 0
-34 -452 446 0
-34 452 -446 0
-35 -452 446 0
-35 452 -446 0
-36 -452 446 0
-36 -452 447 0
-36 452 -446 -447 0
-37 -452 446 0
-37 -452 448 0
-37 452 -446 -448 0
-38 -452 446 0
-38 -452 449 0
-38 452 -446 -449 0
-39 -452 446 0
-39 -452 450 0
-39 452 -446 -450 0
-40 -452 446 0
-40 452 -446 0
-41 -452 446 0
-41 452 -446 0
-42 -452 446 0
-42 452 -446 0
-43 -452 446 0
-43 452 -446 0
-44 -452 446 0
-44 452 -446 0
-45 -452 446 0
-45 452 -446 0
-93 -452 446 0
-93 452 -446 0
-31 -453 447 0
-31 453 -447 0
-32 -447 453 0
-32 -445 453 0
-32 -453 447 445 0
-33 -453 447 0
-33 453 -447 0
-34 -453 447 0
-34 453 -447 0
-35 -453 447 0
-35 453 -447 0
-36 -447 453 0
-36 -446 453 0
-36 -453 447 446 0
-37 -453 447 0
-37 453 -447 0
-38 -453 447 0
-38 453 -447 0
-39 -453 447 0
-39 453 -447 0
-40 -453 447 0
-40 -453 448 0
-40 453 -447 -448 0
-41 -453 447 0
-41 -453 449 0
-41 453 -447 -449 0
-42 -453 447 0
-42 -453 450 0
-42 453 -447 -450 0
-43 -453 447 0
-43 453 -447 0
-44 -453 447 0
-44 453 -447 0
-45 -453 447 0
-45 453 -447 0
-93 -453 447 0
-93 453 -447 0
-31 -454 448 0
-31 454 -448 0
-32 -454 448 0
-32 454 -448 0
-33 -448 454 0
-33 -445 454 0
-33 -454 448 445 0
-34 -454 448 0
-34 454 -448 0
-35 -454 448 0
-35 454 -448 0
-36 -454 448 0
-36 454 -448 0
-37 -448 454 0
-37 -446 454 0
-37 -454 448 446 0
-38 -454 448 0
-38 454 -448 0
-39 -454 448 0
-39 454 -448 0
-40 -448 454 0
-40 -447 454 0
-40 -454 448 447 0
-41 -454 448 0
-41 454 -448 0
-42 -454 448 0
-42 454 -448 0
-43 -454 448 0
-43 -454 449 0
-43 454 -448 -449 0
-44 -454 448 0
-44 -454 450 0
-44 454 -448 -450 0
-45 -454 448 0
-45 454 -448 0
-93 -454 448 0
-93 454 -448 0
-31 -455 449 0
-31 455 -449 0
-32 -455 449 0
-32 455 -449 0
-33 -455 449 0
-33 455 -449 0
-34 -449 455 0
-34 -445 455 0
-34 -455 449 445 0
-35 -455 449 0
-35 455 -449 0
-36 -455 449 0
-36 455 -449 0
-37 -455 449 0
-37 455 -449 0
-38 -449 455 0
-38 -446 455 0
-38 -455 449 446 0
-39 -455 449 0
-39 455 -449 0
-40 -455 449 0
-40 455 -449 0
-41 -449 455 0
-41 -447 455 0
-41 -455 449 447 0
-42 -455 449 0
-42 455 -449 0
-43 -449 455 0
-43 -448 455 0
-43 -455 449 448 0
-44 -455 449 0
-44 455 -449 0
-45 -455 449 0
-45 -455 450 0
-45 455 -449 -450 0
-93 -455 449 0
-93 455 -449 0
-31 -456 450 0
-31 456 -450 0
-32 -456 450 0
-32 456 -450 0
-33 -456 450 0
-33 456 -450 0
-34 -456 450 0
-34 456 -450 0
-35 -450 456 0
-35 -445 456 0
-35 -456 450 445 0
-36 -456 450 0
-36 456 -450 0
-37 -456 450 0
-37 456 -450 0
-38 -456 450 0
-38 456 -450 0
-39 -450 456 0
-39 -446 456 0
-39 -456 450 446 0
-40 -456 450 0
-40 456 -450 0
-41 -456 450 0
-41 456 -450 0
-42 -450 456 0
-42 -447 456 0
-42 -456 450 447 0
-43 -456 450 0
-43 456 -450 0
-44 -450 456 0
-44 -448 456 0
-44 -456 450 448 0
-45 -450 456 0
-45 -449 456 0
-45 -456 450 449 0
-93 -456 450 0
-93 456 -450 0
-46 -457 451 0
-46 -457 452 0
-46 457 -451 -452 0
-47 -457 451 0
-47 -457 453 0
-47 457 -451 -453 0
-48 -457 451 0
-48 -457 454 0
-48 457 -451 -454 0
-49 -457 451 0
-49 -457 455 0
-49 457 -451 -455 0
-50 -457 451 0
-50 -457 456 0
-50 457 -451 -456 0
-51 -457 451 0
-51 457 -451 0
-52 -457 451 0
-52 457 -451 0
-53 -457 451 0
-53 457 -451 0
-54 -457 451 0
-54 457 -451 0
-55 -457 451 0
-55 457 -451 0
-56 -457 451 0
-56 457 -451 0
-57 -457 451 0
-57 457 -451 0
-58 -457 451 0
-58 457 -451 0
-59 -457 451 0
-59 457 -451 0
-60 -457 451 0
-60 457 -451 0
-94 -457 451 0
-94 457 -451 0
-46 -452 458 0
-46 -451 458 0
-46 -458 452 451 0
-47 -458 452 0
-47 458 -452 0
-48 -458 452 0
-48 458 -452 0
-49 -458 452 0
-49 458 -452 0
-50 -458 452 0
-50 458 -452 0
-51 -458 452 0
-51 -458 453 0
-51 458 -452 -453 0
-52 -458 452 0
-52 -458 454 0
-52 458 -452 -454 0
-53 -458 452 0
-53 -458 455 0
-53 458 -452 -455 0
-54 -458 452 0
-54 -458 456 0
-54 458 -452 -456 0
-55 -458 452 0
-55 458 -452 0
-56 -458 452 0
-56 458 -452 0
-57 -458 452 0
-57 458 -452 0
-58 -458 452 0
-58 458 -452 0
-59 -458 452 0
-59 458 -452 0
-60 -458 452 0
-60 458 -452 0
-94 -458 452 0
-94 458 -452 0
-46 -459 453 0
-46 459 -453 0
-47 -453 459 0
-47 -451 459 0
-47 -459 453 451 0
-48 -459 453 0
-48 459 -453 0
-49 -459 453 0
-49 459 -453 0
-50 -459 453 0
-50 459 -453 0
-51 -453 459 0
-51 -452 459 0
-51 -459 453 452 0
-52 -459 453 0
-52 459 -453 0
-53 -459 453 0
-53 459 -453 0
-54 -459 453 0
-54 459 -453 0
-55 -459 453 0
-55 -459 454 0
-55 459 -453 -454 0
-56 -459 453 0
-56 -459 455 0
-56 459 -453 -455 0
-57 -459 453 0
-57 -459 456 0
-57 459 -453 -456 0
-58 -459 453 0
-58 459 -453 0
-59 -459 453 0
-59 459 -453 0
-60 -459 453 0
-60 459 -453 0
-94 -459 453 0
-94 459 -453 0
-46 -460 454 0
-46 460 -454 0
-47 -460 454 0
-47 460 -454 0
-48 -454 460 0
-48 -451 460 0
-48 -460 454 451 0
-49 -460 454 0
-49 460 -454 0
-50 -460 454 0
-50 460 -454 0
-51 -460 454 0
-51 460 -454 0
-52 -454 460 0
-52 -452 460 0
-52 -460 454 452 0
-53 -460 454 0
-53 460 -454 0
-54 -460 454 0
-54 460 -454 0
-55 -454 460 0
-55 -453 460 0
-55 -460 454 453 0
-56 -460 454 0
-56 460 -454 0
-57 -460 454 0
-57 460 -454 0
-58 -460 454 0
-58 -460 455 0
-58 460 -454 -455 0
-59 -460 454 0
-59 -460 456 0
-59 460 -454 -456 0
-60 -460 454 0
-60 460 -454 0
-94 -460 454 0
-94 460 -454 0
-46 -461 455 0
-46 461 -455 0
-47 -461 455 0
-47 461 -455 0
-48 -461 455 0
-48 461 -455 0
-49 -455 461 0
-49 -451 461 0
-49 -461 455 451 0
-50 -461 455 0
-50 461 -455 0
-51 -461 455 0
-51 461 -455 0
-52 -461 455 0
-52 461 -455 0
-53 -455 461 0
-53 -452 461 0
-53 -461 455 452 0
-54 -461 455 0
-54 461 -455 0
-55 -461 455 0
-55 461 -455 0
-56 -455 461 0
-56 -453 461 0
-56 -461 455 453 0
-57 -461 455 0
-57 461 -455 0
-58 -455 461 0
-58 -454 461 0
-58 -461 455 454 0
-59 -461 455 0
-59 461 -455 0
-60 -461 455 0
-60 -461 456 0
-60 461 -455 -456 0
-94 -461 455 0
-94 461 -455 0
-46 -462 456 0
-46 462 -456 0
-47 -462 456 0
-47 462 -456 0
-48 -462 456 0
-48 462 -456 0
-49 -462 456 0
-49 462 -456 0
-50 -456 462 0
-50 -451 462 0
-50 -462 456 451 0
-51 -462 456 0
-51 462 -456 0
-52 -462 456 0
-52 462 -456 0
-53 -462 456 0
-53 462 -456 0
-54 -456 462 0
-54 -452 462 0
-54 -462 456 452 0
-55 -462 456 0
-55 462 -456 0
-56 -462 456 0
-56 462 -456 0
-57 -456 462 0
-57 -453 462 0
-57 -462 456 453 0
-58 -462 456 0
-58 462 -456 0
-59 -456 462 0
-59 -454 462 0
-59 -462 456 454 0
-60 -456 462 0
-60 -455 462 0
-60 -462 456 455 0
-94 -462 456 0
-94 462 -456 0
-61 -463 457 0
-61 -463 458 0
-61 463 -457 -458 0
-62 -463 457 0
-62 -463 459 0
-62 463 -457 -459 0
-63 -463 457 0
-63 -463 460 0
-63 463 -457 -460 0
-64 -463 457 0
-64 -463 461 0
-64 463 -457 -461 0
-65 -463 457 0
-65 -463 462 0
-65 463 -457 -462 0
-66 -463 457 0
-66 463 -457 0
-67 -463 457 0
-67 463 -457 0
-68 -463 457 0
-68 463 -457 0
-69 -463 457 0
-69 463 -457 0
-70 -463 457 0
-70 463 -457 0
-71 -463 457 0
-71 463 -457 0
-72 -463 457 0
-72 463 -457 0
-73 -463 457 0
-73 463 -457 0
-74 -463 457 0
-74 463 -457 0
-75 -463 457 0
-75 463 -457 0
-95 -463 457 0
-95 463 -457 0
-61 -458 464 0
-61 -457 464 0
-61 -464 458 457 0
-62 -464 458 0
-62 464 -458 0
-63 -464 458 0
-63 464 -458 0
-64 -464 458 0
-64 464 -458 0
-65 -464 458 0
-65 464 -458 0
-66 -464 458 0
-66 -464 459 0
-66 464 -458 -459 0
-67 -464 458 0
-67 -464 460 0
-67 464 -458 -460 0
-68 -464 458 0
-68 -464 461 0
-68 464 -458 -461 0
-69 -464 458 0
-69 -464 462 0
-69 464 -458 -462 0
-70 -464 458 0
-70 464 -458 0
-71 -464 458 0
-71 464 -458 0
-72 -464 458 0
-72 464 -458 0
-73 -464 458 0
-73 464 -458 0
-74 -464 458 0
-74 464 -458 0
-75 -464 458 0
-75 464 -458 0
-95 -464 458 0
-95 464 -458 0
-61 -465 459 0
-61 465 -459 0
-62 -459 465 0
-62 -457 465 0
-62 -465 459 457 0
-63 -465 459 0
-63 465 -459 0
-64 -465 459 0
-64 465 -459 0
-65 -465 459 0
-65 465 -459 0
-66 -459 465 0
-66 -458 465 0
-66 -465 459 458 0
-67 -465 459 0
-67 465 -459 0
-68 -465 459 0
-68 465 -459 0
-69 -465 459 0
-69 465 -459 0
-70 -465 459 0
-70 -465 460 0
-70 465 -459 -460 0
-71 -465 459 0
-71 -465 461 0
-71 465 -459 -461 0
-72 -465 459 0
-72 -465 462 0
-72 465 -459 -462 0
-73 -465 459 0
-73 465 -459 0
-74 -465 459 0
-74 465 -459 0
-75 -465 459 0
-75 465 -459 0
-95 -465 459 0
-95 465 -459 0
-61 -466 460 0
-61 466 -460 0
-62 -466 460 0
-62 466 -460 0
-63 -460 466 0
-63 -457 466 0
-63 -466 460 457 0
-64 -466 460 0
-64 466 -460 0
-65 -466 460 0
-65 466 -460 0
-66 -466 460 0
-66 466 -460 0
-67 -460 466 0
-67 -458 466 0
-67 -466 460 458 0
-68 -466 460 0
-68 466 -460 0
-69 -466 460 0
-69 466 -460 0
-70 -460 466 0
-70 -459 466 0
-70 -466 460 459 0
-71 -466 460 0
-71 466 -460 0
-72 -466 460 0
-72 466 -460 0
-73 -466 460 0
-73 -466 461 0
-73 466 -460 -461 0
-74 -466 460 0
-74 -466 462 0
-74 466 -460 -462 0
-75 -466 460 0
-75 466 -460 0
-95 -466 460 0
-95 466 -460 0
-61 -467 461 0
-61 467 -461 0
-62 -467 461 0
-62 467 -461 0
-63 -467 461 0
-63 467 -461 0
-64 -461 467 0
-64 -457 467 0
-64 -467 461 457 0
-65 -467 461 0
-65 467 -461 0
-66 -467 461 0
-66 467 -461 0
-67 -467 461 0
-67 467 -461 0
-68 -461 467 0
-68 -458 467 0
-68 -467 461 458 0
-69 -467 461 0
-69 467 -461 0
-70 -467 461 0
-70 467 -461 0
-71 -461 467 0
-71 -459 467 0
-71 -467 461 459 0
-72 -467 461 0
-72 467 -461 0
-73 -461 467 0
-73 -460 467 0
-73 -467 461 460 0
-74 -467 461 0
-74 467 -461 0
-75 -467 461 0
-75 -467 462 0
-75 467 -461 -462 0
-95 -467 461 0
-95 467 -461 0
-61 -468 462 0
-61 468 -462 0
-62 -468 462 0
-62 468 -462 0
-63 -468 462 0
-63 468 -462 0
-64 -468 462 0
-64 468 -462 0
-65 -462 468 0
-65 -457 468 0
-65 -468 462 457 0
-66 -468 462 0
-66 468 -462 0
-67 -468 462 0
-67 468 -462 0
-68 -468 462 0
-68 468 -462 0
-69 -462 468 0
-69 -458 468 0
-69 -468 462 458 0
-70 -468 462 0
-70 468 -462 0
-71 -468 462 0
-71 468 -462 0
-72 -462 468 0
-72 -459 468 0
-72 -468 462 459 0
-73 -468 462 0
-73 468 -462 0
-74 -462 468 0
-74 -460 468 0
-74 -468 462 460 0
-75 -462 468 0
-75 -461 468 0
-75 -468 462 461 0
-95 -468 462 0
-95 468 -462 0
-76 -469 463 0
-76 -469 464 0
-76 469 -463 -464 0
-77 -469 463 0
-77 -469 465 0
-77 469 -463 -465 0
-78 -469 463 0
-78 -469 466 0
-78 469 -463 -466 0
-79 -469 463 0
-79 -469 467 0
-79 469 -463 -467 0
-80 -469 463 0
-80 -469 468 0
-80 469 -463 -468 0
-81 -469 463 0
-81 469 -463 0
-82 -469 463 0
-82 469 -463 0
-83 -469 463 0
-83 469 -463 0
-84 -469 463 0
-84 469 -463 0
-85 -469 463 0
-85 469 -463 0
-86 -469 463 0
-86 469 -463 0
-87 -469 463 0
-87 469 -463 0
-88 -469 463 0
-88 469 -463 0
-89 -469 463 0
-89 469 -463 0
-90 -469 463 0
-90 469 -463 0
-96 -469 463 0
-96 469 -463 0
-76 -464 470 0
-76 -463 470 0
-76 -470 464 463 0
-77 -470 464 0
-77 470 -464 0
-78 -470 464 0
-78 470 -464 0
-79 -470 464 0
-79 470 -464 0
-80 -470 464 0
-80 470 -464 0
-81 -470 464 0
-81 -470 465 0
-81 470 -464 -465 0
-82 -470 464 0
-82 -470 466 0
-82 470 -464 -466 0
-83 -470 464 0
-83 -470 467 0
-83 470 -464 -467 0
-84 -470 464 0
-84 -470 468 0
-84 470 -464 -468 0
-85 -470 464 0
-85 470 -464 0
-86 -470 464 0
-86 470 -464 0
-87 -470 464 0
-87 470 -464 0
-88 -470 464 0
-88 470 -464 0
-89 -470 464 0
-89 470 -464 0
-90 -470 464 0
-90 470 -464 0
-96 -470 464 0
-96 470 -464 0
-76 -471 465 0
-76 471 -465 0
-77 -465 471 0
-77 -463 471 0
-77 -471 465 463 0
-78 -471 465 0
-78 471 -465 0
-79 -471 465 0
-79 471 -465 0
-80 -471 465 0
-80 471 -465 0
-81 -465 471 0
-81 -464 471 0
-81 -471 465 464 0
-82 -471 465 0
-82 471 -465 0
-83 -471 465 0
-83 471 -465 0
-84 -471 465 0
-84 471 -465 0
-85 -471 465 0
-85 -471 466 0
-85 471 -465 -466 0
-86 -471 465 0
-86 -471 467 0
-86 471 -465 -467 0
-87 -471 465 0
-87 -471 468 0
-87 471 -465 -468 0
-88 -471 465 0
-88 471 -465 0
-89 -471 465 0
-89 471 -465 0
-90 -471 465 0
-90 471 -465 0
-96 -471 465 0
-96 471 -465 0
-76 -472 466 0
-76 472 -466 0
-77 -472 466 0
-77 472 -466 0
-78 -466 472 0
-78 -463 472 0
-78 -472 466 463 0
-79 -472 466 0
-79 472 -466 0
-80 -472 466 0
-80 472 -466 0
-81 -472 466 0
-81 472 -466 0
-82 -466 472 0
-82 -464 472 0
-82 -472 466 464 0
-83 -472 466 0
-83 472 -466 0
-84 -472 466 0
-84 472 -466 0
-85 -466 472 0
-85 -465 472 0
-85 -472 466 465 0
-86 -472 466 0
-86 472 -466 0
-87 -472 466 0
-87 472 -466 0
-88 -472 466 0
-88 -472 467 0
-88 472 -466 -467 0
-89 -472 466 0
-89 -472 468 0
-89 472 -466 -468 0
-90 -472 466 0
-90 472 -466 0
-96 -472 466 0
-96 472 -466 0
-76 -473 467 0
-76 473 -467 0
-77 -473 467 0
-77 473 -467 0
-78 -473 467 0
-78 473 -467 0
-79 -467 473 0
-79 -463 473 0
-79 -473 467 463 0
-80 -473 467 0
-80 473 -467 0
-81 -473 467 0
-81 473 -467 0
-82 -473 467 0
-82 473 -467 0
-83 -467 473 0
-83 -464 473 0
-83 -473 467 464 0
-84 -473 467 0
-84 473 -467 0
-85 -473 467 0
-85 473 -467 0
-86 -467 473 0
-86 -465 473 0
-86 -473 467 465 0
-87 -473 467 0
-87 473 -467 0
-88 -467 473 0
-88 -466 473 0
-88 -473 467 466 0
-89 -473 467 0
-89 473 -467 0
-90 -473 467 0
-90 -473 468 0
-90 473 -467 -468 0
-96 -473 467 0
-96 473 -467 0
-76 -474 468 0
-76 474 -468 0
-77 -474 468 0
-77 474 -468 0
-78 -474 468 0
-78 474 -468 0
-79 -474 468 0
-79 474 -468 0
-80 -468 474 0
-80 -463 474 0
-80 -474 468 463 0
-81 -474 468 0
-81 474 -468 0
-82 -474 468 0
-82 474 -468 0
-83 -474 468 0
-83 474 -468 0
-84 -468 474 0
-84 -464 474 0
-84 -474 468 464 0
-85 -474 468 0
-85 474 -468 0
-86 -474 468 0
-86 474 -468 0
-87 -468 474 0
-87 -465 474 0
-87 -474 468 465 0
-88 -474 468 0
-88 474 -468 0
-89 -468 474 0
-89 -466 474 0
-89 -474 468 466 0
-90 -468 474 0
-90 -467 474 0
-90 -474 468 467 0
-96 -474 468 0
-96 474 -468 0
-475 0
-1 -481 475 0
-1 -481 476 0
-1 481 -475 -476 0
-2 -481 475 0
-2 -481 477 0
-2 481 -475 -477 0
-3 -481 475 0
-3 -481 478 0
-3 481 -475 -478 0
-4 -481 475 0
-4 -481 479 0
-4 481 -475 -479 0
-5 -481 475 0
-5 -481 480 0
-5 481 -475 -480 0
-6 -481 475 0
-6 481 -475 0
-7 -481 475 0
-7 481 -475 0
-8 -481 475 0
-8 481 -475 0
-9 -481 475 0
-9 481 -475 0
-10 -481 475 0
-10 481 -475 0
-11 -481 475 0
-11 481 -475 0
-12 -481 475 0
-12 481 -475 0
-13 -481 475 0
-13 481 -475 0
-14 -481 475 0
-14 481 -475 0
-15 -481 475 0
-15 481 -475 0
-91 -481 475 0
-91 481 -475 0
476 0
-1 -476 482 0
-1 -475 482 0
-1 -482 476 475 0
-2 -482 476 0
-2 482 -476 0
-3 -482 476 0
-3 482 -476 0
-4 -482 476 0
-4 482 -476 0
-5 -482 476 0
-5 482 -476 0
-6 -482 476 0
-6 -482 477 0
-6 482 -476 -477 0
-7 -482 476 0
-7 -482 478 0
-7 482 -476 -478 0
-8 -482 476 0
-8 -482 479 0
-8 482 -476 -479 0
-9 -482 476 0
-9 -482 480 0
-9 482 -476 -480 0
-10 -482 476 0
-10 482 -476 0
-11 -482 476 0
-11 482 -476 0
-12 -482 476 0
-12 482 -476 0
-13 -482 476 0
-13 482 -476 0
-14 -482 476 0
-14 482 -476 0
-15 -482 476 0
-15 482 -476 0
-91 -482 476 0
-91 482 -476 0
477 0
-1 -483 477 0
-1 483 -477 0
-2 -477 483 0
-2 -475 483 0
-2 -483 477 475 0
-3 -483 477 0
-3 483 -477 0
-4 -483 477 0
-4 483 -477 0
-5 -483 477 0
-5 483 -477 0
-6 -477 483 0
-6 -476 483 0
-6 -483 477 476 0
-7 -483 477 0
-7 483 -477 0
-8 -483 477 0
-8 483 -477 0
-9 -483 477 0
-9 483 -477 0
-10 -483 477 0
-10 -483 478 0
-10 483 -477 -478 0
-11 -483 477 0
-11 -483 479 0
-11 483 -477 -479 0
-12 -483 477 0
-12 -483 480 0
-12 483 -477 -480 0
-13 -483 477 0
-13 483 -477 0
-14 -483 477 0
-14 483 -477 0
-15 -483 477 0
-15 483 -477 0
-91 -483 477 0
-91 483 -477 0
-478 0
-1 -484 478 0
-1 484 -478 0
-2 -484 478 0
-2 484 -478 0
-3 -478 484 0
-3 -475 484 0
-3 -484 478 475 0
-4 -484 478 0
-4 484 -478 0
-5 -484 478 0
-5 484 -478 0
-6 -484 478 0
-6 484 -478 0
-7 -478 484 0
-7 -476 484 0
-7 -484 478 476 0
-8 -484 478 0
-8 484 -478 0
-9 -484 478 0
-9 484 -478 0
-10 -478 484 0
-10 -477 484 0
-10 -484 478 477 0
-11 -484 478 0
-11 484 -478 0
-12 -484 478 0
-12 484 -478 0
-13 -484 478 0
-13 -484 479 0
-13 484 -478 -479 0
-14 -484 478 0
-14 -484 480 0
-14 484 -478 -480 0
-15 -484 478 0
-15 484 -478 0
-91 -484 478 0
-91 484 -478 0
-479 0
-1 -485 479 0
-1 485 -479 0
-2 -485 479 0
-2 485 -479 0
-3 -485 479 0
-3 485 -479 0
-4 -479 485 0
-4 -475 485 0
-4 -485 479 475 0
-5 -485 479 0
-5 485 -479 0
-6 -485 479 0
-6 485 -479 0
-7 -485 479 0
-7 485 -479 0
-8 -479 485 0
-8 -476 485 0
-8 -485 479 476 0
-9 -485 479 0
-9 485 -479 0
-10 -485 479 0
-10 485 -479 0
-11 -479 485 0
-11 -477 485 0
-11 -485 479 477 0
-12 -485 479 0
-12 485 -479 0
-13 -479 485 0
-13 -478 485 0
-13 -485 479 478 0
-14 -485 479 0
-14 485 -479 0
-15 -485 479 0
-15 -485 480 0
-15 485 -479 -480 0
-91 -485 479 0
-91 485 -479 0
480 0
-1 -486 480 0
-1 486 -480 0
-2 -486 480 0
-2 486 -480 0
-3 -486 480 0
-3 486 -480 0
-4 -486 480 0
-4 486 -480 0
-5 -480 486 0
-5 -475 486 0
-5 -486 480 475 0
-6 -486 480 0
-6 486 -480 0
-7 -486 480 0
-7 486 -480 0
-8 -486 480 0
-8 486 -480 0
-9 -480 486 0
-9 -476 486 0
-9 -486 480 476 0
-10 -486 480 0
-10 486 -480 0
-11 -486 480 0
-11 486 -480 0
-12 -480 486 0
-12 -477 486 0
-12 -486 480 477 0
-13 -486 480 0
-13 486 -480 0
-14 -480 486 0
-14 -478 486 0
-14 -486 480 478 0
-15 -480 486 0
-15 -479 486 0
-15 -486 480 479 0
-91 -486 480 0
-91 486 -480 0
-16 -487 481 0
-16 -487 482 0
-16 487 -481 -482 0
-17 -487 481 0
-17 -487 483 0
-17 487 -481 -483 0
-18 -487 481 0
-18 -487 484 0
-18 487 -481 -484 0
-19 -487 481 0
-19 -487 485 0
-19 487 -481 -485 0
-20 -487 481 0
-20 -487 486 0
-20 487 -481 -486 0
-21 -487 481 0
-21 487 -481 0
-22 -487 481 0
-22 487 -481 0
-23 -487 481 0
-23 487 -481 0
-24 -487 481 0
-24 487 -481 0
-25 -487 481 0
-25 487 -481 0
-26 -487 481 0
-26 487 -481 0
-27 -487 481 0
-27 487 -481 0
-28 -487 481 0
-28 487 -481 0
-29 -487 481 0
-29 487 -481 0
-30 -487 481 0
-30 487 -481 0
-92 -487 481 0
-92 487 -481 0
-16 -482 488 0
-16 -481 488 0
-16 -488 482 481 0
-17 -488 482 0
-17 488 -482 0
-18 -488 482 0
-18 488 -482 0
-19 -488 482 0
-19 488 -482 0
-20 -488 482 0
-20 488 -482 0
-21 -488 482 0
-21 -488 483 0
-21 488 -482 -483 0
-22 -488 482 0
-22 -488 484 0
-22 488 -482 -484 0
-23 -488 482 0
-23 -488 485 0
-23 488 -482 -485 0
-24 -488 482 0
-24 -488 486 0
-24 488 -482 -486 0
-25 -488 482 0
-25 488 -482 0
-26 -488 482 0
-26 488 -482 0
-27 -488 482 0
-27 488 -482 0
-28 -488 482 0
-28 488 -482 0
-29 -488 482 0
-29 488 -482 0
-30 -488 482 0
-30 488 -482 0
-92 -488 482 0
-92 488 -482 0
-16 -489 483 0
-16 489 -483 0
-17 -483 489 0
-17 -481 489 0
-17 -489 483 481 0
-18 -489 483 0
-18 489 -483 0
-19 -489 483 0
-19 489 -483 0
-20 -489 483 0
-20 489 -483 0
-21 -483 489 0
-21 -482 489 0
-21 -489 483 482 0
-22 -489 483 0
-22 489 -483 0
-23 -489 483 0
-23 489 -483 0
-24 -489 483 0
-24 489 -483 0
-25 -489 483 0
-25 -489 484 0
-25 489 -483 -484 0
-26 -489 483 0
-26 -489 485 0
-26 489 -483 -485 0
-27 -489 483 0
-27 -489 486 0
-27 489 -483 -486 0
-28 -489 483 0
-28 489 -483 0
-29 -489 483 0
-29 489 -483 0
-30 -489 483 0
-30 489 -483 0
-92 -489 483 0
-92 489 -483 0
-16 -490 484 0
-16 490 -484 0
-17 -490 484 0
-17 490 -484 0
-18 -484 490 0
-18 -481 490 0
-18 -490 484 481 0
-19 -490 484 0
-19 490 -484 0
-20 -490 484 0
-20 490 -484 0
-21 -490 484 0
-21 490 -484 0
-22 -484 490 0
-22 -482 490 0
-22 -490 484 482 0
-23 -490 484 0
-23 490 -484 0
-24 -490 484 0
-24 490 -484 0
-25 -484 490 0
-25 -483 490 0
-25 -490 484 483 0
-26 -490 484 0
-26 490 -484 0
-27 -490 484 0
-27 490 -484 0
-28 -490 484 0
-28 -490 485 0
-28 490 -484 -485 0
-29 -490 484 0
-29 -490 486 0
-29 490 -484 -486 0
-30 -490 484 0
-30 490 -484 0
-92 -490 484 0
-92 490 -484 0
-16 -491 485 0
-16 491 -485 0
-17 -491 485 0
-17 491 -485 0
-18 -491 485 0
-18 491 -485 0
-19 -485 491 0
-19 -481 491 0
-19 -491 485 481 0
-20 -491 485 0
-20 491 -485 0
-21 -491 485 0
-21 491 -485 0
-22 -491 485 0
-22 491 -485 0
-23 -485 491 0
-23 -482 491 0
-23 -491 485 482 0
-24 -491 485 0
-24 491 -485 0
-25 -491 485 0
-25 491 -485 0
-26 -485 491 0
-26 -483 491 0
-26 -491 485 483 0
-27 -491 485 0
-27 491 -485 0
-28 -485 491 0
-28 -484 491 0
-28 -491 485 484 0
-29 -491 485 0
-29 491 -485 0
-30 -491 485 0
-30 -491 486 0
-30 491 -485 -486 0
-92 -491 485 0
-92 491 -485 0
-16 -492 486 0
-16 492 -486 0
-17 -492 486 0
-17 492 -486 0
-18 -492 486 0
-18 492 -486 0
-19 -492 486 0
-19 492 -486 0
-20 -486 492 0
-20 -481 492 0
-20 -492 486 481 0
-21 -492 486 0
-21 492 -486 0
-22 -492 486 0
-22 492 -486 0
-23 -492 486 0
-23 492 -486 0
-24 -486 492 0
-24 -482 492 0
-24 -492 486 482 0
-25 -492 486 0
-25 492 -486 0
-26 -492 486 0
-26 492 -486 0
-27 -486 492 0
-27 -483 492 0
-27 -492 486 483 0
-28 -492 486 0
-28 492 -486 0
-29 -486 492 0
-29 -484 492 0
-29 -492 486 484 0
-30 -486 492 0
-30 -485 492 0
-30 -492 486 485 0
-92 -492 486 0
-92 492 -486 0
-31 -493 487 0
-31 -493 488 0
-31 493 -487 -488 0
-32 -493 487 0
-32 -493 489 0
-32 493 -487 -489 0
-33 -493 487 0
-33 -493 490 0
-33 493 -487 -490 0
-34 -493 487 0
-34 -493 491 0
-34 493 -487 -491 0
-35 -493 487 0
-35 -493 492 0
-35 493 -487 -492 0
-36 -493 487 0
-36 493 -487 0
-37 -493 487 0
-37 493 -487 0
-38 -493 487 0
-38 493 -487 0
-39 -493 487 0
-39 493 -487 0
-40 -493 487 0
-40 493 -487 0
-41 -493 487 0
-41 493 -487 0
-42 -493 487 0
-42 493 -487 0
-43 -493 487 0
-43 493 -487 0
-44 -493 487 0
-44 493 -487 0
-45 -493 487 0
-45 493 -487 0
-93 -493 487 0
-93 493 -487 0
-31 -488 494 0
-31 -487 494 0
-31 -494 488 487 0
-32 -494 488 0
-32 494 -488 0
-33 -494 488 0
-33 494 -488 0
-34 -494 488 0
-34 494 -488 0
-35 -494 488 0
-35 494 -488 0
-36 -494 488 0
-36 -494 489 0
-36 494 -488 -489 0
-37 -494 488 0
-37 -494 490 0
-37 494 -488 -490 0
-38 -494 488 0
-38 -494 491 0
-38 494 -488 -491 0
-39 -494 488 0
-39 -494 492 0
-39 494 -488 -492 0
-40 -494 488 0
-40 494 -488 0
-41 -494 488 0
-41 494 -488 0
-42 -494 488 0
-42 494 -488 0
-43 -494 488 0
-43 494 -488 0
-44 -494 488 0
-44 494 -488 0
-45 -494 488 0
-45 494 -488 0
-93 -494 488 0
-93 494 -488 0
-31 -495 489 0
-31 495 -489 0
-32 -489 495 0
-32 -487 495 0
-32 -495 489 487 0
-33 -495 489 0
-33 495 -489 0
-34 -495 489 0
-34 495 -489 0
-35 -495 489 0
-35 495 -489 0
-36 -489 495 0
-36 -488 495 0
-36 -495 489 488 0
-37 -495 489 0
-37 495 -489 0
-38 -495 489 0
-38 495 -489 0
-39 -495 489 0
-39 495 -489 0
-40 -495 489 0
-40 -495 490 0
-40 495 -489 -490 0
-41 -495 489 0
-41 -495 491 0
-41 495 -489 -491 0
-42 -495 489 0
-42 -495 492 0
-42 495 -489 -492 0
-43 -495 489 0
-43 495 -489 0
-44 -495 489 0
-44 495 -489 0
-45 -495 489 0
-45 495 -489 0
-93 -495 489 0
-93 495 -489 0
-31 -496 490 0
-31 496 -490 0
-32 -496 490 0
-32 496 -490 0
-33 -490 496 0
-33 -487 496 0
-33 -496 490 487 0
-34 -496 490 0
-34 496 -490 0
-35 -496 490 0
-35 496 -490 0
-36 -496 490 0
-36 496 -490 0
-37 -490 496 0
-37 -488 496 0
-37 -496 490 488 0
-38 -496 490 0
-38 496 -490 0
-39 -496 490 0
-39 496 -490 0
-40 -490 496 0
-40 -489 496 0
-40 -496 490 489 0
-41 -496 490 0
-41 496 -490 0
-42 -496 490 0
-42 496 -490 0
-43 -496 490 0
-43 -496 491 0
-43 496 -490 -491 0
-44 -496 490 0
-44 -496 492 0
-44 496 -490 -492 0
-45 -496 490 0
-45 496 -490 0
-93 -496 490 0
-93 496 -490 0
-31 -497 491 0
-31 497 -491 0
-32 -497 491 0
-32 497 -491 0
-33 -497 491 0
-33 497 -491 0
-34 -491 497 0
-34 -487 497 0
-34 -497 491 487 0
-35 -497 491 0
-35 497 -491 0
-36 -497 491 0
-36 497 -491 0
-37 -497 491 0
-37 497 -491 0
-38 -491 497 0
-38 -488 497 0
-38 -497 491 488 0
-39 -497 491 0
-39 497 -491 0
-40 -497 491 0
-40 497 -491 0
-41 -491 497 0
-41 -489 497 0
-41 -497 491 489 0
-42 -497 491 0
-42 497 -491 0
-43 -491 497 0
-43 -490 497 0
-43 -497 491 490 0
-44 -497 491 0
-44 497 -491 0
-45 -497 491 0
-45 -497 492 0
-45 497 -491 -492 0
-93 -497 491 0
-93 497 -491 0
-31 -498 492 0
-31 498 -492 0
-32 -498 492 0
-32 498 -492 0
-33 -498 492 0
-33 498 -492 0
-34 -498 492 0
-34 498 -492 0
-35 -492 498 0
-35 -487 498 0
-35 -498 492 487 0
-36 -498 492 0
-36 498 -492 0
-37 -498 492 0
-37 498 -492 0
-38 -498 492 0
-38 498 -492 0
-39 -492 498 0
-39 -488 498 0
-39 -498 492 488 0
-40 -498 492 0
-40 498 -492 0
-41 -498 492 0
-41 498 -492 0
-42 -492 498 0
-42 -489 498 0
-42 -498 492 489 0
-43 -498 492 0
-43 498 -492 0
-44 -492 498 0
-44 -490 498 0
-44 -498 492 490 0
-45 -492 498 0
-45 -491 498 0
-45 -498 492 491 0
-93 -498 492 0
-93 498 -492 0
-46 -499 493 0
-46 -499 494 0
-46 499 -493 -494 0
-47 -499 493 0
-47 -499 495 0
-47 499 -493 -495 0
-48 -499 493 0
-48 -499 496 0
-48 499 -493 -496 0
-49 -499 493 0
-49 -499 497 0
-49 499 -493 -497 0
-50 -499 493 0
-50 -499 498 0
-50 499 -493 -498 0
-51 -499 493 0
-51 499 -493 0
-52 -499 493 0
-52 499 -493 0
-53 -499 493 0
-53 499 -493 0
-54 -499 493 0
-54 499 -493 0
-55 -499 493 0
-55 499 -493 0
-56 -499 493 0
-56 499 -493 0
-57 -499 493 0
-57 499 -493 0
-58 -499 493 0
-58 499 -493 0
-59 -499 493 0
-59 499 -493 0
-60 -499 493 0
-60 499 -493 0
-94 -499 493 0
-94 499 -493 0
-46 -494 500 0
-46 -493 500 0
-46 -500 494 493 0
-47 -500 494 0
-47 500 -494 0
-48 -500 494 0
-48 500 -494 0
-49 -500 494 0
-49 500 -494 0
-50 -500 494 0
-50 500 -494 0
-51 -500 494 0
-51 -500 495 0
-51 500 -494 -495 0
-52 -500 494 0
-52 -500 496 0
-52 500 -494 -496 0
-53 -500 494 0
-53 -500 497 0
-53 500 -494 -497 0
-54 -500 494 0
-54 -500 498 0
-54 500 -494 -498 0
-55 -500 494 0
-55 500 -494 0
-56 -500 494 0
-56 500 -494 0
-57 -500 494 0
-57 500 -494 0
-58 -500 494 0
-58 500 -494 0
-59 -500 494 0
-59 500 -494 0
-60 -500 494 0
-60 500 -494 0
-94 -500 494 0
-94 500 -494 0
-46 -501 495 0
-46 501 -495 0
-47 -495 501 0
-47 -493 501 0
-47 -501 495 493 0
-48 -501 495 0
-48 501 -495 0
-49 -501 495 0
-49 501 -495 0
-50 -501 495 0
-50 501 -495 0
-51 -495 501 0
-51 -494 501 0
-51 -501 495 494 0
-52 -501 495 0
-52 501 -495 0
-53 -501 495 0
-53 501 -495 0
-54 -501 495 0
-54 501 -495 0
-55 -501 495 0
-55 -501 496 0
-55 501 -495 -496 0
-56 -501 495 0
-56 -501 497 0
-56 501 -495 -497 0
-57 -501 495 0
-57 -501 498 0
-57 501 -495 -498 0
-58 -501 495 0
-58 501 -495 0
-59 -501 495 0
-59 501 -495 0
-60 -501 495 0
-60 501 -495 0
-94 -501 495 0
-94 501 -495 0
-46 -502 496 0
-46 502 -496 0
-47 -502 496 0
-47 502 -496 0
-48 -496 502 0
-48 -493 502 0
-48 -502 496 493 0
-49 -502 496 0
-49 502 -496 0
-50 -502 496 0
-50 502 -496 0
-51 -502 496 0
-51 502 -496 0
-52 -496 502 0
-52 -494 502 0
-52 -502 496 494 0
-53 -502 496 0
-53 502 -496 0
-54 -502 496 0
-54 502 -496 0
-55 -496 502 0
-55 -495 502 0
-55 -502 496 495 0
-56 -502 496 0
-56 502 -496 0
-57 -502 496 0
-57 502 -496 0
-58 -502 496 0
-58 -502 497 0
-58 502 -496 -497 0
-59 -502 496 0
-59 -502 498 0
-59 502 -496 -498 0
-60 -502 496 0
-60 502 -496 0
-94 -502 496 0
-94 502 -496 0
-46 -503 497 0
-46 503 -497 0
-47 -503 497 0
-47 503 -497 0
-48 -503 497 0
-48 503 -497 0
-49 -497 503 0
-49 -493 503 0
-49 -503 497 493 0
-50 -503 497 0
-50 503 -497 0
-51 -503 497 0
-51 503 -497 0
-52 -503 497 0
-52 503 -497 0
-53 -497 503 0
-53 -494 503 0
-53 -503 497 494 0
-54 -503 497 0
-54 503 -497 0
-55 -503 497 0
-55 503 -497 0
-56 -497 503 0
-56 -495 503 0
-56 -503 497 495 0
-57 -503 497 0
-57 503 -497 0
-58 -497 503 0
-58 -496 503 0
-58 -503 497 496 0
-59 -503 497 0
-59 503 -497 0
-60 -503 497 0
-60 -503 498 0
-60 503 -497 -498 0
-94 -503 497 0
-94 503 -497 0
-46 -504 498 0
-46 504 -498 0
-47 -504 498 0
-47 504 -498 0
-48 -504 498 0
-48 504 -498 0
-49 -504 498 0
-49 504 -498 0
-50 -498 504 0
-50 -493 504 0
-50 -504 498 493 0
-51 -504 498 0
-51 504 -498 0
-52 -504 498 0
-52 504 -498 0
-53 -504 498 0
-53 504 -498 0
-54 -498 504 0
-54 -494 504 0
-54 -504 498 494 0
-55 -504 498 0
-55 504 -498 0
-56 -504 498 0
-56 504 -498 0
-57 -498 504 0
-57 -495 504 0
-57 -504 498 495 0
-58 -504 498 0
-58 504 -498 0
-59 -498 504 0
-59 -496 504 0
-59 -504 498 496 0
-60 -498 504 0
-60 -497 504 0
-60 -504 498 497 0
-94 -504 498 0
-94 504 -498 0
-61 -505 499 0
-61 -505 500 0
-61 505 -499 -500 0
-62 -505 499 0
-62 -505 501 0
-62 505 -499 -501 0
-63 -505 499 0
-63 -505 502 0
-63 505 -499 -502 0
-64 -505 499 0
-64 -505 503 0
-64 505 -499 -503 0
-65 -505 499 0
-65 -505 504 0
-65 505 -499 -504 0
-66 -505 499 0
-66 505 -499 0
-67 -505 499 0
-67 505 -499 0
-68 -505 499 0
-68 505 -499 0
-69 -505 499 0
-69 505 -499 0
-70 -505 499 0
-70 505 -499 0
-71 -505 499 0
-71 505 -499 0
-72 -505 499 0
-72 505 -499 0
-73 -505 499 0
-73 505 -499 0
-74 -505 499 0
-74 505 -499 0
-75 -505 499 0
-75 505 -499 0
-95 -505 499 0
-95 505 -499 0
-61 -500 506 0
-61 -499 506 0
-61 -506 500 499 0
-62 -506 500 0
-62 506 -500 0
-63 -506 500 0
-63 506 -500 0
-64 -506 500 0
-64 506 -500 0
-65 -506 500 0
-65 506 -500 0
-66 -506 500 0
-66 -506 501 0
-66 506 -500 -501 0
-67 -506 500 0
-67 -506 502 0
-67 506 -500 -502 0
-68 -506 500 0
-68 -506 503 0
-68 506 -500 -503 0
-69 -506 500 0
-69 -506 504 0
-69 506 -500 -504 0
-70 -506 500 0
-70 506 -500 0
-71 -506 500 0
-71 506 -500 0
-72 -506 500 0
-72 506 -500 0
-73 -506 500 0
-73 506 -500 0
-74 -506 500 0
-74 506 -500 0
-75 -506 500 0
-75 506 -500 0
-95 -506 500 0
-95 506 -500 0
-61 -507 501 0
-61 507 -501 0
-62 -501 507 0
-62 -499 507 0
-62 -507 501 499 0
-63 -507 501 0
-63 507 -501 0
-64 -507 501 0
-64 507 -501 0
-65 -507 501 0
-65 507 -501 0
-66 -501 507 0
-66 -500 507 0
-66 -507 501 500 0
-67 -507 501 0
-67 507 -501 0
-68 -507 501 0
-68 507 -501 0
-69 -507 501 0
-69 507 -501 0
-70 -507 501 0
-70 -507 502 0
-70 507 -501 -502 0
-71 -507 501 0
-71 -507 503 0
-71 507 -501 -503 0
-72 -507 501 0
-72 -507 504 0
-72 507 -501 -504 0
-73 -507 501 0
-73 507 -501 0
-74 -507 501 0
-74 507 -501 0
-75 -507 501 0
-75 507 -501 0
-95 -507 501 0
-95 507 -501 0
-61 -508 502 0
-61 508 -502 0
-62 -508 502 0
-62 508 -502 0
-63 -502 508 0
-63 -499 508 0
-63 -508 502 499 0
-64 -508 502 0
-64 508 -502 0
-65 -508 502 0
-65 508 -502 0
-66 -508 502 0
-66 508 -502 0
-67 -502 508 0
-67 -500 508 0
-67 -508 502 500 0
-68 -508 502 0
-68 508 -502 0
-69 -508 502 0
-69 508 -502 0
-70 -502 508 0
-70 -501 508 0
-70 -508 502 501 0
-71 -508 502 0
-71 508 -502 0
-72 -508 502 0
-72 508 -502 0
-73 -508 502 0
-73 -508 503 0
-73 508 -502 -503 0
-74 -508 502 0
-74 -508 504 0
-74 508 -502 -504 0
-75 -508 502 0
-75 508 -502 0
-95 -508 502 0
-95 508 -502 0
-61 -509 503 0
-61 509 -503 0
-62 -509 503 0
-62 509 -503 0
-63 -509 503 0
-63 509 -503 0
-64 -503 509 0
-64 -499 509 0
-64 -509 503 499 0
-65 -509 503 0
-65 509 -503 0
-66 -509 503 0
-66 509 -503 0
-67 -509 503 0
-67 509 -503 0
-68 -503 509 0
-68 -500 509 0
-68 -509 503 500 0
-69 -509 503 0
-69 509 -503 0
-70 -509 503 0
-70 509 -503 0
-71 -503 509 0
-71 -501 509 0
-71 -509 503 501 0
-72 -509 503 0
-72 509 -503 0
-73 -503 509 0
-73 -502 509 0
-73 -509 503 502 0
-74 -509 503 0
-74 509 -503 0
-75 -509 503 0
-75 -509 504 0
-75 509 -503 -504 0
-95 -509 503 0
-95 509 -503 0
-61 -510 504 0
-61 510 -504 0
-62 -510 504 0
-62 510 -504 0
-63 -510 504 0
-63 510 -504 0
-64 -510 504 0
-64 510 -504 0
-65 -504 510 0
-65 -499 510 0
-65 -510 504 499 0
-66 -510 504 0
-66 510 -504 0
-67 -510 504 0
-67 510 -504 0
-68 -510 504 0
-68 510 -504 0
-69 -504 510 0
-69 -500 510 0
-69 -510 504 500 0
-70 -510 504 0
-70 510 -504 0
-71 -510 504 0
-71 510 -504 0
-72 -504 510 0
-72 -501 510 0
-72 -510 504 501 0
-73 -510 504 0
-73 510 -504 0
-74 -504 510 0
-74 -502 510 0
-74 -510 504 502 0
-75 -504 510 0
-75 -503 510 0
-75 -510 504 503 0
-95 -510 504 0
-95 510 -504 0
-76 -511 505 0
-76 -511 506 0
-76 511 -505 -506 0
-77 -511 505 0
-77 -511 507 0
-77 511 -505 -507 0
-78 -511 505 0
-78 -511 508 0
-78 511 -505 -508 0
-79 -511 505 0
-79 -511 509 0
-79 511 -505 -509 0
-80 -511 505 0
-80 -511 510 0
-80 511 -505 -510 0
-81 -511 505 0
-81 511 -505 0
-82 -511 505 0
-82 511 -505 0
-83 -511 505 0
-83 511 -505 0
-84 -511 505 0
-84 511 -505 0
-85 -511 505 0
-85 511 -505 0
-86 -511 505 0
-86 511 -505 0
-87 -511 505 0
-87 511 -505 0
-88 -511 505 0
-88 511 -505 0
-89 -511 505 0
-89 511 -505 0
-90 -511 505 0
-90 511 -505 0
-96 -511 505 0
-96 511 -505 0
-76 -506 512 0
-76 -505 512 0
-76 -512 506 505 0
-77 -512 506 0
-77 512 -506 0
-78 -512 506 0
-78 512 -506 0
-79 -512 506 0
-79 512 -506 0
-80 -512 506 0
-80 512 -506 0
-81 -512 506 0
-81 -512 507 0
-81 512 -506 -507 0
-82 -512 506 0
-82 -512 508 0
-82 512 -506 -508 0
-83 -512 506 0
-83 -512 509 0
-83 512 -506 -509 0
-84 -512 506 0
-84 -512 510 0
-84 512 -506 -510 0
-85 -512 506 0
-85 512 -506 0
-86 -512 506 0
-86 512 -506 0
-87 -512 506 0
-87 512 -506 0
-88 -512 506 0
-88 512 -506 0
-89 -512 506 0
-89 512 -506 0
-90 -512 506 0
-90 512 -506 0
-96 -512 506 0
-96 512 -506 0
-76 -513 507 0
-76 513 -507 0
-77 -507 513 0
-77 -505 513 0
-77 -513 507 505 0
-78 -513 507 0
-78 513 -507 0
-79 -513 507 0
-79 513 -507 0
-80 -513 507 0
-80 513 -507 0
-81 -507 513 0
-81 -506 513 0
-81 -513 507 506 0
-82 -513 507 0
-82 513 -507 0
-83 -513 507 0
-83 513 -507 0
-84 -513 507 0
-84 513 -507 0
-85 -513 507 0
-85 -513 508 0
-85 513 -507 -508 0
-86 -513 507 0
-86 -513 509 0
-86 513 -507 -509 0
-87 -513 507 0
-87 -513 510 0
-87 513 -507 -510 0
-88 -513 507 0
-88 513 -507 0
-89 -513 507 0
-89 513 -507 0
-90 -513 507 0
-90 513 -507 0
-96 -513 507 0
-96 513 -507 0
-76 -514 508 0
-76 514 -508 0
-77 -514 508 0
-77 514 -508 0
-78 -508 514 0
-78 -505 514 0
-78 -514 508 505 0
-79 -514 508 0
-79 514 -508 0
-80 -514 508 0
-80 514 -508 0
-81 -514 508 0
-81 514 -508 0
-82 -508 514 0
-82 -506 514 0
-82 -514 508 506 0
-83 -514 508 0
-83 514 -508 0
-84 -514 508 0
-84 514 -508 0
-85 -508 514 0
-85 -507 514 0
-85 -514 508 507 0
-86 -514 508 0
-86 514 -508 0
-87 -514 508 0
-87 514 -508 0
-88 -514 508 0
-88 -514 509 0
-88 514 -508 -509 0
-89 -514 508 0
-89 -514 510 0
-89 514 -508 -510 0
-90 -514 508 0
-90 514 -508 0
-96 -514 508 0
-96 514 -508 0
-76 -515 509 0
-76 515 -509 0
-77 -515 509 0
-77 515 -509 0
-78 -515 509 0
-78 515 -509 0
-79 -509 515 0
-79 -505 515 0
-79 -515 509 505 0
-80 -515 509 0
-80 515 -509 0
-81 -515 509 0
-81 515 -509 0
-82 -515 509 0
-82 515 -509 0
-83 -509 515 0
-83 -506 515 0
-83 -515 509 506 0
-84 -515 509 0
-84 515 -509 0
-85 -515 509 0
-85 515 -509 0
-86 -509 515 0
-86 -507 515 0
-86 -515 509 507 0
-87 -515 509 0
-87 515 -509 0
-88 -509 515 0
-88 -508 515 0
-88 -515 509 508 0
-89 -515 509 0
-89 515 -509 0
-90 -515 509 0
-90 -515 510 0
-90 515 -509 -510 0
-96 -515 509 0
-96 515 -509 0
-76 -516 510 0
-76 516 -510 0
-77 -516 510 0
-77 516 -510 0
-78 -516 510 0
-78 516 -510 0
-79 -516 510 0
-79 516 -510 0
-80 -510 516 0
-80 -505 516 0
-80 -516 510 505 0
-81 -516 510 0
-81 516 -510 0
-82 -516 510 0
-82 516 -510 0
-83 -516 510 0
-83 516 -510 0
-84 -510 516 0
-84 -506 516 0
-84 -516 510 506 0
-85 -516 510 0
-85 516 -510 0
-86 -516 510 0
-86 516 -510 0
-87 -510 516 0
-87 -507 516 0
-87 -516 510 507 0
-88 -516 510 0
-88 516 -510 0
-89 -510 516 0
-89 -508 516 0
-89 -516 510 508 0
-90 -510 516 0
-90 -509 516 0
-90 -516 510 509 0
-96 -516 510 0
-96 516 -510 0
-517 0
-1 -523 517 0
-1 -523 518 0
-1 523 -517 -518 0
-2 -523 517 0
-2 -523 519 0
-2 523 -517 -519 0
-3 -523 517 0
-3 -523 520 0
-3 523 -517 -520 0
-4 -523 517 0
-4 -523 521 0
-4 523 -517 -521 0
-5 -523 517 0
-5 -523 522 0
-5 523 -517 -522 0
-6 -523 517 0
-6 523 -517 0
-7 -523 517 0
-7 523 -517 0
-8 -523 517 0
-8 523 -517 0
-9 -523 517 0
-9 523 -517 0
-10 -523 517 0
-10 523 -517 0
-11 -523 517 0
-11 523 -517 0
-12 -523 517 0
-12 523 -517 0
-13 -523 517 0
-13 523 -517 0
-14 -523 517 0
-14 523 -517 0
-15 -523 517 0
-15 523 -517 0
-91 -523 517 0
-91 523 -517 0
518 0
-1 -518 524 0
-1 -517 524 0
-1 -524 518 517 0
-2 -524 518 0
-2 524 -518 0
-3 -524 518 0
-3 524 -518 0
-4 -524 518 0
-4 524 -518 0
-5 -524 518 0
-5 524 -518 0
-6 -524 518 0
-6 -524 519 0
-6 524 -518 -519 0
-7 -524 518 0
-7 -524 520 0
-7 524 -518 -520 0
-8 -524 518 0
-8 -524 521 0
-8 524 -518 -521 0
-9 -524 518 0
-9 -524 522 0
-9 524 -518 -522 0
-10 -524 518 0
-10 524 -518 0
-11 -524 518 0
-11 524 -518 0
-12 -524 518 0
-12 524 -518 0
-13 -524 518 0
-13 524 -518 0
-14 -524 518 0
-14 524 -518 0
-15 -524 518 0
-15 524 -518 0
-91 -524 518 0
-91 524 -518 0
519 0
-1 -525 519 0
-1 525 -519 0
-2 -519 525 0
-2 -517 525 0
-2 -525 519 517 0
-3 -525 519 0
-3 525 -519 0
-4 -525 519 0
-4 525 -519 0
-5 -525 519 0
-5 525 -519 0
-6 -519 525 0
-6 -518 525 0
-6 -525 519 518 0
-7 -525 519 0
-7 525 -519 0
-8 -525 519 0
-8 525 -519 0
-9 -525 519 0
-9 525 -519 0
-10 -525 519 0
-10 -525 520 0
-10 525 -519 -520 0
-11 -525 519 0
-11 -525 521 0
-11 525 -519 -521 0
-12 -525 519 0
-12 -525 522 0
-12 525 -519 -522 0
-13 -525 519 0
-13 525 -519 0
-14 -525 519 0
-14 525 -519 0
-15 -525 519 0
-15 525 -519 0
-91 -525 519 0
-91 525 -519 0
-520 0
-1 -526 520 0
-1 526 -520 0
-2 -526 520 0
-2 526 -520 0
-3 -520 526 0
-3 -517 526 0
-3 -526 520 517 0
-4 -526 520 0
-4 526 -520 0
-5 -526 520 0
-5 526 -520 0
-6 -526 520 0
-6 526 -520 0
-7 -520 526 0
-7 -518 526 0
-7 -526 520 518 0
-8 -526 520 0
-8 526 -520 0
-9 -526 520 0
-9 526 -520 0
-10 -520 526 0
-10 -519 526 0
-10 -526 520 519 0
-11 -526 520 0
-11 526 -520 0
-12 -526 520 0
-12 526 -520 0
-13 -526 520 0
-13 -526 521 0
-13 526 -520 -521 0
-14 -526 520 0
-14 -526 522 0
-14 526 -520 -522 0
-15 -526 520 0
-15 526 -520 0
-91 -526 520 0
-91 526 -520 0
521 0
-1 -527 521 0
-1 527 -521 0
-2 -527 521 0
-2 527 -521 0
-3 -527 521 0
-3 527 -521 0
-4 -521 527 0
-4 -517 527 0
-4 -527 521 517 0
-5 -527 521 0
-5 527 -521 0
-6 -527 521 0
-6 527 -521 0
-7 -527 521 0
-7 527 -521 0
-8 -521 527 0
-8 -518 527 0
-8 -527 521 518 0
-9 -527 521 0
-9 527 -521 0
-10 -527 521 0
-10 527 -521 0
-11 -521 527 0
-11 -519 527 0
-11 -527 521 519 0
-12 -527 521 0
-12 527 -521 0
-13 -521 527 0
-13 -520 527 0
-13 -527 521 520 0
-14 -527 521 0
-14 527 -521 0
-15 -527 521 0
-15 -527 522 0
-15 527 -521 -522 0
-91 -527 521 0
-91 527 -521 0
522 0
-1 -528 522 0
-1 528 -522 0
-2 -528 522 0
-2 528 -522 0
-3 -528 522 0
-3 528 -522 0
-4 -528 522 0
-4 528 -522 0
-5 -522 528 0
-5 -517 528 0
-5 -528 522 517 0
-6 -528 522 0
-6 528 -522 0
-7 -528 522 0
-7 528 -522 0
-8 -528 522 0
-8 528 -522 0
-9 -522 528 0
-9 -518 528 0
-9 -528 522 518 0
-10 -528 522 0
-10 528 -522 0
-11 -528 522 0
-11 528 -522 0
-12 -522 528 0
-12 -519 528 0
-12 -528 522 519 0
-13 -528 522 0
-13 528 -522 0
-14 -522 528 0
-14 -520 528 0
-14 -528 522 520 0
-15 -522 528 0
-15 -521 528 0
-15 -528 522 521 0
-91 -528 522 0
-91 528 -522 0
-16 -529 523 0
-16 -529 524 0
-16 529 -523 -524 0
-17 -529 523 0
-17 -529 525 0
-17 529 -523 -525 0
-18 -529 523 0
-18 -529 526 0
-18 529 -523 -526 0
-19 -529 523 0
-19 -529 527 0
-19 529 -523 -527 0
-20 -529 523 0
-20 -529 528 0
-20 529 -523 -528 0
-21 -529 523 0
-21 529 -523 0
-22 -529 523 0
-22 529 -523 0
-23 -529 523 0
-23 529 -523 0
-24 -529 523 0
-24 529 -523 0
-25 -529 523 0
-25 529 -523 0
-26 -529 523 0
-26 529 -523 0
-27 -529 523 0
-27 529 -523 0
-28 -529 523 0
-28 529 -523 0
-29 -529 523 0
-29 529 -523 0
-30 -529 523 0
-30 529 -523 0
-92 -529 523 0
-92 529 -523 0
-16 -524 530 0
-16 -523 530 0
-16 -530 524 523 0
-17 -530 524 0
-17 530 -524 0
-18 -530 524 0
-18 530 -524 0
-19 -530 524 0
-19 530 -524 0
-20 -530 524 0
-20 530 -524 0
-21 -530 524 0
-21 -530 525 0
-21 530 -524 -525 0
-22 -530 524 0
-22 -530 526 0
-22 530 -524 -526 0
-23 -530 524 0
-23 -530 527 0
-23 530 -524 -527 0
-24 -530 524 0
-24 -530 528 0
-24 530 -524 -528 0
-25 -530 524 0
-25 530 -524 0
-26 -530 524 0
-26 530 -524 0
-27 -530 524 0
-27 530 -524 0
-28 -530 524 0
-28 530 -524 0
-29 -530 524 0
-29 530 -524 0
-30 -530 524 0
-30 530 -524 0
-92 -530 524 0
-92 530 -524 0
-16 -531 525 0
-16 531 -525 0
-17 -525 531 0
-17 -523 531 0
-17 -531 525 523 0
-18 -531 525 0
-18 531 -525 0
-19 -531 525 0
-19 531 -525 0
-20 -531 525 0
-20 531 -525 0
-21 -525 531 0
-21 -524 531 0
-21 -531 525 524 0
-22 -531 525 0
-22 531 -525 0
-23 -531 525 0
-23 531 -525 0
-24 -531 525 0
-24 531 -525 0
-25 -531 525 0
-25 -531 526 0
-25 531 -525 -526 0
-26 -531 525 0
-26 -531 527 0
-26 531 -525 -527 0
-27 -531 525 0
-27 -531 528 0
-27 531 -525 -528 0
-28 -531 525 0
-28 531 -525 0
-29 -531 525 0
-29 531 -525 0
-30 -531 525 0
-30 531 -525 0
-92 -531 525 0
-92 531 -525 0
-16 -532 526 0
-16 532 -526 0
-17 -532 526 0
-17 532 -526 0
-18 -526 532 0
-18 -523 532 0
-18 -532 526 523 0
-19 -532 526 0
-19 532 -526 0
-20 -532 526 0
-20 532 -526 0
-21 -532 526 0
-21 532 -526 0
-22 -526 532 0
-22 -524 532 0
-22 -532 526 524 0
-23 -532 526 0
-23 532 -526 0
-24 -532 526 0
-24 532 -526 0
-25 -526 532 0
-25 -525 532 0
-25 -532 526 525 0
-26 -532 526 0
-26 532 -526 0
-27 -532 526 0
-27 532 -526 0
-28 -532 526 0
-28 -532 527 0
-28 532 -526 -527 0
-29 -532 526 0
-29 -532 528 0
-29 532 -526 -528 0
-30 -532 526 0
-30 532 -526 0
-92 -532 526 0
-92 532 -526 0
-16 -533 527 0
-16 533 -527 0
-17 -533 527 0
-17 533 -527 0
-18 -533 527 0
-18 533 -527 0
-19 -527 533 0
-19 -523 533 0
-19 -533 527 523 0
-20 -533 527 0
-20 533 -527 0
-21 -533 527 0
-21 533 -527 0
-22 -533 527 0
-22 533 -527 0
-23 -527 533 0
-23 -524 533 0
-23 -533 527 524 0
-24 -533 527 0
-24 533 -527 0
-25 -533 527 0
-25 533 -527 0
-26 -527 533 0
-26 -525 533 0
-26 -533 527 525 0
-27 -533 527 0
-27 533 -527 0
-28 -527 533 0
-28 -526 533 0
-28 -533 527 526 0
-29 -533 527 0
-29 533 -527 0
-30 -533 527 0
-30 -533 528 0
-30 533 -527 -528 0
-92 -533 527 0
-92 533 -527 0
-16 -534 528 0
-16 534 -528 0
-17 -534 528 0
-17 534 -528 0
-18 -534 528 0
-18 534 -528 0
-19 -534 528 0
-19 534 -528 0
-20 -528 534 0
-20 -523 534 0
-20 -534 528 523 0
-21 -534 528 0
-21 534 -528 0
-22 -534 528 0
-22 534 -528 0
-23 -534 528 0
-23 534 -528 0
-24 -528 534 0
-24 -524 534 0
-24 -534 528 524 0
-25 -534 528 0
-25 534 -528 0
-26 -534 528 0
-26 534 -528 0
-27 -528 534 0
-27 -525 534 0
-27 -534 528 525 0
-28 -534 528 0
-28 534 -528 0
-29 -528 534 0
-29 -526 534 0
-29 -534 528 526 0
-30 -528 534 0
-30 -527 534 0
-30 -534 528 527 0
-92 -534 528 0
-92 534 -528 0
-31 -535 529 0
-31 -535 530 0
-31 535 -529 -530 0
-32 -535 529 0
-32 -535 531 0
-32 535 -529 -531 0
-33 -535 529 0
-33 -535 532 0
-33 535 -529 -532 0
-34 -535 529 0
-34 -535 533 0
-34 535 -529 -533 0
-35 -535 529 0
-35 -535 534 0
-35 535 -529 -534 0
-36 -535 529 0
-36 535 -529 0
-37 -535 529 0
-37 535 -529 0
-38 -535 529 0
-38 535 -529 0
-39 -535 529 0
-39 535 -529 0
-40 -535 529 0
-40 535 -529 0
-41 -535 529 0
-41 535 -529 0
-42 -535 529 0
-42 535 -529 0
-43 -535 529 0
-43 535 -529 0
-44 -535 529 0
-44 535 -529 0
-45 -535 529 0
-45 535 -529 0
-93 -535 529 0
-93 535 -529 0
-31 -530 536 0
-31 -529 536 0
-31 -536 530 529 0
-32 -536 530 0
-32 536 -530 0
-33 -536 530 0
-33 536 -530 0
-34 -536 530 0
-34 536 -530 0
-35 -536 530 0
-35 536 -530 0
-36 -536 530 0
-36 -536 531 0
-36 536 -530 -531 0
-37 -536 530 0
-37 -536 532 0
-37 536 -530 -532 0
-38 -536 530 0
-38 -536 533 0
-38 536 -530 -533 0
-39 -536 530 0
-39 -536 534 0
-39 536 -530 -534 0
-40 -536 530 0
-40 536 -530 0
-41 -536 530 0
-41 536 -530 0
-42 -536 530 0
-42 536 -530 0
-43 -536 530 0
-43 536 -530 0
-44 -536 530 0
-44 536 -530 0
-45 -536 530 0
-45 536 -530 0
-93 -536 530 0
-93 536 -530 0
-31 -537 531 0
-31 537 -531 0
-32 -531 537 0
-32 -529 537 0
-32 -537 531 529 0
-33 -537 531 0
-33 537 -531 0
-34 -537 531 0
-34 537 -531 0
-35 -537 531 0
-35 537 -531 0
-36 -531 537 0
-36 -530 537 0
-36 -537 531 530 0
-37 -537 531 0
-37 537 -531 0
-38 -537 531 0
-38 537 -531 0
-39 -537 531 0
-39 537 -531 0
-40 -537 531 0
-40 -537 532 0
-40 537 -531 -532 0
-41 -537 531 0
-41 -537 533 0
-41 537 -531 -533 0
-42 -537 531 0
-42 -537 534 0
-42 537 -531 -534 0
-43 -537 531 0
-43 537 -531 0
-44 -537 531 0
-44 537 -531 0
-45 -537 531 0
-45 537 -531 0
-93 -537 531 0
-93 537 -531 0
-31 -538 532 0
-31 538 -532 0
-32 -538 532 0
-32 538 -532 0
-33 -532 538 0
-33 -529 538 0
-33 -538 532 529 0
-34 -538 532 0
-34 538 -532 0
-35 -538 532 0
-35 538 -532 0
-36 -538 532 0
-36 538 -532 0
-37 -532 538 0
-37 -530 538 0
-37 -538 532 530 0
-38 -538 532 0
-38 538 -532 0
-39 -538 532 0
-39 538 -532 0
-40 -532 538 0
-40 -531 538 0
-40 -538 532 531 0
-41 -538 532 0
-41 538 -532 0
-42 -538 532 0
-42 538 -532 0
-43 -538 532 0
-43 -538 533 0
-43 538 -532 -533 0
-44 -538 532 0
-44 -538 534 0
-44 538 -532 -534 0
-45 -538 532 0
-45 538 -532 0
-93 -538 532 0
-93 538 -532 0
-31 -539 533 0
-31 539 -533 0
-32 -539 533 0
-32 539 -533 0
-33 -539 533 0
-33 539 -533 0
-34 -533 539 0
-34 -529 539 0
-34 -539 533 529 0
-35 -539 533 0
-35 539 -533 0
-36 -539 533 0
-36 539 -533 0
-37 -539 533 0
-37 539 -533 0
-38 -533 539 0
-38 -530 539 0
-38 -539 533 530 0
-39 -539 533 0
-39 539 -533 0
-40 -539 533 0
-40 539 -533 0
-41 -533 539 0
-41 -531 539 0
-41 -539 533 531 0
-42 -539 533 0
-42 539 -533 0
-43 -533 539 0
-43 -532 539 0
-43 -539 533 532 0
-44 -539 533 0
-44 539 -533 0
-45 -539 533 0
-45 -539 534 0
-45 539 -533 -534 0
-93 -539 533 0
-93 539 -533 0
-31 -540 534 0
-31 540 -534 0
-32 -540 534 0
-32 540 -534 0
-33 -540 534 0
-33 540 -534 0
-34 -540 534 0
-34 540 -534 0
-35 -534 540 0
-35 -529 540 0
-35 -540 534 529 0
-36 -540 534 0
-36 540 -534 0
-37 -540 534 0
-37 540 -534 0
-38 -540 534 0
-38 540 -534 0
-39 -534 540 0
-39 -530 540 0
-39 -540 534 530 0
-40 -540 534 0
-40 540 -534 0
-41 -540 534 0
-41 540 -534 0
-42 -534 540 0
-42 -531 540 0
-42 -540 534 531 0
-43 -540 534 0
-43 540 -534 0
-44 -534 540 0
-44 -532 540 0
-44 -540 534 532 0
-45 -534 540 0
-45 -533 540 0
-45 -540 534 533 0
-93 -540 534 0
-93 540 -534 0
-46 -541 535 0
-46 -541 536 0
-46 541 -535 -536 0
-47 -541 535 0
-47 -541 537 0
-47 541 -535 -537 0
-48 -541 535 0
-48 -541 538 0
-48 541 -535 -538 0
-49 -541 535 0
-49 -541 539 0
-49 541 -535 -539 0
-50 -541 535 0
-50 -541 540 0
-50 541 -535 -540 0
-51 -541 535 0
-51 541 -535 0
-52 -541 535 0
-52 541 -535 0
-53 -541 535 0
-53 541 -535 0
-54 -541 535 0
-54 541 -535 0
-55 -541 535 0
-55 541 -535 0
-56 -541 535 0
-56 541 -535 0
-57 -541 535 0
-57 541 -535 0
-58 -541 535 0
-58 541 -535 0
-59 -541 535 0
-59 541 -535 0
-60 -541 535 0
-60 541 -535 0
-94 -541 535 0
-94 541 -535 0
-46 -536 542 0
-46 -535 542 0
-46 -542 536 535 0
-47 -542 536 0
-47 542 -536 0
-48 -542 536 0
-48 542 -536 0
-49 -542 536 0
-49 542 -536 0
-50 -542 536 0
-50 542 -536 0
-51 -542 536 0
-51 -542 537 0
-51 542 -536 -537 0
-52 -542 536 0
-52 -542 538 0
-52 542 -536 -538 0
-53 -542 536 0
-53 -542 539 0
-53 542 -536 -539 0
-54 -542 536 0
-54 -542 540 0
-54 542 -536 -540 0
-55 -542 536 0
-55 542 -536 0
-56 -542 536 0
-56 542 -536 0
-57 -542 536 0
-57 542 -536 0
-58 -542 536 0
-58 542 -536 0
-59 -542 536 0
-59 542 -536 0
-60 -542 536 0
-60 542 -536 0
-94 -542 536 0
-94 542 -536 0
-46 -543 537 0
-46 543 -537 0
-47 -537 543 0
-47 -535 543 0
-47 -543 537 535 0
-48 -543 537 0
-48 543 -537 0
-49 -543 537 0
-49 543 -537 0
-50 -543 537 0
-50 543 -537 0
-51 -537 543 0
-51 -536 543 0
-51 -543 537 536 0
-52 -543 537 0
-52 543 -537 0
-53 -543 537 0
-53 543 -537 0
-54 -543 537 0
-54 543 -537 0
-55 -543 537 0
-55 -543 538 0
-55 543 -537 -538 0
-56 -543 537 0
-56 -543 539 0
-56 543 -537 -539 0
-57 -543 537 0
-57 -543 540 0
-57 543 -537 -540 0
-58 -543 537 0
-58 543 -537 0
-59 -543 537 0
-59 543 -537 0
-60 -543 537 0
-60 543 -537 0
-94 -543 537 0
-94 543 -537 0
-46 -544 538 0
-46 544 -538 0
-47 -544 538 0
-47 544 -538 0
-48 -538 544 0
-48 -535 544 0
-48 -544 538 535 0
-49 -544 538 0
-49 544 -538 0
-50 -544 538 0
-50 544 -538 0
-51 -544 538 0
-51 544 -538 0
-52 -538 544 0
-52 -536 544 0
-52 -544 538 536 0
-53 -544 538 0
-53 544 -538 0
-54 -544 538 0
-54 544 -538 0
-55 -538 544 0
-55 -537 544 0
-55 -544 538 537 0
-56 -544 538 0
-56 544 -538 0
-57 -544 538 0
-57 544 -538 0
-58 -544 538 0
-58 -544 539 0
-58 544 -538 -539 0
-59 -544 538 0
-59 -544 540 0
-59 544 -538 -540 0
-60 -544 538 0
-60 544 -538 0
-94 -544 538 0
-94 544 -538 0
-46 -545 539 0
-46 545 -539 0
-47 -545 539 0
-47 545 -539 0
-48 -545 539 0
-48 545 -539 0
-49 -539 545 0
-49 -535 545 0
-49 -545 539 535 0
-50 -545 539 0
-50 545 -539 0
-51 -545 539 0
-51 545 -539 0
-52 -545 539 0
-52 545 -539 0
-53 -539 545 0
-53 -536 545 0
-53 -545 539 536 0
-54 -545 539 0
-54 545 -539 0
-55 -545 539 0
-55 545 -539 0
-56 -539 545 0
-56 -537 545 0
-56 -545 539 537 0
-57 -545 539 0
-57 545 -539 0
-58 -539 545 0
-58 -538 545 0
-58 -545 539 538 0
-59 -545 539 0
-59 545 -539 0
-60 -545 539 0
-60 -545 540 0
-60 545 -539 -540 0
-94 -545 539 0
-94 545 -539 0
-46 -546 540 0
-46 546 -540 0
-47 -546 540 0
-47 546 -540 0
-48 -546 540 0
-48 546 -540 0
-49 -546 540 0
-49 546 -540 0
-50 -540 546 0
-50 -535 546 0
-50 -546 540 535 0
-51 -546 540 0
-51 546 -540 0
-52 -546 540 0
-52 546 -540 0
-53 -546 540 0
-53 546 -540 0
-54 -540 546 0
-54 -536 546 0
-54 -546 540 536 0
-55 -546 540 0
-55 546 -540 0
-56 -546 540 0
-56 546 -540 0
-57 -540 546 0
-57 -537 546 0
-57 -546 540 537 0
-58 -546 540 0
-58 546 -540 0
-59 -540 546 0
-59 -538 546 0
-59 -546 540 538 0
-60 -540 546 0
-60 -539 546 0
-60 -546 540 539 0
-94 -546 540 0
-94 546 -540 0
-61 -547 541 0
-61 -547 542 0
-61 547 -541 -542 0
-62 -547 541 0
-62 -547 543 0
-62 547 -541 -543 0
-63 -547 541 0
-63 -547 544 0
-63 547 -541 -544 0
-64 -547 541 0
-64 -547 545 0
-64 547 -541 -545 0
-65 -547 541 0
-65 -547 546 0
-65 547 -541 -546 0
-66 -547 541 0
-66 547 -541 0
-67 -547 541 0
-67 547 -541 0
-68 -547 541 0
-68 547 -541 0
-69 -547 541 0
-69 547 -541 0
-70 -547 541 0
-70 547 -541 0
-71 -547 541 0
-71 547 -541 0
-72 -547 541 0
-72 547 -541 0
-73 -547 541 0
-73 547 -541 0
-74 -547 541 0
-74 547 -541 0
-75 -547 541 0
-75 547 -541 0
-95 -547 541 0
-95 547 -541 0
-61 -542 548 0
-61 -541 548 0
-61 -548 542 541 0
-62 -548 542 0
-62 548 -542 0
-63 -548 542 0
-63 548 -542 0
-64 -548 542 0
-64 548 -542 0
-65 -548 542 0
-65 548 -542 0
-66 -548 542 0
-66 -548 543 0
-66 548 -542 -543 0
-67 -548 542 0
-67 -548 544 0
-67 548 -542 -544 0
-68 -548 542 0
-68 -548 545 0
-68 548 -542 -545 0
-69 -548 542 0
-69 -548 546 0
-69 548 -542 -546 0
-70 -548 542 0
-70 548 -542 0
-71 -548 542 0
-71 548 -542 0
-72 -548 542 0
-72 548 -542 0
-73 -548 542 0
-73 548 -542 0
-74 -548 542 0
-74 548 -542 0
-75 -548 542 0
-75 548 -542 0
-95 -548 542 0
-95 548 -542 0
-61 -549 543 0
-61 549 -543 0
-62 -543 549 0
-62 -541 549 0
-62 -549 543 541 0
-63 -549 543 0
-63 549 -543 0
-64 -549 543 0
-64 549 -543 0
-65 -549 543 0
-65 549 -543 0
-66 -543 549 0
-66 -542 549 0
-66 -549 543 542 0
-67 -549 543 0
-67 549 -543 0
-68 -549 543 0
-68 549 -543 0
-69 -549 543 0
-69 549 -543 0
-70 -549 543 0
-70 -549 544 0
-70 549 -543 -544 0
-71 -549 543 0
-71 -549 545 0
-71 549 -543 -545 0
-72 -549 543 0
-72 -549 546 0
-72 549 -543 -546 0
-73 -549 543 0
-73 549 -543 0
-74 -549 543 0
-74 549 -543 0
-75 -549 543 0
-75 549 -543 0
-95 -549 543 0
-95 549 -543 0
-61 -550 544 0
-61 550 -544 0
-62 -550 544 0
-62 550 -544 0
-63 -544 550 0
-63 -541 550 0
-63 -550 544 541 0
-64 -550 544 0
-64 550 -544 0
-65 -550 544 0
-65 550 -544 0
-66 -550 544 0
-66 550 -544 0
-67 -544 550 0
-67 -542 550 0
-67 -550 544 542 0
-68 -550 544 0
-68 550 -544 0
-69 -550 544 0
-69 550 -544 0
-70 -544 550 0
-70 -543 550 0
-70 -550 544 543 0
-71 -550 544 0
-71 550 -544 0
-72 -550 544 0
-72 550 -544 0
-73 -550 544 0
-73 -550 545 0
-73 550 -544 -545 0
-74 -550 544 0
-74 -550 546 0
-74 550 -544 -546 0
-75 -550 544 0
-75 550 -544 0
-95 -550 544 0
-95 550 -544 0
-61 -551 545 0
-61 551 -545 0
-62 -551 545 0
-62 551 -545 0
-63 -551 545 0
-63 551 -545 0
-64 -545 551 0
-64 -541 551 0
-64 -551 545 541 0
-65 -551 545 0
-65 551 -545 0
-66 -551 545 0
-66 551 -545 0
-67 -551 545 0
-67 551 -545 0
-68 -545 551 0
-68 -542 551 0
-68 -551 545 542 0
-69 -551 545 0
-69 551 -545 0
-70 -551 545 0
-70 551 -545 0
-71 -545 551 0
-71 -543 551 0
-71 -551 545 543 0
-72 -551 545 0
-72 551 -545 0
-73 -545 551 0
-73 -544 551 0
-73 -551 545 544 0
-74 -551 545 0
-74 551 -545 0
-75 -551 545 0
-75 -551 546 0
-75 551 -545 -546 0
-95 -551 545 0
-95 551 -545 0
-61 -552 546 0
-61 552 -546 0
-62 -552 546 0
-62 552 -546 0
-63 -552 546 0
-63 552 -546 0
-64 -552 546 0
-64 552 -546 0
-65 -546 552 0
-65 -541 552 0
-65 -552 546 541 0
-66 -552 546 0
-66 552 -546 0
-67 -552 546 0
-67 552 -546 0
-68 -552 546 0
-68 552 -546 0
-69 -546 552 0
-69 -542 552 0
-69 -552 546 542 0
-70 -552 546 0
-70 552 -546 0
-71 -552 546 0
-71 552 -546 0
-72 -546 552 0
-72 -543 552 0
-72 -552 546 543 0
-73 -552 546 0
-73 552 -546 0
-74 -546 552 0
-74 -544 552 0
-74 -552 546 544 0
-75 -546 552 0
-75 -545 552 0
-75 -552 546 545 0
-95 -552 546 0
-95 552 -546 0
-76 -553 547 0
-76 -553 548 0
-76 553 -547 -548 0
-77 -553 547 0
-77 -553 549 0
-77 553 -547 -549 0
-78 -553 547 0
-78 -553 550 0
-78 553 -547 -550 0
-79 -553 547 0
-79 -553 551 0
-79 553 -547 -551 0
-80 -553 547 0
-80 -553 552 0
-80 553 -547 -552 0
-81 -553 547 0
-81 553 -547 0
-82 -553 547 0
-82 553 -547 0
-83 -553 547 0
-83 553 -547 0
-84 -553 547 0
-84 553 -547 0
-85 -553 547 0
-85 553 -547 0
-86 -553 547 0
-86 553 -547 0
-87 -553 547 0
-87 553 -547 0
-88 -553 547 0
-88 553 -547 0
-89 -553 547 0
-89 553 -547 0
-90 -553 547 0
-90 553 -547 0
-96 -553 547 0
-96 553 -547 0
-76 -548 554 0
-76 -547 554 0
-76 -554 548 547 0
-77 -554 548 0
-77 554 -548 0
-78 -554 548 0
-78 554 -548 0
-79 -554 548 0
-79 554 -548 0
-80 -554 548 0
-80 554 -548 0
-81 -554 548 0
-81 -554 549 0
-81 554 -548 -549 0
-82 -554 548 0
-82 -554 550 0
-82 554 -548 -550 0
-83 -554 548 0
-83 -554 551 0
-83 554 -548 -551 0
-84 -554 548 0
-84 -554 552 0
-84 554 -548 -552 0
-85 -554 548 0
-85 554 -548 0
-86 -554 548 0
-86 554 -548 0
-87 -554 548 0
-87 554 -548 0
-88 -554 548 0
-88 554 -548 0
-89 -554 548 0
-89 554 -548 0
-90 -554 548 0
-90 554 -548 0
-96 -554 548 0
-96 554 -548 0
-76 -555 549 0
-76 555 -549 0
-77 -549 555 0
-77 -547 555 0
-77 -555 549 547 0
-78 -555 549 0
-78 555 -549 0
-79 -555 549 0
-79 555 -549 0
-80 -555 549 0
-80 555 -549 0
-81 -549 555 0
-81 -548 555 0
-81 -555 549 548 0
-82 -555 549 0
-82 555 -549 0
-83 -555 549 0
-83 555 -549 0
-84 -555 549 0
-84 555 -549 0
-85 -555 549 0
-85 -555 550 0
-85 555 -549 -550 0
-86 -555 549 0
-86 -555 551 0
-86 555 -549 -551 0
-87 -555 549 0
-87 -555 552 0
-87 555 -549 -552 0
-88 -555 549 0
-88 555 -549 0
-89 -555 549 0
-89 555 -549 0
-90 -555 549 0
-90 555 -549 0
-96 -555 549 0
-96 555 -549 0
-76 -556 550 0
-76 556 -550 0
-77 -556 550 0
-77 556 -550 0
-78 -550 556 0
-78 -547 556 0
-78 -556 550 547 0
-79 -556 550 0
-79 556 -550 0
-80 -556 550 0
-80 556 -550 0
-81 -556 550 0
-81 556 -550 0
-82 -550 556 0
-82 -548 556 0
-82 -556 550 548 0
-83 -556 550 0
-83 556 -550 0
-84 -556 550 0
-84 556 -550 0
-85 -550 556 0
-85 -549 556 0
-85 -556 550 549 0
-86 -556 550 0
-86 556 -550 0
-87 -556 550 0
-87 556 -550 0
-88 -556 550 0
-88 -556 551 0
-88 556 -550 -551 0
-89 -556 550 0
-89 -556 552 0
-89 556 -550 -552 0
-90 -556 550 0
-90 556 -550 0
-96 -556 550 0
-96 556 -550 0
-76 -557 551 0
-76 557 -551 0
-77 -557 551 0
-77 557 -551 0
-78 -557 551 0
-78 557 -551 0
-79 -551 557 0
-79 -547 557 0
-79 -557 551 547 0
-80 -557 551 0
-80 557 -551 0
-81 -557 551 0
-81 557 -551 0
-82 -557 551 0
-82 557 -551 0
-83 -551 557 0
-83 -548 557 0
-83 -557 551 548 0
-84 -557 551 0
-84 557 -551 0
-85 -557 551 0
-85 557 -551 0
-86 -551 557 0
-86 -549 557 0
-86 -557 551 549 0
-87 -557 551 0
-87 557 -551 0
-88 -551 557 0
-88 -550 557 0
-88 -557 551 550 0
-89 -557 551 0
-89 557 -551 0
-90 -557 551 0
-90 -557 552 0
-90 557 -551 -552 0
-96 -557 551 0
-96 557 -551 0
-76 -558 552 0
-76 558 -552 0
-77 -558 552 0
-77 558 -552 0
-78 -558 552 0
-78 558 -552 0
-79 -558 552 0
-79 558 -552 0
-80 -552 558 0
-80 -547 558 0
-80 -558 552 547 0
-81 -558 552 0
-81 558 -552 0
-82 -558 552 0
-82 558 -552 0
-83 -558 552 0
-83 558 -552 0
-84 -552 558 0
-84 -548 558 0
-84 -558 552 548 0
-85 -558 552 0
-85 558 -552 0
-86 -558 552 0
-86 558 -552 0
-87 -552 558 0
-87 -549 558 0
-87 -558 552 549 0
-88 -558 552 0
-88 558 -552 0
-89 -552 558 0
-89 -550 558 0
-89 -558 552 550 0
-90 -552 558 0
-90 -551 558 0
-90 -558 552 551 0
-96 -558 552 0
-96 558 -552 0
-559 0
-1 -565 559 0
-1 -565 560 0
-1 565 -559 -560 0
-2 -565 559 0
-2 -565 561 0
-2 565 -559 -561 0
-3 -565 559 0
-3 -565 562 0
-3 565 -559 -562 0
-4 -565 559 0
-4 -565 563 0
-4 565 -559 -563 0
-5 -565 559 0
-5 -565 564 0
-5 565 -559 -564 0
-6 -565 559 0
-6 565 -559 0
-7 -565 559 0
-7 565 -559 0
-8 -565 559 0
-8 565 -559 0
-9 -565 559 0
-9 565 -559 0
-10 -565 559 0
-10 565 -559 0
-11 -565 559 0
-11 565 -559 0
-12 -565 559 0
-12 565 -559 0
-13 -565 559 0
-13 565 -559 0
-14 -565 559 0
-14 565 -559 0
-15 -565 559 0
-15 565 -559 0
-91 -565 559 0
-91 565 -559 0
560 0
-1 -560 566 0
-1 -559 566 0
-1 -566 560 559 0
-2 -566 560 0
-2 566 -560 0
-3 -566 560 0
-3 566 -560 0
-4 -566 560 0
-4 566 -560 0
-5 -566 560 0
-5 566 -560 0
-6 -566 560 0
-6 -566 561 0
-6 566 -560 -561 0
-7 -566 560 0
-7 -566 562 0
-7 566 -560 -562 0
-8 -566 560 0
-8 -566 563 0
-8 566 -560 -563 0
-9 -566 560 0
-9 -566 564 0
-9 566 -560 -564 0
-10 -566 560 0
-10 566 -560 0
-11 -566 560 0
-11 566 -560 0
-12 -566 560 0
-12 566 -560 0
-13 -566 560 0
-13 566 -560 0
-14 -566 560 0
-14 566 -560 0
-15 -566 560 0
-15 566 -560 0
-91 -566 560 0
-91 566 -560 0
561 0
-1 -567 561 0
-1 567 -561 0
-2 -561 567 0
-2 -559 567 0
-2 -567 561 559 0
-3 -567 561 0
-3 567 -561 0
-4 -567 561 0
-4 567 -561 0
-5 -567 561 0
-5 567 -561 0
-6 -561 567 0
-6 -560 567 0
-6 -567 561 560 0
-7 -567 561 0
-7 567 -561 0
-8 -567 561 0
-8 567 -561 0
-9 -567 561 0
-9 567 -561 0
-10 -567 561 0
-10 -567 562 0
-10 567 -561 -562 0
-11 -567 561 0
-11 -567 563 0
-11 567 -561 -563 0
-12 -567 561 0
-12 -567 564 0
-12 567 -561 -564 0
-13 -567 561 0
-13 567 -561 0
-14 -567 561 0
-14 567 -561 0
-15 -567 561 0
-15 567 -561 0
-91 -567 561 0
-91 567 -561 0
562 0
-1 -568 562 0
-1 568 -562 0
-2 -568 562 0
-2 568 -562 0
-3 -562 568 0
-3 -559 568 0
-3 -568 562 559 0
-4 -568 562 0
-4 568 -562 0
-5 -568 562 0
-5 568 -562 0
-6 -568 562 0
-6 568 -562 0
-7 -562 568 0
-7 -560 568 0
-7 -568 562 560 0
-8 -568 562 0
-8 568 -562 0
-9 -568 562 0
-9 568 -562 0
-10 -562 568 0
-10 -561 568 0
-10 -568 562 561 0
-11 -568 562 0
-11 568 -562 0
-12 -568 562 0
-12 568 -562 0
-13 -568 562 0
-13 -568 563 0
-13 568 -562 -563 0
-14 -568 562 0
-14 -568 564 0
-14 568 -562 -564 0
-15 -568 562 0
-15 568 -562 0
-91 -568 562 0
-91 568 -562 0
563 0
-1 -569 563 0
-1 569 -563 0
-2 -569 563 0
-2 569 -563 0
-3 -569 563 0
-3 569 -563 0
-4 -563 569 0
-4 -559 569 0
-4 -569 563 559 0
-5 -569 563 0
-5 569 -563 0
-6 -569 563 0
-6 569 -563 0
-7 -569 563 0
-7 569 -563 0
-8 -563 569 0
-8 -560 569 0
-8 -569 563 560 0
-9 -569 563 0
-9 569 -563 0
-10 -569 563 0
-10 569 -563 0
-11 -563 569 0
-11 -561 569 0
-11 -569 563 561 0
-12 -569 563 0
-12 569 -563 0
-13 -563 569 0
-13 -562 569 0
-13 -569 563 562 0
-14 -569 563 0
-14 569 -563 0
-15 -569 563 0
-15 -569 564 0
-15 569 -563 -564 0
-91 -569 563 0
-91 569 -563 0
564 0
-1 -570 564 0
-1 570 -564 0
-2 -570 564 0
-2 570 -564 0
-3 -570 564 0
-3 570 -564 0
-4 -570 564 0
-4 570 -564 0
-5 -564 570 0
-5 -559 570 0
-5 -570 564 559 0
-6 -570 564 0
-6 570 -564 0
-7 -570 564 0
-7 570 -564 0
-8 -570 564 0
-8 570 -564 0
-9 -564 570 0
-9 -560 570 0
-9 -570 564 560 0
-10 -570 564 0
-10 570 -564 0
-11 -570 564 0
-11 570 -564 0
-12 -564 570 0
-12 -561 570 0
-12 -570 564 561 0
-13 -570 564 0
-13 570 -564 0
-14 -564 570 0
-14 -562 570 0
-14 -570 564 562 0
-15 -564 570 0
-15 -563 570 0
-15 -570 564 563 0
-91 -570 564 0
-91 570 -564 0
-16 -571 565 0
-16 -571 566 0
-16 571 -565 -566 0
-17 -571 565 0
-17 -571 567 0
-17 571 -565 -567 0
-18 -571 565 0
-18 -571 568 0
-18 571 -565 -568 0
-19 -571 565 0
-19 -571 569 0
-19 571 -565 -569 0
-20 -571 565 0
-20 -571 570 0
-20 571 -565 -570 0
-21 -571 565 0
-21 571 -565 0
-22 -571 565 0
-22 571 -565 0
-23 -571 565 0
-23 571 -565 0
-24 -571 565 0
-24 571 -565 0
-25 -571 565 0
-25 571 -565 0
-26 -571 565 0
-26 571 -565 0
-27 -571 565 0
-27 571 -565 0
-28 -571 565 0
-28 571 -565 0
-29 -571 565 0
-29 571 -565 0
-30 -571 565 0
-30 571 -565 0
-92 -571 565 0
-92 571 -565 0
-16 -566 572 0
-16 -565 572 0
-16 -572 566 565 0
-17 -572 566 0
-17 572 -566 0
-18 -572 566 0
-18 572 -566 0
-19 -572 566 0
-19 572 -566 0
-20 -572 566 0
-20 572 -566 0
-21 -572 566 0
-21 -572 567 0
-21 572 -566 -567 0
-22 -572 566 0
-22 -572 568 0
-22 572 -566 -568 0
-23 -572 566 0
-23 -572 569 0
-23 572 -566 -569 0
-24 -572 566 0
-24 -572 570 0
-24 572 -566 -570 0
-25 -572 566 0
-25 572 -566 0
-26 -572 566 0
-26 572 -566 0
-27 -572 566 0
-27 572 -566 0
-28 -572 566 0
-28 572 -566 0
-29 -572 566 0
-29 572 -566 0
-30 -572 566 0
-30 572 -566 0
-92 -572 566 0
-92 572 -566 0
-16 -573 567 0
-16 573 -567 0
-17 -567 573 0
-17 -565 573 0
-17 -573 567 565 0
-18 -573 567 0
-18 573 -567 0
-19 -573 567 0
-19 573 -567 0
-20 -573 567 0
-20 573 -567 0
-21 -567 573 0
-21 -566 573 0
-21 -573 567 566 0
-22 -573 567 0
-22 573 -567 0
-23 -573 567 0
-23 573 -567 0
-24 -573 567 0
-24 573 -567 0
-25 -573 567 0
-25 -573 568 0
-25 573 -567 -568 0
-26 -573 567 0
-26 -573 569 0
-26 573 -567 -569 0
-27 -573 567 0
-27 -573 570 0
-27 573 -567 -570 0
-28 -573 567 0
-28 573 -567 0
-29 -573 567 0
-29 573 -567 0
-30 -573 567 0
-30 573 -567 0
-92 -573 567 0
-92 573 -567 0
-16 -574 568 0
-16 574 -568 0
-17 -574 568 0
-17 574 -568 0
-18 -568 574 0
-18 -565 574 0
-18 -574 568 565 0
-19 -574 568 0
-19 574 -568 0
-20 -574 568 0
-20 574 -568 0
-21 -574 568 0
-21 574 -568 0
-22 -568 574 0
-22 -566 574 0
-22 -574 568 566 0
-23 -574 568 0
-23 574 -568 0
-24 -574 568 0
-24 574 -568 0
-25 -568 574 0
-25 -567 574 0
-25 -574 568 567 0
-26 -574 568 0
-26 574 -568 0
-27 -574 568 0
-27 574 -568 0
-28 -574 568 0
-28 -574 569 0
-28 574 -568 -569 0
-29 -574 568 0
-29 -574 570 0
-29 574 -568 -570 0
-30 -574 568 0
-30 574 -568 0
-92 -574 568 0
-92 574 -568 0
-16 -575 569 0
-16 575 -569 0
-17 -575 569 0
-17 575 -569 0
-18 -575 569 0
-18 575 -569 0
-19 -569 575 0
-19 -565 575 0
-19 -575 569 565 0
-20 -575 569 0
-20 575 -569 0
-21 -575 569 0
-21 575 -569 0
-22 -575 569 0
-22 575 -569 0
-23 -569 575 0
-23 -566 575 0
-23 -575 569 566 0
-24 -575 569 0
-24 575 -569 0
-25 -575 569 0
-25 575 -569 0
-26 -569 575 0
-26 -567 575 0
-26 -575 569 567 0
-27 -575 569 0
-27 575 -569 0
-28 -569 575 0
-28 -568 575 0
-28 -575 569 568 0
-29 -575 569 0
-29 575 -569 0
-30 -575 569 0
-30 -575 570 0
-30 575 -569 -570 0
-92 -575 569 0
-92 575 -569 0
-16 -576 570 0
-16 576 -570 0
-17 -576 570 0
-17 576 -570 0
-18 -576 570 0
-18 576 -570 0
-19 -576 570 0
-19 576 -570 0
-20 -570 576 0
-20 -565 576 0
-20 -576 570 565 0
-21 -576 570 0
-21 576 -570 0
-22 -576 570 0
-22 576 -570 0
-23 -576 570 0
-23 576 -570 0
-24 -570 576 0
-24 -566 576 0
-24 -576 570 566 0
-25 -576 570 0
-25 576 -570 0
-26 -576 570 0
-26 576 -570 0
-27 -570 576 0
-27 -567 576 0
-27 -576 570 567 0
-28 -576 570 0
-28 576 -570 0
-29 -570 576 0
-29 -568 576 0
-29 -576 570 568 0
-30 -570 576 0
-30 -569 576 0
-30 -576 570 569 0
-92 -576 570 0
-92 576 -570 0
-31 -577 571 0
-31 -577 572 0
-31 577 -571 -572 0
-32 -577 571 0
-32 -577 573 0
-32 577 -571 -573 0
-33 -577 571 0
-33 -577 574 0
-33 577 -571 -574 0
-34 -577 571 0
-34 -577 575 0
-34 577 -571 -575 0
-35 -577 571 0
-35 -577 576 0
-35 577 -571 -576 0
-36 -577 571 0
-36 577 -571 0
-37 -577 571 0
-37 577 -571 0
-38 -577 571 0
-38 577 -571 0
-39 -577 571 0
-39 577 -571 0
-40 -577 571 0
-40 577 -571 0
-41 -577 571 0
-41 577 -571 0
-42 -577 571 0
-42 577 -571 0
-43 -577 571 0
-43 577 -571 0
-44 -577 571 0
-44 577 -571 0
-45 -577 571 0
-45 577 -571 0
-93 -577 571 0
-93 577 -571 0
-31 -572 578 0
-31 -571 578 0
-31 -578 572 571 0
-32 -578 572 0
-32 578 -572 0
-33 -578 572 0
-33 578 -572 0
-34 -578 572 0
-34 578 -572 0
-35 -578 572 0
-35 578 -572 0
-36 -578 572 0
-36 -578 573 0
-36 578 -572 -573 0
-37 -578 572 0
-37 -578 574 0
-37 578 -572 -574 0
-38 -578 572 0
-38 -578 575 0
-38 578 -572 -575 0
-39 -578 572 0
-39 -578 576 0
-39 578 -572 -576 0
-40 -578 572 0
-40 578 -572 0
-41 -578 572 0
-41 578 -572 0
-42 -578 572 0
-42 578 -572 0
-43 -578 572 0
-43 578 -572 0
-44 -578 572 0
-44 578 -572 0
-45 -578 572 0
-45 578 -572 0
-93 -578 572 0
-93 578 -572 0
-31 -579 573 0
-31 579 -573 0
-32 -573 579 0
-32 -571 579 0
-32 -579 573 571 0
-33 -579 573 0
-33 579 -573 0
-34 -579 573 0
-34 579 -573 0
-35 -579 573 0
-35 579 -573 0
-36 -573 579 0
-36 -572 579 0
-36 -579 573 572 0
-37 -579 573 0
-37 579 -573 0
-38 -579 573 0
-38 579 -573 0
-39 -579 573 0
-39 579 -573 0
-40 -579 573 0
-40 -579 574 0
-40 579 -573 -574 0
-41 -579 573 0
-41 -579 575 0
-41 579 -573 -575 0
-42 -579 573 0
-42 -579 576 0
-42 579 -573 -576 0
-43 -579 573 0
-43 579 -573 0
-44 -579 573 0
-44 579 -573 0
-45 -579 573 0
-45 579 -573 0
-93 -579 573 0
-93 579 -573 0
-31 -580 574 0
-31 580 -574 0
-32 -580 574 0
-32 580 -574 0
-33 -574 580 0
-33 -571 580 0
-33 -580 574 571 0
-34 -580 574 0
-34 580 -574 0
-35 -580 574 0
-35 580 -574 0
-36 -580 574 0
-36 580 -574 0
-37 -574 580 0
-37 -572 580 0
-37 -580 574 572 0
-38 -580 574 0
-38 580 -574 0
-39 -580 574 0
-39 580 -574 0
-40 -574 580 0
-40 -573 580 0
-40 -580 574 573 0
-41 -580 574 0
-41 580 -574 0
-42 -580 574 0
-42 580 -574 0
-43 -580 574 0
-43 -580 575 0
-43 580 -574 -575 0
-44 -580 574 0
-44 -580 576 0
-44 580 -574 -576 0
-45 -580 574 0
-45 580 -574 0
-93 -580 574 0
-93 580 -574 0
-31 -581 575 0
-31 581 -575 0
-32 -581 575 0
-32 581 -575 0
-33 -581 575 0
-33 581 -575 0
-34 -575 581 0
-34 -571 581 0
-34 -581 575 571 0
-35 -581 575 0
-35 581 -575 0
-36 -581 575 0
-36 581 -575 0
-37 -581 575 0
-37 581 -575 0
-38 -575 581 0
-38 -572 581 0
-38 -581 575 572 0
-39 -581 575 0
-39 581 -575 0
-40 -581 575 0
-40 581 -575 0
-41 -575 581 0
-41 -573 581 0
-41 -581 575 573 0
-42 -581 575 0
-42 581 -575 0
-43 -575 581 0
-43 -574 581 0
-43 -581 575 574 0
-44 -581 575 0
-44 581 -575 0
-45 -581 575 0
-45 -581 576 0
-45 581 -575 -576 0
-93 -581 575 0
-93 581 -575 0
-31 -582 576 0
-31 582 -576 0
-32 -582 576 0
-32 582 -576 0
-33 -582 576 0
-33 582 -576 0
-34 -582 576 0
-34 582 -576 0
-35 -576 582 0
-35 -571 582 0
-35 -582 576 571 0
-36 -582 576 0
-36 582 -576 0
-37 -582 576 0
-37 582 -576 0
-38 -582 576 0
-38 582 -576 0
-39 -576 582 0
-39 -572 582 0
-39 -582 576 572 0
-40 -582 576 0
-40 582 -576 0
-41 -582 576 0
-41 582 -576 0
-42 -576 582 0
-42 -573 582 0
-42 -582 576 573 0
-43 -582 576 0
-43 582 -576 0
-44 -576 582 0
-44 -574 582 0
-44 -582 576 574 0
-45 -576 582 0
-45 -575 582 0
-45 -582 576 575 0
-93 -582 576 0
-93 582 -576 0
-46 -583 577 0
-46 -583 578 0
-46 583 -577 -578 0
-47 -583 577 0
-47 -583 579 0
-47 583 -577 -579 0
-48 -583 577 0
-48 -583 580 0
-48 583 -577 -580 0
-49 -583 577 0
-49 -583 581 0
-49 583 -577 -581 0
-50 -583 577 0
-50 -583 582 0
-50 583 -577 -582 0
-51 -583 577 0
-51 583 -577 0
-52 -583 577 0
-52 583 -577 0
-53 -583 577 0
-53 583 -577 0
-54 -583 577 0
-54 583 -577 0
-55 -583 577 0
-55 583 -577 0
-56 -583 577 0
-56 583 -577 0
-57 -583 577 0
-57 583 -577 0
-58 -583 577 0
-58 583 -577 0
-59 -583 577 0
-59 583 -577 0
-60 -583 577 0
-60 583 -577 0
-94 -583 577 0
-94 583 -577 0
-46 -578 584 0
-46 -577 584 0
-46 -584 578 577 0
-47 -584 578 0
-47 584 -578 0
-48 -584 578 0
-48 584 -578 0
-49 -584 578 0
-49 584 -578 0
-50 -584 578 0
-50 584 -578 0
-51 -584 578 0
-51 -584 579 0
-51 584 -578 -579 0
-52 -584 578 0
-52 -584 580 0
-52 584 -578 -580 0
-53 -584 578 0
-53 -584 581 0
-53 584 -578 -581 0
-54 -584 578 0
-54 -584 582 0
-54 584 -578 -582 0
-55 -584 578 0
-55 584 -578 0
-56 -584 578 0
-56 584 -578 0
-57 -584 578 0
-57 584 -578 0
-58 -584 578 0
-58 584 -578 0
-59 -584 578 0
-59 584 -578 0
-60 -584 578 0
-60 584 -578 0
-94 -584 578 0
-94 584 -578 0
-46 -585 579 0
-46 585 -579 0
-47 -579 585 0
-47 -577 585 0
-47 -585 579 577 0
-48 -585 579 0
-48 585 -579 0
-49 -585 579 0
-49 585 -579 0
-50 -585 579 0
-50 585 -579 0
-51 -579 585 0
-51 -578 585 0
-51 -585 579 578 0
-52 -585 579 0
-52 585 -579 0
-53 -585 579 0
-53 585 -579 0
-54 -585 579 0
-54 585 -579 0
-55 -585 579 0
-55 -585 580 0
-55 585 -579 -580 0
-56 -585 579 0
-56 -585 581 0
-56 585 -579 -581 0
-57 -585 579 0
-57 -585 582 0
-57 585 -579 -582 0
-58 -585 579 0
-58 585 -579 0
-59 -585 579 0
-59 585 -579 0
-60 -585 579 0
-60 585 -579 0
-94 -585 579 0
-94 585 -579 0
-46 -586 580 0
-46 586 -580 0
-47 -586 580 0
-47 586 -580 0
-48 -580 586 0
-48 -577 586 0
-48 -586 580 577 0
-49 -586 580 0
-49 586 -580 0
-50 -586 580 0
-50 586 -580 0
-51 -586 580 0
-51 586 -580 0
-52 -580 586 0
-52 -578 586 0
-52 -586 580 578 0
-53 -586 580 0
-53 586 -580 0
-54 -586 580 0
-54 586 -580 0
-55 -580 586 0
-55 -579 586 0
-55 -586 580 579 0
-56 -586 580 0
-56 586 -580 0
-57 -586 580 0
-57 586 -580 0
-58 -586 580 0
-58 -586 581 0
-58 586 -580 -581 0
-59 -586 580 0
-59 -586 582 0
-59 586 -580 -582 0
-60 -586 580 0
-60 586 -580 0
-94 -586 580 0
-94 586 -580 0
-46 -587 581 0
-46 587 -581 0
-47 -587 581 0
-47 587 -581 0
-48 -587 581 0
-48 587 -581 0
-49 -581 587 0
-49 -577 587 0
-49 -587 581 577 0
-50 -587 581 0
-50 587 -581 0
-51 -587 581 0
-51 587 -581 0
-52 -587 581 0
-52 587 -581 0
-53 -581 587 0
-53 -578 587 0
-53 -587 581 578 0
-54 -587 581 0
-54 587 -581 0
-55 -587 581 0
-55 587 -581 0
-56 -581 587 0
-56 -579 587 0
-56 -587 581 579 0
-57 -587 581 0
-57 587 -581 0
-58 -581 587 0
-58 -580 587 0
-58 -587 581 580 0
-59 -587 581 0
-59 587 -581 0
-60 -587 581 0
-60 -587 582 0
-60 587 -581 -582 0
-94 -587 581 0
-94 587 -581 0
-46 -588 582 0
-46 588 -582 0
-47 -588 582 0
-47 588 -582 0
-48 -588 582 0
-48 588 -582 0
-49 -588 582 0
-49 588 -582 0
-50 -582 588 0
-50 -577 588 0
-50 -588 582 577 0
-51 -588 582 0
-51 588 -582 0
-52 -588 582 0
-52 588 -582 0
-53 -588 582 0
-53 588 -582 0
-54 -582 588 0
-54 -578 588 0
-54 -588 582 578 0
-55 -588 582 0
-55 588 -582 0
-56 -588 582 0
-56 588 -582 0
-57 -582 588 0
-57 -579 588 0
-57 -588 582 579 0
-58 -588 582 0
-58 588 -582 0
-59 -582 588 0
-59 -580 588 0
-59 -588 582 580 0
-60 -582 588 0
-60 -581 588 0
-60 -588 582 581 0
-94 -588 582 0
-94 588 -582 0
-61 -589 583 0
-61 -589 584 0
-61 589 -583 -584 0
-62 -589 583 0
-62 -589 585 0
-62 589 -583 -585 0
-63 -589 583 0
-63 -589 586 0
-63 589 -583 -586 0
-64 -589 583 0
-64 -589 587 0
-64 589 -583 -587 0
-65 -589 583 0
-65 -589 588 0
-65 589 -583 -588 0
-66 -589 583 0
-66 589 -583 0
-67 -589 583 0
-67 589 -583 0
-68 -589 583 0
-68 589 -583 0
-69 -589 583 0
-69 589 -583 0
-70 -589 583 0
-70 589 -583 0
-71 -589 583 0
-71 589 -583 0
-72 -589 583 0
-72 589 -583 0
-73 -589 583 0
-73 589 -583 0
-74 -589 583 0
-74 589 -583 0
-75 -589 583 0
-75 589 -583 0
-95 -589 583 0
-95 589 -583 0
-61 -584 590 0
-61 -583 590 0
-61 -590 584 583 0
-62 -590 584 0
-62 590 -584 0
-63 -590 584 0
-63 590 -584 0
-64 -590 584 0
-64 590 -584 0
-65 -590 584 0
-65 590 -584 0
-66 -590 584 0
-66 -590 585 0
-66 590 -584 -585 0
-67 -590 584 0
-67 -590 586 0
-67 590 -584 -586 0
-68 -590 584 0
-68 -590 587 0
-68 590 -584 -587 0
-69 -590 584 0
-69 -590 588 0
-69 590 -584 -588 0
-70 -590 584 0
-70 590 -584 0
-71 -590 584 0
-71 590 -584 0
-72 -590 584 0
-72 590 -584 0
-73 -590 584 0
-73 590 -584 0
-74 -590 584 0
-74 590 -584 0
-75 -590 584 0
-75 590 -584 0
-95 -590 584 0
-95 590 -584 0
-61 -591 585 0
-61 591 -585 0
-62 -585 591 0
-62 -583 591 0
-62 -591 585 583 0
-63 -591 585 0
-63 591 -585 0
-64 -591 585 0
-64 591 -585 0
-65 -591 585 0
-65 591 -585 0
-66 -585 591 0
-66 -584 591 0
-66 -591 585 584 0
-67 -591 585 0
-67 591 -585 0
-68 -591 585 0
-68 591 -585 0
-69 -591 585 0
-69 591 -585 0
-70 -591 585 0
-70 -591 586 0
-70 591 -585 -586 0
-71 -591 585 0
-71 -591 587 0
-71 591 -585 -587 0
-72 -591 585 0
-72 -591 588 0
-72 591 -585 -588 0
-73 -591 585 0
-73 591 -585 0
-74 -591 585 0
-74 591 -585 0
-75 -591 585 0
-75 591 -585 0
-95 -591 585 0
-95 591 -585 0
-61 -592 586 0
-61 592 -586 0
-62 -592 586 0
-62 592 -586 0
-63 -586 592 0
-63 -583 592 0
-63 -592 586 583 0
-64 -592 586 0
-64 592 -586 0
-65 -592 586 0
-65 592 -586 0
-66 -592 586 0
-66 592 -586 0
-67 -586 592 0
-67 -584 592 0
-67 -592 586 584 0
-68 -592 586 0
-68 592 -586 0
-69 -592 586 0
-69 592 -586 0
-70 -586 592 0
-70 -585 592 0
-70 -592 586 585 0
-71 -592 586 0
-71 592 -586 0
-72 -592 586 0
-72 592 -586 0
-73 -592 586 0
-73 -592 587 0
-73 592 -586 -587 0
-74 -592 586 0
-74 -592 588 0
-74 592 -586 -588 0
-75 -592 586 0
-75 592 -586 0
-95 -592 586 0
-95 592 -586 0
-61 -593 587 0
-61 593 -587 0
-62 -593 587 0
-62 593 -587 0
-63 -593 587 0
-63 593 -587 0
-64 -587 593 0
-64 -583 593 0
-64 -593 587 583 0
-65 -593 587 0
-65 593 -587 0
-66 -593 587 0
-66 593 -587 0
-67 -593 587 0
-67 593 -587 0
-68 -587 593 0
-68 -584 593 0
-68 -593 587 584 0
-69 -593 587 0
-69 593 -587 0
-70 -593 587 0
-70 593 -587 0
-71 -587 593 0
-71 -585 593 0
-71 -593 587 585 0
-72 -593 587 0
-72 593 -587 0
-73 -587 593 0
-73 -586 593 0
-73 -593 587 586 0
-74 -593 587 0
-74 593 -587 0
-75 -593 587 0
-75 -593 588 0
-75 593 -587 -588 0
-95 -593 587 0
-95 593 -587 0
-61 -594 588 0
-61 594 -588 0
-62 -594 588 0
-62 594 -588 0
-63 -594 588 0
-63 594 -588 0
-64 -594 588 0
-64 594 -588 0
-65 -588 594 0
-65 -583 594 0
-65 -594 588 583 0
-66 -594 588 0
-66 594 -588 0
-67 -594 588 0
-67 594 -588 0
-68 -594 588 0
-68 594 -588 0
-69 -588 594 0
-69 -584 594 0
-69 -594 588 584 0
-70 -594 588 0
-70 594 -588 0
-71 -594 588 0
-71 594 -588 0
-72 -588 594 0
-72 -585 594 0
-72 -594 588 585 0
-73 -594 588 0
-73 594 -588 0
-74 -588 594 0
-74 -586 594 0
-74 -594 588 586 0
-75 -588 594 0
-75 -587 594 0
-75 -594 588 587 0
-95 -594 588 0
-95 594 -588 0
-76 -595 589 0
-76 -595 590 0
-76 595 -589 -590 0
-77 -595 589 0
-77 -595 591 0
-77 595 -589 -591 0
-78 -595 589 0
-78 -595 592 0
-78 595 -589 -592 0
-79 -595 589 0
-79 -595 593 0
-79 595 -589 -593 0
-80 -595 589 0
-80 -595 594 0
-80 595 -589 -594 0
-81 -595 589 0
-81 595 -589 0
-82 -595 589 0
-82 595 -589 0
-83 -595 589 0
-83 595 -589 0
-84 -595 589 0
-84 595 -589 0
-85 -595 589 0
-85 595 -589 0
-86 -595 589 0
-86 595 -589 0
-87 -595 589 0
-87 595 -589 0
-88 -595 589 0
-88 595 -589 0
-89 -595 589 0
-89 595 -589 0
-90 -595 589 0
-90 595 -589 0
-96 -595 589 0
-96 595 -589 0
-76 -590 596 0
-76 -589 596 0
-76 -596 590 589 0
-77 -596 590 0
-77 596 -590 0
-78 -596 590 0
-78 596 -590 0
-79 -596 590 0
-79 596 -590 0
-80 -596 590 0
-80 596 -590 0
-81 -596 590 0
-81 -596 591 0
-81 596 -590 -591 0
-82 -596 590 0
-82 -596 592 0
-82 596 -590 -592 0
-83 -596 590 0
-83 -596 593 0
-83 596 -590 -593 0
-84 -596 590 0
-84 -596 594 0
-84 596 -590 -594 0
-85 -596 590 0
-85 596 -590 0
-86 -596 590 0
-86 596 -590 0
-87 -596 590 0
-87 596 -590 0
-88 -596 590 0
-88 596 -590 0
-89 -596 590 0
-89 596 -590 0
-90 -596 590 0
-90 596 -590 0
-96 -596 590 0
-96 596 -590 0
-76 -597 591 0
-76 597 -591 0
-77 -591 597 0
-77 -589 597 0
-77 -597 591 589 0
-78 -597 591 0
-78 597 -591 0
-79 -597 591 0
-79 597 -591 0
-80 -597 591 0
-80 597 -591 0
-81 -591 597 0
-81 -590 597 0
-81 -597 591 590 0
-82 -597 591 0
-82 597 -591 0
-83 -597 591 0
-83 597 -591 0
-84 -597 591 0
-84 597 -591 0
-85 -597 591 0
-85 -597 592 0
-85 597 -591 -592 0
-86 -597 591 0
-86 -597 593 0
-86 597 -591 -593 0
-87 -597 591 0
-87 -597 594 0
-87 597 -591 -594 0
-88 -597 591 0
-88 597 -591 0
-89 -597 591 0
-89 597 -591 0
-90 -597 591 0
-90 597 -591 0
-96 -597 591 0
-96 597 -591 0
-76 -598 592 0
-76 598 -592 0
-77 -598 592 0
-77 598 -592 0
-78 -592 598 0
-78 -589 598 0
-78 -598 592 589 0
-79 -598 592 0
-79 598 -592 0
-80 -598 592 0
-80 598 -592 0
-81 -598 592 0
-81 598 -592 0
-82 -592 598 0
-82 -590 598 0
-82 -598 592 590 0
-83 -598 592 0
-83 598 -592 0
-84 -598 592 0
-84 598 -592 0
-85 -592 598 0
-85 -591 598 0
-85 -598 592 591 0
-86 -598 592 0
-86 598 -592 0
-87 -598 592 0
-87 598 -592 0
-88 -598 592 0
-88 -598 593 0
-88 598 -592 -593 0
-89 -598 592 0
-89 -598 594 0
-89 598 -592 -594 0
-90 -598 592 0
-90 598 -592 0
-96 -598 592 0
-96 598 -592 0
-76 -599 593 0
-76 599 -593 0
-77 -599 593 0
-77 599 -593 0
-78 -599 593 0
-78 599 -593 0
-79 -593 599 0
-79 -589 599 0
-79 -599 593 589 0
-80 -599 593 0
-80 599 -593 0
-81 -599 593 0
-81 599 -593 0
-82 -599 593 0
-82 599 -593 0
-83 -593 599 0
-83 -590 599 0
-83 -599 593 590 0
-84 -599 593 0
-84 599 -593 0
-85 -599 593 0
-85 599 -593 0
-86 -593 599 0
-86 -591 599 0
-86 -599 593 591 0
-87 -599 593 0
-87 599 -593 0
-88 -593 599 0
-88 -592 599 0
-88 -599 593 592 0
-89 -599 593 0
-89 599 -593 0
-90 -599 593 0
-90 -599 594 0
-90 599 -593 -594 0
-96 -599 593 0
-96 599 -593 0
-76 -600 594 0
-76 600 -594 0
-77 -600 594 0
-77 600 -594 0
-78 -600 594 0
-78 600 -594 0
-79 -600 594 0
-79 600 -594 0
-80 -594 600 0
-80 -589 600 0
-80 -600 594 589 0
-81 -600 594 0
-81 600 -594 0
-82 -600 594 0
-82 600 -594 0
-83 -600 594 0
-83 600 -594 0
-84 -594 600 0
-84 -590 600 0
-84 -600 594 590 0
-85 -600 594 0
-85 600 -594 0
-86 -600 594 0
-86 600 -594 0
-87 -594 600 0
-87 -591 600 0
-87 -600 594 591 0
-88 -600 594 0
-88 600 -594 0
-89 -594 600 0
-89 -592 600 0
-89 -600 594 592 0
-90 -594 600 0
-90 -593 600 0
-90 -600 594 593 0
-96 -600 594 0
-96 600 -594 0
601 0
-1 -607 601 0
-1 -607 602 0
-1 607 -601 -602 0
-2 -607 601 0
-2 -607 603 0
-2 607 -601 -603 0
-3 -607 601 0
-3 -607 604 0
-3 607 -601 -604 0
-4 -607 601 0
-4 -607 605 0
-4 607 -601 -605 0
-5 -607 601 0
-5 -607 606 0
-5 607 -601 -606 0
-6 -607 601 0
-6 607 -601 0
-7 -607 601 0
-7 607 -601 0
-8 -607 601 0
-8 607 -601 0
-9 -607 601 0
-9 607 -601 0
-10 -607 601 0
-10 607 -601 0
-11 -607 601 0
-11 607 -601 0
-12 -607 601 0
-12 607 -601 0
-13 -607 601 0
-13 607 -601 0
-14 -607 601 0
-14 607 -601 0
-15 -607 601 0
-15 607 -601 0
-91 -607 601 0
-91 607 -601 0
602 0
-1 -602 608 0
-1 -601 608 0
-1 -608 602 601 0
-2 -608 602 0
-2 608 -602 0
-3 -608 602 0
-3 608 -602 0
-4 -608 602 0
-4 608 -602 0
-5 -608 602 0
-5 608 -602 0
-6 -608 602 0
-6 -608 603 0
-6 608 -602 -603 0
-7 -608 602 0
-7 -608 604 0
-7 608 -602 -604 0
-8 -608 602 0
-8 -608 605 0
-8 608 -602 -605 0
-9 -608 602 0
-9 -608 606 0
-9 608 -602 -606 0
-10 -608 602 0
-10 608 -602 0
-11 -608 602 0
-11 608 -602 0
-12 -608 602 0
-12 608 -602 0
-13 -608 602 0
-13 608 -602 0
-14 -608 602 0
-14 608 -602 0
-15 -608 602 0
-15 608 -602 0
-91 -608 602 0
-91 608 -602 0
603 0
-1 -609 603 0
-1 609 -603 0
-2 -603 609 0
-2 -601 609 0
-2 -609 603 601 0
-3 -609 603 0
-3 609 -603 0
-4 -609 603 0
-4 609 -603 0
-5 -609 603 0
-5 609 -603 0
-6 -603 609 0
-6 -602 609 0
-6 -609 603 602 0
-7 -609 603 0
-7 609 -603 0
-8 -609 603 0
-8 609 -603 0
-9 -609 603 0
-9 609 -603 0
-10 -609 603 0
-10 -609 604 0
-10 609 -603 -604 0
-11 -609 603 0
-11 -609 605 0
-11 609 -603 -605 0
-12 -609 603 0
-12 -609 606 0
-12 609 -603 -606 0
-13 -609 603 0
-13 609 -603 0
-14 -609 603 0
-14 609 -603 0
-15 -609 603 0
-15 609 -603 0
-91 -609 603 0
-91 609 -603 0
-604 0
-1 -610 604 0
-1 610 -604 0
-2 -610 604 0
-2 610 -604 0
-3 -604 610 0
-3 -601 610 0
-3 -610 604 601 0
-4 -610 604 0
-4 610 -604 0
-5 -610 604 0
-5 610 -604 0
-6 -610 604 0
-6 610 -604 0
-7 -604 610 0
-7 -602 610 0
-7 -610 604 602 0
-8 -610 604 0
-8 610 -604 0
-9 -610 604 0
-9 610 -604 0
-10 -604 610 0
-10 -603 610 0
-10 -610 604 603 0
-11 -610 604 0
-11 610 -604 0
-12 -610 604 0
-12 610 -604 0
-13 -610 604 0
-13 -610 605 0
-13 610 -604 -605 0
-14 -610 604 0
-14 -610 606 0
-14 610 -604 -606 0
-15 -610 604 0
-15 610 -604 0
-91 -610 604 0
-91 610 -604 0
-605 0
-1 -611 605 0
-1 611 -605 0
-2 -611 605 0
-2 611 -605 0
-3 -611 605 0
-3 611 -605 0
-4 -605 611 0
-4 -601 611 0
-4 -611 605 601 0
-5 -611 605 0
-5 611 -605 0
-6 -611 605 0
-6 611 -605 0
-7 -611 605 0
-7 611 -605 0
-8 -605 611 0
-8 -602 611 0
-8 -611 605 602 0
-9 -611 605 0
-9 611 -605 0
-10 -611 605 0
-10 611 -605 0
-11 -605 611 0
-11 -603 611 0
-11 -611 605 603 0
-12 -611 605 0
-12 611 -605 0
-13 -605 611 0
-13 -604 611 0
-13 -611 605 604 0
-14 -611 605 0
-14 611 -605 0
-15 -611 605 0
-15 -611 606 0
-15 611 -605 -606 0
-91 -611 605 0
-91 611 -605 0
-606 0
-1 -612 606 0
-1 612 -606 0
-2 -612 606 0
-2 612 -606 0
-3 -612 606 0
-3 612 -606 0
-4 -612 606 0
-4 612 -606 0
-5 -606 612 0
-5 -601 612 0
-5 -612 606 601 0
-6 -612 606 0
-6 612 -606 0
-7 -612 606 0
-7 612 -606 0
-8 -612 606 0
-8 612 -606 0
-9 -606 612 0
-9 -602 612 0
-9 -612 606 602 0
-10 -612 606 0
-10 612 -606 0
-11 -612 606 0
-11 612 -606 0
-12 -606 612 0
-12 -603 612 0
-12 -612 606 603 0
-13 -612 606 0
-13 612 -606 0
-14 -606 612 0
-14 -604 612 0
-14 -612 606 604 0
-15 -606 612 0
-15 -605 612 0
-15 -612 606 605 0
-91 -612 606 0
-91 612 -606 0
-16 -613 607 0
-16 -613 608 0
-16 613 -607 -608 0
-17 -613 607 0
-17 -613 609 0
-17 613 -607 -609 0
-18 -613 607 0
-18 -613 610 0
-18 613 -607 -610 0
-19 -613 607 0
-19 -613 611 0
-19 613 -607 -611 0
-20 -613 607 0
-20 -613 612 0
-20 613 -607 -612 0
-21 -613 607 0
-21 613 -607 0
-22 -613 607 0
-22 613 -607 0
-23 -613 607 0
-23 613 -607 0
-24 -613 607 0
-24 613 -607 0
-25 -613 607 0
-25 613 -607 0
-26 -613 607 0
-26 613 -607 0
-27 -613 607 0
-27 613 -607 0
-28 -613 607 0
-28 613 -607 0
-29 -613 607 0
-29 613 -607 0
-30 -613 607 0
-30 613 -607 0
-92 -613 607 0
-92 613 -607 0
-16 -608 614 0
-16 -607 614 0
-16 -614 608 607 0
-17 -614 608 0
-17 614 -608 0
-18 -614 608 0
-18 614 -608 0
-19 -614 608 0
-19 614 -608 0
-20 -614 608 0
-20 614 -608 0
-21 -614 608 0
-21 -614 609 0
-21 614 -608 -609 0
-22 -614 608 0
-22 -614 610 0
-22 614 -608 -610 0
-23 -614 608 0
-23 -614 611 0
-23 614 -608 -611 0
-24 -614 608 0
-24 -614 612 0
-24 614 -608 -612 0
-25 -614 608 0
-25 614 -608 0
-26 -614 608 0
-26 614 -608 0
-27 -614 608 0
-27 614 -608 0
-28 -614 608 0
-28 614 -608 0
-29 -614 608 0
-29 614 -608 0
-30 -614 608 0
-30 614 -608 0
-92 -614 608 0
-92 614 -608 0
-16 -615 609 0
-16 615 -609 0
-17 -609 615 0
-17 -607 615 0
-17 -615 609 607 0
-18 -615 609 0
-18 615 -609 0
-19 -615 609 0
-19 615 -609 0
-20 -615 609 0
-20 615 -609 0
-21 -609 615 0
-21 -608 615 0
-21 -615 609 608 0
-22 -615 609 0
-22 615 -609 0
-23 -615 609 0
-23 615 -609 0
-24 -615 609 0
-24 615 -609 0
-25 -615 609 0
-25 -615 610 0
-25 615 -609 -610 0
-26 -615 609 0
-26 -615 611 0
-26 615 -609 -611 0
-27 -615 609 0
-27 -615 612 0
-27 615 -609 -612 0
-28 -615 609 0
-28 615 -609 0
-29 -615 609 0
-29 615 -609 0
-30 -615 609 0
-30 615 -609 0
-92 -615 609 0
-92 615 -609 0
-16 -616 610 0
-16 616 -610 0
-17 -616 610 0
-17 616 -610 0
-18 -610 616 0
-18 -607 616 0
-18 -616 610 607 0
-19 -616 610 0
-19 616 -610 0
-20 -616 610 0
-20 616 -610 0
-21 -616 610 0
-21 616 -610 0
-22 -610 616 0
-22 -608 616 0
-22 -616 610 608 0
-23 -616 610 0
-23 616 -610 0
-24 -616 610 0
-24 616 -610 0
-25 -610 616 0
-25 -609 616 0
-25 -616 610 609 0
-26 -616 610 0
-26 616 -610 0
-27 -616 610 0
-27 616 -610 0
-28 -616 610 0
-28 -616 611 0
-28 616 -610 -611 0
-29 -616 610 0
-29 -616 612 0
-29 616 -610 -612 0
-30 -616 610 0
-30 616 -610 0
-92 -616 610 0
-92 616 -610 0
-16 -617 611 0
-16 617 -611 0
-17 -617 611 0
-17 617 -611 0
-18 -617 611 0
-18 617 -611 0
-19 -611 617 0
-19 -607 617 0
-19 -617 611 607 0
-20 -617 611 0
-20 617 -611 0
-21 -617 611 0
-21 617 -611 0
-22 -617 611 0
-22 617 -611 0
-23 -611 617 0
-23 -608 617 0
-23 -617 611 608 0
-24 -617 611 0
-24 617 -611 0
-25 -617 611 0
-25 617 -611 0
-26 -611 617 0
-26 -609 617 0
-26 -617 611 609 0
-27 -617 611 0
-27 617 -611 0
-28 -611 617 0
-28 -610 617 0
-28 -617 611 610 0
-29 -617 611 0
-29 617 -611 0
-30 -617 611 0
-30 -617 612 0
-30 617 -611 -612 0
-92 -617 611 0
-92 617 -611 0
-16 -618 612 0
-16 618 -612 0
-17 -618 612 0
-17 618 -612 0
-18 -618 612 0
-18 618 -612 0
-19 -618 612 0
-19 618 -612 0
-20 -612 618 0
-20 -607 618 0
-20 -618 612 607 0
-21 -618 612 0
-21 618 -612 0
-22 -618 612 0
-22 618 -612 0
-23 -618 612 0
-23 618 -612 0
-24 -612 618 0
-24 -608 618 0
-24 -618 612 608 0
-25 -618 612 0
-25 618 -612 0
-26 -618 612 0
-26 618 -612 0
-27 -612 618 0
-27 -609 618 0
-27 -618 612 609 0
-28 -618 612 0
-28 618 -612 0
-29 -612 618 0
-29 -610 618 0
-29 -618 612 610 0
-30 -612 618 0
-30 -611 618 0
-30 -618 612 611 0
-92 -618 612 0
-92 618 -612 0
-31 -619 613 0
-31 -619 614 0
-31 619 -613 -614 0
-32 -619 613 0
-32 -619 615 0
-32 619 -613 -615 0
-33 -619 613 0
-33 -619 616 0
-33 619 -613 -616 0
-34 -619 613 0
-34 -619 617 0
-34 619 -613 -617 0
-35 -619 613 0
-35 -619 618 0
-35 619 -613 -618 0
-36 -619 613 0
-36 619 -613 0
-37 -619 613 0
-37 619 -613 0
-38 -619 613 0
-38 619 -613 0
-39 -619 613 0
-39 619 -613 0
-40 -619 613 0
-40 619 -613 0
-41 -619 613 0
-41 619 -613 0
-42 -619 613 0
-42 619 -613 0
-43 -619 613 0
-43 619 -613 0
-44 -619 613 0
-44 619 -613 0
-45 -619 613 0
-45 619 -613 0
-93 -619 613 0
-93 619 -613 0
-31 -614 620 0
-31 -613 620 0
-31 -620 614 613 0
-32 -620 614 0
-32 620 -614 0
-33 -620 614 0
-33 620 -614 0
-34 -620 614 0
-34 620 -614 0
-35 -620 614 0
-35 620 -614 0
-36 -620 614 0
-36 -620 615 0
-36 620 -614 -615 0
-37 -620 614 0
-37 -620 616 0
-37 620 -614 -616 0
-38 -620 614 0
-38 -620 617 0
-38 620 -614 -617 0
-39 -620 614 0
-39 -620 618 0
-39 620 -614 -618 0
-40 -620 614 0
-40 620 -614 0
-41 -620 614 0
-41 620 -614 0
-42 -620 614 0
-42 620 -614 0
-43 -620 614 0
-43 620 -614 0
-44 -620 614 0
-44 620 -614 0
-45 -620 614 0
-45 620 -614 0
-93 -620 614 0
-93 620 -614 0
-31 -621 615 0
-31 621 -615 0
-32 -615 621 0
-32 -613 621 0
-32 -621 615 613 0
-33 -621 615 0
-33 621 -615 0
-34 -621 615 0
-34 621 -615 0
-35 -621 615 0
-35 621 -615 0
-36 -615 621 0
-36 -614 621 0
-36 -621 615 614 0
-37 -621 615 0
-37 621 -615 0
-38 -621 615 0
-38 621 -615 0
-39 -621 615 0
-39 621 -615 0
-40 -621 615 0
-40 -621 616 0
-40 621 -615 -616 0
-41 -621 615 0
-41 -621 617 0
-41 621 -615 -617 0
-42 -621 615 0
-42 -621 618 0
-42 621 -615 -618 0
-43 -621 615 0
-43 621 -615 0
-44 -621 615 0
-44 621 -615 0
-45 -621 615 0
-45 621 -615 0
-93 -621 615 0
-93 621 -615 0
-31 -622 616 0
-31 622 -616 0
-32 -622 616 0
-32 622 -616 0
-33 -616 622 0
-33 -613 622 0
-33 -622 616 613 0
-34 -622 616 0
-34 622 -616 0
-35 -622 616 0
-35 622 -616 0
-36 -622 616 0
-36 622 -616 0
-37 -616 622 0
-37 -614 622 0
-37 -622 616 614 0
-38 -622 616 0
-38 622 -616 0
-39 -622 616 0
-39 622 -616 0
-40 -616 622 0
-40 -615 622 0
-40 -622 616 615 0
-41 -622 616 0
-41 622 -616 0
-42 -622 616 0
-42 622 -616 0
-43 -622 616 0
-43 -622 617 0
-43 622 -616 -617 0
-44 -622 616 0
-44 -622 618 0
-44 622 -616 -618 0
-45 -622 616 0
-45 622 -616 0
-93 -622 616 0
-93 622 -616 0
-31 -623 617 0
-31 623 -617 0
-32 -623 617 0
-32 623 -617 0
-33 -623 617 0
-33 623 -617 0
-34 -617 623 0
-34 -613 623 0
-34 -623 617 613 0
-35 -623 617 0
-35 623 -617 0
-36 -623 617 0
-36 623 -617 0
-37 -623 617 0
-37 623 -617 0
-38 -617 623 0
-38 -614 623 0
-38 -623 617 614 0
-39 -623 617 0
-39 623 -617 0
-40 -623 617 0
-40 623 -617 0
-41 -617 623 0
-41 -615 623 0
-41 -623 617 615 0
-42 -623 617 0
-42 623 -617 0
-43 -617 623 0
-43 -616 623 0
-43 -623 617 616 0
-44 -623 617 0
-44 623 -617 0
-45 -623 617 0
-45 -623 618 0
-45 623 -617 -618 0
-93 -623 617 0
-93 623 -617 0
-31 -624 618 0
-31 624 -618 0
-32 -624 618 0
-32 624 -618 0
-33 -624 618 0
-33 624 -618 0
-34 -624 618 0
-34 624 -618 0
-35 -618 624 0
-35 -613 624 0
-35 -624 618 613 0
-36 -624 618 0
-36 624 -618 0
-37 -624 618 0
-37 624 -618 0
-38 -624 618 0
-38 624 -618 0
-39 -618 624 0
-39 -614 624 0
-39 -624 618 614 0
-40 -624 618 0
-40 624 -618 0
-41 -624 618 0
-41 624 -618 0
-42 -618 624 0
-42 -615 624 0
-42 -624 618 615 0
-43 -624 618 0
-43 624 -618 0
-44 -618 624 0
-44 -616 624 0
-44 -624 618 616 0
-45 -618 624 0
-45 -617 624 0
-45 -624 618 617 0
-93 -624 618 0
-93 624 -618 0
-46 -625 619 0
-46 -625 620 0
-46 625 -619 -620 0
-47 -625 619 0
-47 -625 621 0
-47 625 -619 -621 0
-48 -625 619 0
-48 -625 622 0
-48 625 -619 -622 0
-49 -625 619 0
-49 -625 623 0
-49 625 -619 -623 0
-50 -625 619 0
-50 -625 624 0
-50 625 -619 -624 0
-51 -625 619 0
-51 625 -619 0
-52 -625 619 0
-52 625 -619 0
-53 -625 619 0
-53 625 -619 0
-54 -625 619 0
-54 625 -619 0
-55 -625 619 0
-55 625 -619 0
-56 -625 619 0
-56 625 -619 0
-57 -625 619 0
-57 625 -619 0
-58 -625 619 0
-58 625 -619 0
-59 -625 619 0
-59 625 -619 0
-60 -625 619 0
-60 625 -619 0
-94 -625 619 0
-94 625 -619 0
-46 -620 626 0
-46 -619 626 0
-46 -626 620 619 0
-47 -626 620 0
-47 626 -620 0
-48 -626 620 0
-48 626 -620 0
-49 -626 620 0
-49 626 -620 0
-50 -626 620 0
-50 626 -620 0
-51 -626 620 0
-51 -626 621 0
-51 626 -620 -621 0
-52 -626 620 0
-52 -626 622 0
-52 626 -620 -622 0
-53 -626 620 0
-53 -626 623 0
-53 626 -620 -623 0
-54 -626 620 0
-54 -626 624 0
-54 626 -620 -624 0
-55 -626 620 0
-55 626 -620 0
-56 -626 620 0
-56 626 -620 0
-57 -626 620 0
-57 626 -620 0
-58 -626 620 0
-58 626 -620 0
-59 -626 620 0
-59 626 -620 0
-60 -626 620 0
-60 626 -620 0
-94 -626 620 0
-94 626 -620 0
-46 -627 621 0
-46 627 -621 0
-47 -621 627 0
-47 -619 627 0
-47 -627 621 619 0
-48 -627 621 0
-48 627 -621 0
-49 -627 621 0
-49 627 -621 0
-50 -627 621 0
-50 627 -621 0
-51 -621 627 0
-51 -620 627 0
-51 -627 621 620 0
-52 -627 621 0
-52 627 -621 0
-53 -627 621 0
-53 627 -621 0
-54 -627 621 0
-54 627 -621 0
-55 -627 621 0
-55 -627 622 0
-55 627 -621 -622 0
-56 -627 621 0
-56 -627 623 0
-56 627 -621 -623 0
-57 -627 621 0
-57 -627 624 0
-57 627 -621 -624 0
-58 -627 621 0
-58 627 -621 0
-59 -627 621 0
-59 627 -621 0
-60 -627 621 0
-60 627 -621 0
-94 -627 621 0
-94 627 -621 0
-46 -628 622 0
-46 628 -622 0
-47 -628 622 0
-47 628 -622 0
-48 -622 628 0
-48 -619 628 0
-48 -628 622 619 0
-49 -628 622 0
-49 628 -622 0
-50 -628 622 0
-50 628 -622 0
-51 -628 622 0
-51 628 -622 0
-52 -622 628 0
-52 -620 628 0
-52 -628 622 620 0
-53 -628 622 0
-53 628 -622 0
-54 -628 622 0
-54 628 -622 0
-55 -622 628 0
-55 -621 628 0
-55 -628 622 621 0
-56 -628 622 0
-56 628 -622 0
-57 -628 622 0
-57 628 -622 0
-58 -628 622 0
-58 -628 623 0
-58 628 -622 -623 0
-59 -628 622 0
-59 -628 624 0
-59 628 -622 -624 0
-60 -628 622 0
-60 628 -622 0
-94 -628 622 0
-94 628 -622 0
-46 -629 623 0
-46 629 -623 0
-47 -629 623 0
-47 629 -623 0
-48 -629 623 0
-48 629 -623 0
-49 -623 629 0
-49 -619 629 0
-49 -629 623 619 0
-50 -629 623 0
-50 629 -623 0
-51 -629 623 0
-51 629 -623 0
-52 -629 623 0
-52 629 -623 0
-53 -623 629 0
-53 -620 629 0
-53 -629 623 620 0
-54 -629 623 0
-54 629 -623 0
-55 -629 623 0
-55 629 -623 0
-56 -623 629 0
-56 -621 629 0
-56 -629 623 621 0
-57 -629 623 0
-57 629 -623 0
-58 -623 629 0
-58 -622 629 0
-58 -629 623 622 0
-59 -629 623 0
-59 629 -623 0
-60 -629 623 0
-60 -629 624 0
-60 629 -623 -624 0
-94 -629 623 0
-94 629 -623 0
-46 -630 624 0
-46 630 -624 0
-47 -630 624 0
-47 630 -624 0
-48 -630 624 0
-48 630 -624 0
-49 -630 624 0
-49 630 -624 0
-50 -624 630 0
-50 -619 630 0
-50 -630 624 619 0
-51 -630 624 0
-51 630 -624 0
-52 -630 624 0
-52 630 -624 0
-53 -630 624 0
-53 630 -624 0
-54 -624 630 0
-54 -620 630 0
-54 -630 624 620 0
-55 -630 624 0
-55 630 -624 0
-56 -630 624 0
-56 630 -624 0
-57 -624 630 0
-57 -621 630 0
-57 -630 624 621 0
-58 -630 624 0
-58 630 -624 0
-59 -624 630 0
-59 -622 630 0
-59 -630 624 622 0
-60 -624 630 0
-60 -623 630 0
-60 -630 624 623 0
-94 -630 624 0
-94 630 -624 0
-61 -631 625 0
-61 -631 626 0
-61 631 -625 -626 0
-62 -631 625 0
-62 -631 627 0
-62 631 -625 -627 0
-63 -631 625 0
-63 -631 628 0
-63 631 -625 -628 0
-64 -631 625 0
-64 -631 629 0
-64 631 -625 -629 0
-65 -631 625 0
-65 -631 630 0
-65 631 -625 -630 0
-66 -631 625 0
-66 631 -625 0
-67 -631 625 0
-67 631 -625 0
-68 -631 625 0
-68 631 -625 0
-69 -631 625 0
-69 631 -625 0
-70 -631 625 0
-70 631 -625 0
-71 -631 625 0
-71 631 -625 0
-72 -631 625 0
-72 631 -625 0
-73 -631 625 0
-73 631 -625 0
-74 -631 625 0
-74 631 -625 0
-75 -631 625 0
-75 631 -625 0
-95 -631 625 0
-95 631 -625 0
-61 -626 632 0
-61 -625 632 0
-61 -632 626 625 0
-62 -632 626 0
-62 632 -626 0
-63 -632 626 0
-63 632 -626 0
-64 -632 626 0
-64 632 -626 0
-65 -632 626 0
-65 632 -626 0
-66 -632 626 0
-66 -632 627 0
-66 632 -626 -627 0
-67 -632 626 0
-67 -632 628 0
-67 632 -626 -628 0
-68 -632 626 0
-68 -632 629 0
-68 632 -626 -629 0
-69 -632 626 0
-69 -632 630 0
-69 632 -626 -630 0
-70 -632 626 0
-70 632 -626 0
-71 -632 626 0
-71 632 -626 0
-72 -632 626 0
-72 632 -626 0
-73 -632 626 0
-73 632 -626 0
-74 -632 626 0
-74 632 -626 0
-75 -632 626 0
-75 632 -626 0
-95 -632 626 0
-95 632 -626 0
-61 -633 627 0
-61 633 -627 0
-62 -627 633 0
-62 -625 633 0
-62 -633 627 625 0
-63 -633 627 0
-63 633 -627 0
-64 -633 627 0
-64 633 -627 0
-65 -633 627 0
-65 633 -627 0
-66 -627 633 0
-66 -626 633 0
-66 -633 627 626 0
-67 -633 627 0
-67 633 -627 0
-68 -633 627 0
-68 633 -627 0
-69 -633 627 0
-69 633 -627 0
-70 -633 627 0
-70 -633 628 0
-70 633 -627 -628 0
-71 -633 627 0
-71 -633 629 0
-71 633 -627 -629 0
-72 -633 627 0
-72 -633 630 0
-72 633 -627 -630 0
-73 -633 627 0
-73 633 -627 0
-74 -633 627 0
-74 633 -627 0
-75 -633 627 0
-75 633 -627 0
-95 -633 627 0
-95 633 -627 0
-61 -634 628 0
-61 634 -628 0
-62 -634 628 0
-62 634 -628 0
-63 -628 634 0
-63 -625 634 0
-63 -634 628 625 0
-64 -634 628 0
-64 634 -628 0
-65 -634 628 0
-65 634 -628 0
-66 -634 628 0
-66 634 -628 0
-67 -628 634 0
-67 -626 634 0
-67 -634 628 626 0
-68 -634 628 0
-68 634 -628 0
-69 -634 628 0
-69 634 -628 0
-70 -628 634 0
-70 -627 634 0
-70 -634 628 627 0
-71 -634 628 0
-71 634 -628 0
-72 -634 628 0
-72 634 -628 0
-73 -634 628 0
-73 -634 629 0
-73 634 -628 -629 0
-74 -634 628 0
-74 -634 630 0
-74 634 -628 -630 0
-75 -634 628 0
-75 634 -628 0
-95 -634 628 0
-95 634 -628 0
-61 -635 629 0
-61 635 -629 0
-62 -635 629 0
-62 635 -629 0
-63 -635 629 0
-63 635 -629 0
-64 -629 635 0
-64 -625 635 0
-64 -635 629 625 0
-65 -635 629 0
-65 635 -629 0
-66 -635 629 0
-66 635 -629 0
-67 -635 629 0
-67 635 -629 0
-68 -629 635 0
-68 -626 635 0
-68 -635 629 626 0
-69 -635 629 0
-69 635 -629 0
-70 -635 629 0
-70 635 -629 0
-71 -629 635 0
-71 -627 635 0
-71 -635 629 627 0
-72 -635 629 0
-72 635 -629 0
-73 -629 635 0
-73 -628 635 0
-73 -635 629 628 0
-74 -635 629 0
-74 635 -629 0
-75 -635 629 0
-75 -635 630 0
-75 635 -629 -630 0
-95 -635 629 0
-95 635 -629 0
-61 -636 630 0
-61 636 -630 0
-62 -636 630 0
-62 636 -630 0
-63 -636 630 0
-63 636 -630 0
-64 -636 630 0
-64 636 -630 0
-65 -630 636 0
-65 -625 636 0
-65 -636 630 625 0
-66 -636 630 0
-66 636 -630 0
-67 -636 630 0
-67 636 -630 0
-68 -636 630 0
-68 636 -630 0
-69 -630 636 0
-69 -626 636 0
-69 -636 630 626 0
-70 -636 630 0
-70 636 -630 0
-71 -636 630 0
-71 636 -630 0
-72 -630 636 0
-72 -627 636 0
-72 -636 630 627 0
-73 -636 630 0
-73 636 -630 0
-74 -630 636 0
-74 -628 636 0
-74 -636 630 628 0
-75 -630 636 0
-75 -629 636 0
-75 -636 630 629 0
-95 -636 630 0
-95 636 -630 0
-76 -637 631 0
-76 -637 632 0
-76 637 -631 -632 0
-77 -637 631 0
-77 -637 633 0
-77 637 -631 -633 0
-78 -637 631 0
-78 -637 634 0
-78 637 -631 -634 0
-79 -637 631 0
-79 -637 635 0
-79 637 -631 -635 0
-80 -637 631 0
-80 -637 636 0
-80 637 -631 -636 0
-81 -637 631 0
-81 637 -631 0
-82 -637 631 0
-82 637 -631 0
-83 -637 631 0
-83 637 -631 0
-84 -637 631 0
-84 637 -631 0
-85 -637 631 0
-85 637 -631 0
-86 -637 631 0
-86 637 -631 0
-87 -637 631 0
-87 637 -631 0
-88 -637 631 0
-88 637 -631 0
-89 -637 631 0
-89 637 -631 0
-90 -637 631 0
-90 637 -631 0
-96 -637 631 0
-96 637 -631 0
-76 -632 638 0
-76 -631 638 0
-76 -638 632 631 0
-77 -638 632 0
-77 638 -632 0
-78 -638 632 0
-78 638 -632 0
-79 -638 632 0
-79 638 -632 0
-80 -638 632 0
-80 638 -632 0
-81 -638 632 0
-81 -638 633 0
-81 638 -632 -633 0
-82 -638 632 0
-82 -638 634 0
-82 638 -632 -634 0
-83 -638 632 0
-83 -638 635 0
-83 638 -632 -635 0
-84 -638 632 0
-84 -638 636 0
-84 638 -632 -636 0
-85 -638 632 0
-85 638 -632 0
-86 -638 632 0
-86 638 -632 0
-87 -638 632 0
-87 638 -632 0
-88 -638 632 0
-88 638 -632 0
-89 -638 632 0
-89 638 -632 0
-90 -638 632 0
-90 638 -632 0
-96 -638 632 0
-96 638 -632 0
-76 -639 633 0
-76 639 -633 0
-77 -633 639 0
-77 -631 639 0
-77 -639 633 631 0
-78 -639 633 0
-78 639 -633 0
-79 -639 633 0
-79 639 -633 0
-80 -639 633 0
-80 639 -633 0
-81 -633 639 0
-81 -632 639 0
-81 -639 633 632 0
-82 -639 633 0
-82 639 -633 0
-83 -639 633 0
-83 639 -633 0
-84 -639 633 0
-84 639 -633 0
-85 -639 633 0
-85 -639 634 0
-85 639 -633 -634 0
-86 -639 633 0
-86 -639 635 0
-86 639 -633 -635 0
-87 -639 633 0
-87 -639 636 0
-87 639 -633 -636 0
-88 -639 633 0
-88 639 -633 0
-89 -639 633 0
-89 639 -633 0
-90 -639 633 0
-90 639 -633 0
-96 -639 633 0
-96 639 -633 0
-76 -640 634 0
-76 640 -634 0
-77 -640 634 0
-77 640 -634 0
-78 -634 640 0
-78 -631 640 0
-78 -640 634 631 0
-79 -640 634 0
-79 640 -634 0
-80 -640 634 0
-80 640 -634 0
-81 -640 634 0
-81 640 -634 0
-82 -634 640 0
-82 -632 640 0
-82 -640 634 632 0
-83 -640 634 0
-83 640 -634 0
-84 -640 634 0
-84 640 -634 0
-85 -634 640 0
-85 -633 640 0
-85 -640 634 633 0
-86 -640 634 0
-86 640 -634 0
-87 -640 634 0
-87 640 -634 0
-88 -640 634 0
-88 -640 635 0
-88 640 -634 -635 0
-89 -640 634 0
-89 -640 636 0
-89 640 -634 -636 0
-90 -640 634 0
-90 640 -634 0
-96 -640 634 0
-96 640 -634 0
-76 -641 635 0
-76 641 -635 0
-77 -641 635 0
-77 641 -635 0
-78 -641 635 0
-78 641 -635 0
-79 -635 641 0
-79 -631 641 0
-79 -641 635 631 0
-80 -641 635 0
-80 641 -635 0
-81 -641 635 0
-81 641 -635 0
-82 -641 635 0
-82 641 -635 0
-83 -635 641 0
-83 -632 641 0
-83 -641 635 632 0
-84 -641 635 0
-84 641 -635 0
-85 -641 635 0
-85 641 -635 0
-86 -635 641 0
-86 -633 641 0
-86 -641 635 633 0
-87 -641 635 0
-87 641 -635 0
-88 -635 641 0
-88 -634 641 0
-88 -641 635 634 0
-89 -641 635 0
-89 641 -635 0
-90 -641 635 0
-90 -641 636 0
-90 641 -635 -636 0
-96 -641 635 0
-96 641 -635 0
-76 -642 636 0
-76 642 -636 0
-77 -642 636 0
-77 642 -636 0
-78 -642 636 0
-78 642 -636 0
-79 -642 636 0
-79 642 -636 0
-80 -636 642 0
-80 -631 642 0
-80 -642 636 631 0
-81 -642 636 0
-81 642 -636 0
-82 -642 636 0
-82 642 -636 0
-83 -642 636 0
-83 642 -636 0
-84 -636 642 0
-84 -632 642 0
-84 -642 636 632 0
-85 -642 636 0
-85 642 -636 0
-86 -642 636 0
-86 642 -636 0
-87 -636 642 0
-87 -633 642 0
-87 -642 636 633 0
-88 -642 636 0
-88 642 -636 0
-89 -636 642 0
-89 -634 642 0
-89 -642 636 634 0
-90 -636 642 0
-90 -635 642 0
-90 -642 636 635 0
-96 -642 636 0
-96 642 -636 0
643 0
-1 -649 643 0
-1 -649 644 0
-1 649 -643 -644 0
-2 -649 643 0
-2 -649 645 0
-2 649 -643 -645 0
-3 -649 643 0
-3 -649 646 0
-3 649 -643 -646 0
-4 -649 643 0
-4 -649 647 0
-4 649 -643 -647 0
-5 -649 643 0
-5 -649 648 0
-5 649 -643 -648 0
-6 -649 643 0
-6 649 -643 0
-7 -649 643 0
-7 649 -643 0
-8 -649 643 0
-8 649 -643 0
-9 -649 643 0
-9 649 -643 0
-10 -649 643 0
-10 649 -643 0
-11 -649 643 0
-11 649 -643 0
-12 -649 643 0
-12 649 -643 0
-13 -649 643 0
-13 649 -643 0
-14 -649 643 0
-14 649 -643 0
-15 -649 643 0
-15 649 -643 0
-91 -649 643 0
-91 649 -643 0
644 0
-1 -644 650 0
-1 -643 650 0
-1 -650 644 643 0
-2 -650 644 0
-2 650 -644 0
-3 -650 644 0
-3 650 -644 0
-4 -650 644 0
-4 650 -644 0
-5 -650 644 0
-5 650 -644 0
-6 -650 644 0
-6 -650 645 0
-6 650 -644 -645 0
-7 -650 644 0
-7 -650 646 0
-7 650 -644 -646 0
-8 -650 644 0
-8 -650 647 0
-8 650 -644 -647 0
-9 -650 644 0
-9 -650 648 0
-9 650 -644 -648 0
-10 -650 644 0
-10 650 -644 0
-11 -650 644 0
-11 650 -644 0
-12 -650 644 0
-12 650 -644 0
-13 -650 644 0
-13 650 -644 0
-14 -650 644 0
-14 650 -644 0
-15 -650 644 0
-15 650 -644 0
-91 -650 644 0
-91 650 -644 0
645 0
-1 -651 645 0
-1 651 -645 0
-2 -645 651 0
-2 -643 651 0
-2 -651 645 643 0
-3 -651 645 0
-3 651 -645 0
-4 -651 645 0
-4 651 -645 0
-5 -651 645 0
-5 651 -645 0
-6 -645 651 0
-6 -644 651 0
-6 -651 645 644 0
-7 -651 645 0
-7 651 -645 0
-8 -651 645 0
-8 651 -645 0
-9 -651 645 0
-9 651 -645 0
-10 -651 645 0
-10 -651 646 0
-10 651 -645 -646 0
-11 -651 645 0
-11 -651 647 0
-11 651 -645 -647 0
-12 -651 645 0
-12 -651 648 0
-12 651 -645 -648 0
-13 -651 645 0
-13 651 -645 0
-14 -651 645 0
-14 651 -645 0
-15 -651 645 0
-15 651 -645 0
-91 -651 645 0
-91 651 -645 0
-646 0
-1 -652 646 0
-1 652 -646 0
-2 -652 646 0
-2 652 -646 0
-3 -646 652 0
-3 -643 652 0
-3 -652 646 643 0
-4 -652 646 0
-4 652 -646 0
-5 -652 646 0
-5 652 -646 0
-6 -652 646 0
-6 652 -646 0
-7 -646 652 0
-7 -644 652 0
-7 -652 646 644 0
-8 -652 646 0
-8 652 -646 0
-9 -652 646 0
-9 652 -646 0
-10 -646 652 0
-10 -645 652 0
-10 -652 646 645 0
-11 -652 646 0
-11 652 -646 0
-12 -652 646 0
-12 652 -646 0
-13 -652 646 0
-13 -652 647 0
-13 652 -646 -647 0
-14 -652 646 0
-14 -652 648 0
-14 652 -646 -648 0
-15 -652 646 0
-15 652 -646 0
-91 -652 646 0
-91 652 -646 0
-647 0
-1 -653 647 0
-1 653 -647 0
-2 -653 647 0
-2 653 -647 0
-3 -653 647 0
-3 653 -647 0
-4 -647 653 0
-4 -643 653 0
-4 -653 647 643 0
-5 -653 647 0
-5 653 -647 0
-6 -653 647 0
-6 653 -647 0
-7 -653 647 0
-7 653 -647 0
-8 -647 653 0
-8 -644 653 0
-8 -653 647 644 0
-9 -653 647 0
-9 653 -647 0
-10 -653 647 0
-10 653 -647 0
-11 -647 653 0
-11 -645 653 0
-11 -653 647 645 0
-12 -653 647 0
-12 653 -647 0
-13 -647 653 0
-13 -646 653 0
-13 -653 647 646 0
-14 -653 647 0
-14 653 -647 0
-15 -653 647 0
-15 -653 648 0
-15 653 -647 -648 0
-91 -653 647 0
-91 653 -647 0
648 0
-1 -654 648 0
-1 654 -648 0
-2 -654 648 0
-2 654 -648 0
-3 -654 648 0
-3 654 -648 0
-4 -654 648 0
-4 654 -648 0
-5 -648 654 0
-5 -643 654 0
-5 -654 648 643 0
-6 -654 648 0
-6 654 -648 0
-7 -654 648 0
-7 654 -648 0
-8 -654 648 0
-8 654 -648 0
-9 -648 654 0
-9 -644 654 0
-9 -654 648 644 0
-10 -654 648 0
-10 654 -648 0
-11 -654 648 0
-11 654 -648 0
-12 -648 654 0
-12 -645 654 0
-12 -654 648 645 0
-13 -654 648 0
-13 654 -648 0
-14 -648 654 0
-14 -646 654 0
-14 -654 648 646 0
-15 -648 654 0
-15 -647 654 0
-15 -654 648 647 0
-91 -654 648 0
-91 654 -648 0
-16 -655 649 0
-16 -655 650 0
-16 655 -649 -650 0
-17 -655 649 0
-17 -655 651 0
-17 655 -649 -651 0
-18 -655 649 0
-18 -655 652 0
-18 655 -649 -652 0
-19 -655 649 0
-19 -655 653 0
-19 655 -649 -653 0
-20 -655 649 0
-20 -655 654 0
-20 655 -649 -654 0
-21 -655 649 0
-21 655 -649 0
-22 -655 649 0
-22 655 -649 0
-23 -655 649 0
-23 655 -649 0
-24 -655 649 0
-24 655 -649 0
-25 -655 649 0
-25 655 -649 0
-26 -655 649 0
-26 655 -649 0
-27 -655 649 0
-27 655 -649 0
-28 -655 649 0
-28 655 -649 0
-29 -655 649 0
-29 655 -649 0
-30 -655 649 0
-30 655 -649 0
-92 -655 649 0
-92 655 -649 0
-16 -650 656 0
-16 -649 656 0
-16 -656 650 649 0
-17 -656 650 0
-17 656 -650 0
-18 -656 650 0
-18 656 -650 0
-19 -656 650 0
-19 656 -650 0
-20 -656 650 0
-20 656 -650 0
-21 -656 650 0
-21 -656 651 0
-21 656 -650 -651 0
-22 -656 650 0
-22 -656 652 0
-22 656 -650 -652 0
-23 -656 650 0
-23 -656 653 0
-23 656 -650 -653 0
-24 -656 650 0
-24 -656 654 0
-24 656 -650 -654 0
-25 -656 650 0
-25 656 -650 0
-26 -656 650 0
-26 656 -650 0
-27 -656 650 0
-27 656 -650 0
-28 -656 650 0
-28 656 -650 0
-29 -656 650 0
-29 656 -650 0
-30 -656 650 0
-30 656 -650 0
-92 -656 650 0
-92 656 -650 0
-16 -657 651 0
-16 657 -651 0
-17 -651 657 0
-17 -649 657 0
-17 -657 651 649 0
-18 -657 651 0
-18 657 -651 0
-19 -657 651 0
-19 657 -651 0
-20 -657 651 0
-20 657 -651 0
-21 -651 657 0
-21 -650 657 0
-21 -657 651 650 0
-22 -657 651 0
-22 657 -651 0
-23 -657 651 0
-23 657 -651 0
-24 -657 651 0
-24 657 -651 0
-25 -657 651 0
-25 -657 652 0
-25 657 -651 -652 0
-26 -657 651 0
-26 -657 653 0
-26 657 -651 -653 0
-27 -657 651 0
-27 -657 654 0
-27 657 -651 -654 0
-28 -657 651 0
-28 657 -651 0
-29 -657 651 0
-29 657 -651 0
-30 -657 651 0
-30 657 -651 0
-92 -657 651 0
-92 657 -651 0
-16 -658 652 0
-16 658 -652 0
-17 -658 652 0
-17 658 -652 0
-18 -652 658 0
-18 -649 658 0
-18 -658 652 649 0
-19 -658 652 0
-19 658 -652 0
-20 -658 652 0
-20 658 -652 0
-21 -658 652 0
-21 658 -652 0
-22 -652 658 0
-22 -650 658 0
-22 -658 652 650 0
-23 -658 652 0
-23 658 -652 0
-24 -658 652 0
-24 658 -652 0
-25 -652 658 0
-25 -651 658 0
-25 -658 652 651 0
-26 -658 652 0
-26 658 -652 0
-27 -658 652 0
-27 658 -652 0
-28 -658 652 0
-28 -658 653 0
-28 658 -652 -653 0
-29 -658 652 0
-29 -658 654 0
-29 658 -652 -654 0
-30 -658 652 0
-30 658 -652 0
-92 -658 652 0
-92 658 -652 0
-16 -659 653 0
-16 659 -653 0
-17 -659 653 0
-17 659 -653 0
-18 -659 653 0
-18 659 -653 0
-19 -653 659 0
-19 -649 659 0
-19 -659 653 649 0
-20 -659 653 0
-20 659 -653 0
-21 -659 653 0
-21 659 -653 0
-22 -659 653 0
-22 659 -653 0
-23 -653 659 0
-23 -650 659 0
-23 -659 653 650 0
-24 -659 653 0
-24 659 -653 0
-25 -659 653 0
-25 659 -653 0
-26 -653 659 0
-26 -651 659 0
-26 -659 653 651 0
-27 -659 653 0
-27 659 -653 0
-28 -653 659 0
-28 -652 659 0
-28 -659 653 652 0
-29 -659 653 0
-29 659 -653 0
-30 -659 653 0
-30 -659 654 0
-30 659 -653 -654 0
-92 -659 653 0
-92 659 -653 0
-16 -660 654 0
-16 660 -654 0
-17 -660 654 0
-17 660 -654 0
-18 -660 654 0
-18 660 -654 0
-19 -660 654 0
-19 660 -654 0
-20 -654 660 0
-20 -649 660 0
-20 -660 654 649 0
-21 -660 654 0
-21 660 -654 0
-22 -660 654 0
-22 660 -654 0
-23 -660 654 0
-23 660 -654 0
-24 -654 660 0
-24 -650 660 0
-24 -660 654 650 0
-25 -660 654 0
-25 660 -654 0
-26 -660 654 0
-26 660 -654 0
-27 -654 660 0
-27 -651 660 0
-27 -660 654 651 0
-28 -660 654 0
-28 660 -654 0
-29 -654 660 0
-29 -652 660 0
-29 -660 654 652 0
-30 -654 660 0
-30 -653 660 0
-30 -660 654 653 0
-92 -660 654 0
-92 660 -654 0
-31 -661 655 0
-31 -661 656 0
-31 661 -655 -656 0
-32 -661 655 0
-32 -661 657 0
-32 661 -655 -657 0
-33 -661 655 0
-33 -661 658 0
-33 661 -655 -658 0
-34 -661 655 0
-34 -661 659 0
-34 661 -655 -659 0
-35 -661 655 0
-35 -661 660 0
-35 661 -655 -660 0
-36 -661 655 0
-36 661 -655 0
-37 -661 655 0
-37 661 -655 0
-38 -661 655 0
-38 661 -655 0
-39 -661 655 0
-39 661 -655 0
-40 -661 655 0
-40 661 -655 0
-41 -661 655 0
-41 661 -655 0
-42 -661 655 0
-42 661 -655 0
-43 -661 655 0
-43 661 -655 0
-44 -661 655 0
-44 661 -655 0
-45 -661 655 0
-45 661 -655 0
-93 -661 655 0
-93 661 -655 0
-31 -656 662 0
-31 -655 662 0
-31 -662 656 655 0
-32 -662 656 0
-32 662 -656 0
-33 -662 656 0
-33 662 -656 0
-34 -662 656 0
-34 662 -656 0
-35 -662 656 0
-35 662 -656 0
-36 -662 656 0
-36 -662 657 0
-36 662 -656 -657 0
-37 -662 656 0
-37 -662 658 0
-37 662 -656 -658 0
-38 -662 656 0
-38 -662 659 0
-38 662 -656 -659 0
-39 -662 656 0
-39 -662 660 0
-39 662 -656 -660 0
-40 -662 656 0
-40 662 -656 0
-41 -662 656 0
-41 662 -656 0
-42 -662 656 0
-42 662 -656 0
-43 -662 656 0
-43 662 -656 0
-44 -662 656 0
-44 662 -656 0
-45 -662 656 0
-45 662 -656 0
-93 -662 656 0
-93 662 -656 0
-31 -663 657 0
-31 663 -657 0
-32 -657 663 0
-32 -655 663 0
-32 -663 657 655 0
-33 -663 657 0
-33 663 -657 0
-34 -663 657 0
-34 663 -657 0
-35 -663 657 0
-35 663 -657 0
-36 -657 663 0
-36 -656 663 0
-36 -663 657 656 0
-37 -663 657 0
-37 663 -657 0
-38 -663 657 0
-38 663 -657 0
-39 -663 657 0
-39 663 -657 0
-40 -663 657 0
-40 -663 658 0
-40 663 -657 -658 0
-41 -663 657 0
-41 -663 659 0
-41 663 -657 -659 0
-42 -663 657 0
-42 -663 660 0
-42 663 -657 -660 0
-43 -663 657 0
-43 663 -657 0
-44 -663 657 0
-44 663 -657 0
-45 -663 657 0
-45 663 -657 0
-93 -663 657 0
-93 663 -657 0
-31 -664 658 0
-31 664 -658 0
-32 -664 658 0
-32 664 -658 0
-33 -658 664 0
-33 -655 664 0
-33 -664 658 655 0
-34 -664 658 0
-34 664 -658 0
-35 -664 658 0
-35 664 -658 0
-36 -664 658 0
-36 664 -658 0
-37 -658 664 0
-37 -656 664 0
-37 -664 658 656 0
-38 -664 658 0
-38 664 -658 0
-39 -664 658 0
-39 664 -658 0
-40 -658 664 0
-40 -657 664 0
-40 -664 658 657 0
-41 -664 658 0
-41 664 -658 0
-42 -664 658 0
-42 664 -658 0
-43 -664 658 0
-43 -664 659 0
-43 664 -658 -659 0
-44 -664 658 0
-44 -664 660 0
-44 664 -658 -660 0
-45 -664 658 0
-45 664 -658 0
-93 -664 658 0
-93 664 -658 0
-31 -665 659 0
-31 665 -659 0
-32 -665 659 0
-32 665 -659 0
-33 -665 659 0
-33 665 -659 0
-34 -659 665 0
-34 -655 665 0
-34 -665 659 655 0
-35 -665 659 0
-35 665 -659 0
-36 -665 659 0
-36 665 -659 0
-37 -665 659 0
-37 665 -659 0
-38 -659 665 0
-38 -656 665 0
-38 -665 659 656 0
-39 -665 659 0
-39 665 -659 0
-40 -665 659 0
-40 665 -659 0
-41 -659 665 0
-41 -657 665 0
-41 -665 659 657 0
-42 -665 659 0
-42 665 -659 0
-43 -659 665 0
-43 -658 665 0
-43 -665 659 658 0
-44 -665 659 0
-44 665 -659 0
-45 -665 659 0
-45 -665 660 0
-45 665 -659 -660 0
-93 -665 659 0
-93 665 -659 0
-31 -666 660 0
-31 666 -660 0
-32 -666 660 0
-32 666 -660 0
-33 -666 660 0
-33 666 -660 0
-34 -666 660 0
-34 666 -660 0
-35 -660 666 0
-35 -655 666 0
-35 -666 660 655 0
-36 -666 660 0
-36 666 -660 0
-37 -666 660 0
-37 666 -660 0
-38 -666 660 0
-38 666 -660 0
-39 -660 666 0
-39 -656 666 0
-39 -666 660 656 0
-40 -666 660 0
-40 666 -660 0
-41 -666 660 0
-41 666 -660 0
-42 -660 666 0
-42 -657 666 0
-42 -666 660 657 0
-43 -666 660 0
-43 666 -660 0
-44 -660 666 0
-44 -658 666 0
-44 -666 660 658 0
-45 -660 666 0
-45 -659 666 0
-45 -666 660 659 0
-93 -666 660 0
-93 666 -660 0
-46 -667 661 0
-46 -667 662 0
-46 667 -661 -662 0
-47 -667 661 0
-47 -667 663 0
-47 667 -661 -663 0
-48 -667 661 0
-48 -667 664 0
-48 667 -661 -664 0
-49 -667 661 0
-49 -667 665 0
-49 667 -661 -665 0
-50 -667 661 0
-50 -667 666 0
-50 667 -661 -666 0
-51 -667 661 0
-51 667 -661 0
-52 -667 661 0
-52 667 -661 0
-53 -667 661 0
-53 667 -661 0
-54 -667 661 0
-54 667 -661 0
-55 -667 661 0
-55 667 -661 0
-56 -667 661 0
-56 667 -661 0
-57 -667 661 0
-57 667 -661 0
-58 -667 661 0
-58 667 -661 0
-59 -667 661 0
-59 667 -661 0
-60 -667 661 0
-60 667 -661 0
-94 -667 661 0
-94 667 -661 0
-46 -662 668 0
-46 -661 668 0
-46 -668 662 661 0
-47 -668 662 0
-47 668 -662 0
-48 -668 662 0
-48 668 -662 0
-49 -668 662 0
-49 668 -662 0
-50 -668 662 0
-50 668 -662 0
-51 -668 662 0
-51 -668 663 0
-51 668 -662 -663 0
-52 -668 662 0
-52 -668 664 0
-52 668 -662 -664 0
-53 -668 662 0
-53 -668 665 0
-53 668 -662 -665 0
-54 -668 662 0
-54 -668 666 0
-54 668 -662 -666 0
-55 -668 662 0
-55 668 -662 0
-56 -668 662 0
-56 668 -662 0
-57 -668 662 0
-57 668 -662 0
-58 -668 662 0
-58 668 -662 0
-59 -668 662 0
-59 668 -662 0
-60 -668 662 0
-60 668 -662 0
-94 -668 662 0
-94 668 -662 0
-46 -669 663 0
-46 669 -663 0
-47 -663 669 0
-47 -661 669 0
-47 -669 663 661 0
-48 -669 663 0
-48 669 -663 0
-49 -669 663 0
-49 669 -663 0
-50 -669 663 0
-50 669 -663 0
-51 -663 669 0
-51 -662 669 0
-51 -669 663 662 0
-52 -669 663 0
-52 669 -663 0
-53 -669 663 0
-53 669 -663 0
-54 -669 663 0
-54 669 -663 0
-55 -669 663 0
-55 -669 664 0
-55 669 -663 -664 0
-56 -669 663 0
-56 -669 665 0
-56 669 -663 -665 0
-57 -669 663 0
-57 -669 666 0
-57 669 -663 -666 0
-58 -669 663 0
-58 669 -663 0
-59 -669 663 0
-59 669 -663 0
-60 -669 663 0
-60 669 -663 0
-94 -669 663 0
-94 669 -663 0
-46 -670 664 0
-46 670 -664 0
-47 -670 664 0
-47 670 -664 0
-48 -664 670 0
-48 -661 670 0
-48 -670 664 661 0
-49 -670 664 0
-49 670 -664 0
-50 -670 664 0
-50 670 -664 0
-51 -670 664 0
-51 670 -664 0
-52 -664 670 0
-52 -662 670 0
-52 -670 664 662 0
-53 -670 664 0
-53 670 -664 0
-54 -670 664 0
-54 670 -664 0
-55 -664 670 0
-55 -663 670 0
-55 -670 664 663 0
-56 -670 664 0
-56 670 -664 0
-57 -670 664 0
-57 670 -664 0
-58 -670 664 0
-58 -670 665 0
-58 670 -664 -665 0
-59 -670 664 0
-59 -670 666 0
-59 670 -664 -666 0
-60 -670 664 0
-60 670 -664 0
-94 -670 664 0
-94 670 -664 0
-46 -671 665 0
-46 671 -665 0
-47 -671 665 0
-47 671 -665 0
-48 -671 665 0
-48 671 -665 0
-49 -665 671 0
-49 -661 671 0
-49 -671 665 661 0
-50 -671 665 0
-50 671 -665 0
-51 -671 665 0
-51 671 -665 0
-52 -671 665 0
-52 671 -665 0
-53 -665 671 0
-53 -662 671 0
-53 -671 665 662 0
-54 -671 665 0
-54 671 -665 0
-55 -671 665 0
-55 671 -665 0
-56 -665 671 0
-56 -663 671 0
-56 -671 665 663 0
-57 -671 665 0
-57 671 -665 0
-58 -665 671 0
-58 -664 671 0
-58 -671 665 664 0
-59 -671 665 0
-59 671 -665 0
-60 -671 665 0
-60 -671 666 0
-60 671 -665 -666 0
-94 -671 665 0
-94 671 -665 0
-46 -672 666 0
-46 672 -666 0
-47 -672 666 0
-47 672 -666 0
-48 -672 666 0
-48 672 -666 0
-49 -672 666 0
-49 672 -666 0
-50 -666 672 0
-50 -661 672 0
-50 -672 666 661 0
-51 -672 666 0
-51 672 -666 0
-52 -672 666 0
-52 672 -666 0
-53 -672 666 0
-53 672 -666 0
-54 -666 672 0
-54 -662 672 0
-54 -672 666 662 0
-55 -672 666 0
-55 672 -666 0
-56 -672 666 0
-56 672 -666 0
-57 -666 672 0
-57 -663 672 0
-57 -672 666 663 0
-58 -672 666 0
-58 672 -666 0
-59 -666 672 0
-59 -664 672 0
-59 -672 666 664 0
-60 -666 672 0
-60 -665 672 0
-60 -672 666 665 0
-94 -672 666 0
-94 672 -666 0
-61 -673 667 0
-61 -673 668 0
-61 673 -667 -668 0
-62 -673 667 0
-62 -673 669 0
-62 673 -667 -669 0
-63 -673 667 0
-63 -673 670 0
-63 673 -667 -670 0
-64 -673 667 0
-64 -673 671 0
-64 673 -667 -671 0
-65 -673 667 0
-65 -673 672 0
-65 673 -667 -672 0
-66 -673 667 0
-66 673 -667 0
-67 -673 667 0
-67 673 -667 0
-68 -673 667 0
-68 673 -667 0
-69 -673 667 0
-69 673 -667 0
-70 -673 667 0
-70 673 -667 0
-71 -673 667 0
-71 673 -667 0
-72 -673 667 0
-72 673 -667 0
-73 -673 667 0
-73 673 -667 0
-74 -673 667 0
-74 673 -667 0
-75 -673 667 0
-75 673 -667 0
-95 -673 667 0
-95 673 -667 0
-61 -668 674 0
-61 -667 674 0
-61 -674 668 667 0
-62 -674 668 0
-62 674 -668 0
-63 -674 668 0
-63 674 -668 0
-64 -674 668 0
-64 674 -668 0
-65 -674 668 0
-65 674 -668 0
-66 -674 668 0
-66 -674 669 0
-66 674 -668 -669 0
-67 -674 668 0
-67 -674 670 0
-67 674 -668 -670 0
-68 -674 668 0
-68 -674 671 0
-68 674 -668 -671 0
-69 -674 668 0
-69 -674 672 0
-69 674 -668 -672 0
-70 -674 668 0
-70 674 -668 0
-71 -674 668 0
-71 674 -668 0
-72 -674 668 0
-72 674 -668 0
-73 -674 668 0
-73 674 -668 0
-74 -674 668 0
-74 674 -668 0
-75 -674 668 0
-75 674 -668 0
-95 -674 668 0
-95 674 -668 0
-61 -675 669 0
-61 675 -669 0
-62 -669 675 0
-62 -667 675 0
-62 -675 669 667 0
-63 -675 669 0
-63 675 -669 0
-64 -675 669 0
-64 675 -669 0
-65 -675 669 0
-65 675 -669 0
-66 -669 675 0
-66 -668 675 0
-66 -675 669 668 0
-67 -675 669 0
-67 675 -669 0
-68 -675 669 0
-68 675 -669 0
-69 -675 669 0
-69 675 -669 0
-70 -675 669 0
-70 -675 670 0
-70 675 -669 -670 0
-71 -675 669 0
-71 -675 671 0
-71 675 -669 -671 0
-72 -675 669 0
-72 -675 672 0
-72 675 -669 -672 0
-73 -675 669 0
-73 675 -669 0
-74 -675 669 0
-74 675 -669 0
-75 -675 669 0
-75 675 -669 0
-95 -675 669 0
-95 675 -669 0
-61 -676 670 0
-61 676 -670 0
-62 -676 670 0
-62 676 -670 0
-63 -670 676 0
-63 -667 676 0
-63 -676 670 667 0
-64 -676 670 0
-64 676 -670 0
-65 -676 670 0
-65 676 -670 0
-66 -676 670 0
-66 676 -670 0
-67 -670 676 0
-67 -668 676 0
-67 -676 670 668 0
-68 -676 670 0
-68 676 -670 0
-69 -676 670 0
-69 676 -670 0
-70 -670 676 0
-70 -669 676 0
-70 -676 670 669 0
-71 -676 670 0
-71 676 -670 0
-72 -676 670 0
-72 676 -670 0
-73 -676 670 0
-73 -676 671 0
-73 676 -670 -671 0
-74 -676 670 0
-74 -676 672 0
-74 676 -670 -672 0
-75 -676 670 0
-75 676 -670 0
-95 -676 670 0
-95 676 -670 0
-61 -677 671 0
-61 677 -671 0
-62 -677 671 0
-62 677 -671 0
-63 -677 671 0
-63 677 -671 0
-64 -671 677 0
-64 -667 677 0
-64 -677 671 667 0
-65 -677 671 0
-65 677 -671 0
-66 -677 671 0
-66 677 -671 0
-67 -677 671 0
-67 677 -671 0
-68 -671 677 0
-68 -668 677 0
-68 -677 671 668 0
-69 -677 671 0
-69 677 -671 0
-70 -677 671 0
-70 677 -671 0
-71 -671 677 0
-71 -669 677 0
-71 -677 671 669 0
-72 -677 671 0
-72 677 -671 0
-73 -671 677 0
-73 -670 677 0
-73 -677 671 670 0
-74 -677 671 0
-74 677 -671 0
-75 -677 671 0
-75 -677 672 0
-75 677 -671 -672 0
-95 -677 671 0
-95 677 -671 0
-61 -678 672 0
-61 678 -672 0
-62 -678 672 0
-62 678 -672 0
-63 -678 672 0
-63 678 -672 0
-64 -678 672 0
-64 678 -672 0
-65 -672 678 0
-65 -667 678 0
-65 -678 672 667 0
-66 -678 672 0
-66 678 -672 0
-67 -678 672 0
-67 678 -672 0
-68 -678 672 0
-68 678 -672 0
-69 -672 678 0
-69 -668 678 0
-69 -678 672 668 0
-70 -678 672 0
-70 678 -672 0
-71 -678 672 0
-71 678 -672 0
-72 -672 678 0
-72 -669 678 0
-72 -678 672 669 0
-73 -678 672 0
-73 678 -672 0
-74 -672 678 0
-74 -670 678 0
-74 -678 672 670 0
-75 -672 678 0
-75 -671 678 0
-75 -678 672 671 0
-95 -678 672 0
-95 678 -672 0
-76 -679 673 0
-76 -679 674 0
-76 679 -673 -674 0
-77 -679 673 0
-77 -679 675 0
-77 679 -673 -675 0
-78 -679 673 0
-78 -679 676 0
-78 679 -673 -676 0
-79 -679 673 0
-79 -679 677 0
-79 679 -673 -677 0
-80 -679 673 0
-80 -679 678 0
-80 679 -673 -678 0
-81 -679 673 0
-81 679 -673 0
-82 -679 673 0
-82 679 -673 0
-83 -679 673 0
-83 679 -673 0
-84 -679 673 0
-84 679 -673 0
-85 -679 673 0
-85 679 -673 0
-86 -679 673 0
-86 679 -673 0
-87 -679 673 0
-87 679 -673 0
-88 -679 673 0
-88 679 -673 0
-89 -679 673 0
-89 679 -673 0
-90 -679 673 0
-90 679 -673 0
-96 -679 673 0
-96 679 -673 0
-76 -674 680 0
-76 -673 680 0
-76 -680 674 673 0
-77 -680 674 0
-77 680 -674 0
-78 -680 674 0
-78 680 -674 0
-79 -680 674 0
-79 680 -674 0
-80 -680 674 0
-80 680 -674 0
-81 -680 674 0
-81 -680 675 0
-81 680 -674 -675 0
-82 -680 674 0
-82 -680 676 0
-82 680 -674 -676 0
-83 -680 674 0
-83 -680 677 0
-83 680 -674 -677 0
-84 -680 674 0
-84 -680 678 0
-84 680 -674 -678 0
-85 -680 674 0
-85 680 -674 0
-86 -680 674 0
-86 680 -674 0
-87 -680 674 0
-87 680 -674 0
-88 -680 674 0
-88 680 -674 0
-89 -680 674 0
-89 680 -674 0
-90 -680 674 0
-90 680 -674 0
-96 -680 674 0
-96 680 -674 0
-76 -681 675 0
-76 681 -675 0
-77 -675 681 0
-77 -673 681 0
-77 -681 675 673 0
-78 -681 675 0
-78 681 -675 0
-79 -681 675 0
-79 681 -675 0
-80 -681 675 0
-80 681 -675 0
-81 -675 681 0
-81 -674 681 0
-81 -681 675 674 0
-82 -681 675 0
-82 681 -675 0
-83 -681 675 0
-83 681 -675 0
-84 -681 675 0
-84 681 -675 0
-85 -681 675 0
-85 -681 676 0
-85 681 -675 -676 0
-86 -681 675 0
-86 -681 677 0
-86 681 -675 -677 0
-87 -681 675 0
-87 -681 678 0
-87 681 -675 -678 0
-88 -681 675 0
-88 681 -675 0
-89 -681 675 0
-89 681 -675 0
-90 -681 675 0
-90 681 -675 0
-96 -681 675 0
-96 681 -675 0
-76 -682 676 0
-76 682 -676 0
-77 -682 676 0
-77 682 -676 0
-78 -676 682 0
-78 -673 682 0
-78 -682 676 673 0
-79 -682 676 0
-79 682 -676 0
-80 -682 676 0
-80 682 -676 0
-81 -682 676 0
-81 682 -676 0
-82 -676 682 0
-82 -674 682 0
-82 -682 676 674 0
-83 -682 676 0
-83 682 -676 0
-84 -682 676 0
-84 682 -676 0
-85 -676 682 0
-85 -675 682 0
-85 -682 676 675 0
-86 -682 676 0
-86 682 -676 0
-87 -682 676 0
-87 682 -676 0
-88 -682 676 0
-88 -682 677 0
-88 682 -676 -677 0
-89 -682 676 0
-89 -682 678 0
-89 682 -676 -678 0
-90 -682 676 0
-90 682 -676 0
-96 -682 676 0
-96 682 -676 0
-76 -683 677 0
-76 683 -677 0
-77 -683 677 0
-77 683 -677 0
-78 -683 677 0
-78 683 -677 0
-79 -677 683 0
-79 -673 683 0
-79 -683 677 673 0
-80 -683 677 0
-80 683 -677 0
-81 -683 677 0
-81 683 -677 0
-82 -683 677 0
-82 683 -677 0
-83 -677 683 0
-83 -674 683 0
-83 -683 677 674 0
-84 -683 677 0
-84 683 -677 0
-85 -683 677 0
-85 683 -677 0
-86 -677 683 0
-86 -675 683 0
-86 -683 677 675 0
-87 -683 677 0
-87 683 -677 0
-88 -677 683 0
-88 -676 683 0
-88 -683 677 676 0
-89 -683 677 0
-89 683 -677 0
-90 -683 677 0
-90 -683 678 0
-90 683 -677 -678 0
-96 -683 677 0
-96 683 -677 0
-76 -684 678 0
-76 684 -678 0
-77 -684 678 0
-77 684 -678 0
-78 -684 678 0
-78 684 -678 0
-79 -684 678 0
-79 684 -678 0
-80 -678 684 0
-80 -673 684 0
-80 -684 678 673 0
-81 -684 678 0
-81 684 -678 0
-82 -684 678 0
-82 684 -678 0
-83 -684 678 0
-83 684 -678 0
-84 -678 684 0
-84 -674 684 0
-84 -684 678 674 0
-85 -684 678 0
-85 684 -678 0
-86 -684 678 0
-86 684 -678 0
-87 -678 684 0
-87 -675 684 0
-87 -684 678 675 0
-88 -684 678 0
-88 684 -678 0
-89 -678 684 0
-89 -676 684 0
-89 -684 678 676 0
-90 -678 684 0
-90 -677 684 0
-90 -684 678 677 0
-96 -684 678 0
-96 684 -678 0
685 0
-1 -691 685 0
-1 -691 686 0
-1 691 -685 -686 0
-2 -691 685 0
-2 -691 687 0
-2 691 -685 -687 0
-3 -691 685 0
-3 -691 688 0
-3 691 -685 -688 0
-4 -691 685 0
-4 -691 689 0
-4 691 -685 -689 0
-5 -691 685 0
-5 -691 690 0
-5 691 -685 -690 0
-6 -691 685 0
-6 691 -685 0
-7 -691 685 0
-7 691 -685 0
-8 -691 685 0
-8 691 -685 0
-9 -691 685 0
-9 691 -685 0
-10 -691 685 0
-10 691 -685 0
-11 -691 685 0
-11 691 -685 0
-12 -691 685 0
-12 691 -685 0
-13 -691 685 0
-13 691 -685 0
-14 -691 685 0
-14 691 -685 0
-15 -691 685 0
-15 691 -685 0
-91 -691 685 0
-91 691 -685 0
686 0
-1 -686 692 0
-1 -685 692 0
-1 -692 686 685 0
-2 -692 686 0
-2 692 -686 0
-3 -692 686 0
-3 692 -686 0
-4 -692 686 0
-4 692 -686 0
-5 -692 686 0
-5 692 -686 0
-6 -692 686 0
-6 -692 687 0
-6 692 -686 -687 0
-7 -692 686 0
-7 -692 688 0
-7 692 -686 -688 0
-8 -692 686 0
-8 -692 689 0
-8 692 -686 -689 0
-9 -692 686 0
-9 -692 690 0
-9 692 -686 -690 0
-10 -692 686 0
-10 692 -686 0
-11 -692 686 0
-11 692 -686 0
-12 -692 686 0
-12 692 -686 0
-13 -692 686 0
-13 692 -686 0
-14 -692 686 0
-14 692 -686 0
-15 -692 686 0
-15 692 -686 0
-91 -692 686 0
-91 692 -686 0
687 0
-1 -693 687 0
-1 693 -687 0
-2 -687 693 0
-2 -685 693 0
-2 -693 687 685 0
-3 -693 687 0
-3 693 -687 0
-4 -693 687 0
-4 693 -687 0
-5 -693 687 0
-5 693 -687 0
-6 -687 693 0
-6 -686 693 0
-6 -693 687 686 0
-7 -693 687 0
-7 693 -687 0
-8 -693 687 0
-8 693 -687 0
-9 -693 687 0
-9 693 -687 0
-10 -693 687 0
-10 -693 688 0
-10 693 -687 -688 0
-11 -693 687 0
-11 -693 689 0
-11 693 -687 -689 0
-12 -693 687 0
-12 -693 690 0
-12 693 -687 -690 0
-13 -693 687 0
-13 693 -687 0
-14 -693 687 0
-14 693 -687 0
-15 -693 687 0
-15 693 -687 0
-91 -693 687 0
-91 693 -687 0
-688 0
-1 -694 688 0
-1 694 -688 0
-2 -694 688 0
-2 694 -688 0
-3 -688 694 0
-3 -685 694 0
-3 -694 688 685 0
-4 -694 688 0
-4 694 -688 0
-5 -694 688 0
-5 694 -688 0
-6 -694 688 0
-6 694 -688 0
-7 -688 694 0
-7 -686 694 0
-7 -694 688 686 0
-8 -694 688 0
-8 694 -688 0
-9 -694 688 0
-9 694 -688 0
-10 -688 694 0
-10 -687 694 0
-10 -694 688 687 0
-11 -694 688 0
-11 694 -688 0
-12 -694 688 0
-12 694 -688 0
-13 -694 688 0
-13 -694 689 0
-13 694 -688 -689 0
-14 -694 688 0
-14 -694 690 0
-14 694 -688 -690 0
-15 -694 688 0
-15 694 -688 0
-91 -694 688 0
-91 694 -688 0
689 0
-1 -695 689 0
-1 695 -689 0
-2 -695 689 0
-2 695 -689 0
-3 -695 689 0
-3 695 -689 0
-4 -689 695 0
-4 -685 695 0
-4 -695 689 685 0
-5 -695 689 0
-5 695 -689 0
-6 -695 689 0
-6 695 -689 0
-7 -695 689 0
-7 695 -689 0
-8 -689 695 0
-8 -686 695 0
-8 -695 689 686 0
-9 -695 689 0
-9 695 -689 0
-10 -695 689 0
-10 695 -689 0
-11 -689 695 0
-11 -687 695 0
-11 -695 689 687 0
-12 -695 689 0
-12 695 -689 0
-13 -689 695 0
-13 -688 695 0
-13 -695 689 688 0
-14 -695 689 0
-14 695 -689 0
-15 -695 689 0
-15 -695 690 0
-15 695 -689 -690 0
-91 -695 689 0
-91 695 -689 0
690 0
-1 -696 690 0
-1 696 -690 0
-2 -696 690 0
-2 696 -690 0
-3 -696 690 0
-3 696 -690 0
-4 -696 690 0
-4 696 -690 0
-5 -690 696 0
-5 -685 696 0
-5 -696 690 685 0
-6 -696 690 0
-6 696 -690 0
-7 -696 690 0
-7 696 -690 0
-8 -696 690 0
-8 696 -690 0
-9 -690 696 0
-9 -686 696 0
-9 -696 690 686 0
-10 -696 690 0
-10 696 -690 0
-11 -696 690 0
-11 696 -690 0
-12 -690 696 0
-12 -687 696 0
-12 -696 690 687 0
-13 -696 690 0
-13 696 -690 0
-14 -690 696 0
-14 -688 696 0
-14 -696 690 688 0
-15 -690 696 0
-15 -689 696 0
-15 -696 690 689 0
-91 -696 690 0
-91 696 -690 0
-16 -697 691 0
-16 -697 692 0
-16 697 -691 -692 0
-17 -697 691 0
-17 -697 693 0
-17 697 -691 -693 0
-18 -697 691 0
-18 -697 694 0
-18 697 -691 -694 0
-19 -697 691 0
-19 -697 695 0
-19 697 -691 -695 0
-20 -697 691 0
-20 -697 696 0
-20 697 -691 -696 0
-21 -697 691 0
-21 697 -691 0
-22 -697 691 0
-22 697 -691 0
-23 -697 691 0
-23 697 -691 0
-24 -697 691 0
-24 697 -691 0
-25 -697 691 0
-25 697 -691 0
-26 -697 691 0
-26 697 -691 0
-27 -697 691 0
-27 697 -691 0
-28 -697 691 0
-28 697 -691 0
-29 -697 691 0
-29 697 -691 0
-30 -697 691 0
-30 697 -691 0
-92 -697 691 0
-92 697 -691 0
-16 -692 698 0
-16 -691 698 0
-16 -698 692 691 0
-17 -698 692 0
-17 698 -692 0
-18 -698 692 0
-18 698 -692 0
-19 -698 692 0
-19 698 -692 0
-20 -698 692 0
-20 698 -692 0
-21 -698 692 0
-21 -698 693 0
-21 698 -692 -693 0
-22 -698 692 0
-22 -698 694 0
-22 698 -692 -694 0
-23 -698 692 0
-23 -698 695 0
-23 698 -692 -695 0
-24 -698 692 0
-24 -698 696 0
-24 698 -692 -696 0
-25 -698 692 0
-25 698 -692 0
-26 -698 692 0
-26 698 -692 0
-27 -698 692 0
-27 698 -692 0
-28 -698 692 0
-28 698 -692 0
-29 -698 692 0
-29 698 -692 0
-30 -698 692 0
-30 698 -692 0
-92 -698 692 0
-92 698 -692 0
-16 -699 693 0
-16 699 -693 0
-17 -693 699 0
-17 -691 699 0
-17 -699 693 691 0
-18 -699 693 0
-18 699 -693 0
-19 -699 693 0
-19 699 -693 0
-20 -699 693 0
-20 699 -693 0
-21 -693 699 0
-21 -692 699 0
-21 -699 693 692 0
-22 -699 693 0
-22 699 -693 0
-23 -699 693 0
-23 699 -693 0
-24 -699 693 0
-24 699 -693 0
-25 -699 693 0
-25 -699 694 0
-25 699 -693 -694 0
-26 -699 693 0
-26 -699 695 0
-26 699 -693 -695 0
-27 -699 693 0
-27 -699 696 0
-27 699 -693 -696 0
-28 -699 693 0
-28 699 -693 0
-29 -699 693 0
-29 699 -693 0
-30 -699 693 0
-30 699 -693 0
-92 -699 693 0
-92 699 -693 0
-16 -700 694 0
-16 700 -694 0
-17 -700 694 0
-17 700 -694 0
-18 -694 700 0
-18 -691 700 0
-18 -700 694 691 0
-19 -700 694 0
-19 700 -694 0
-20 -700 694 0
-20 700 -694 0
-21 -700 694 0
-21 700 -694 0
-22 -694 700 0
-22 -692 700 0
-22 -700 694 692 0
-23 -700 694 0
-23 700 -694 0
-24 -700 694 0
-24 700 -694 0
-25 -694 700 0
-25 -693 700 0
-25 -700 694 693 0
-26 -700 694 0
-26 700 -694 0
-27 -700 694 0
-27 700 -694 0
-28 -700 694 0
-28 -700 695 0
-28 700 -694 -695 0
-29 -700 694 0
-29 -700 696 0
-29 700 -694 -696 0
-30 -700 694 0
-30 700 -694 0
-92 -700 694 0
-92 700 -694 0
-16 -701 695 0
-16 701 -695 0
-17 -701 695 0
-17 701 -695 0
-18 -701 695 0
-18 701 -695 0
-19 -695 701 0
-19 -691 701 0
-19 -701 695 691 0
-20 -701 695 0
-20 701 -695 0
-21 -701 695 0
-21 701 -695 0
-22 -701 695 0
-22 701 -695 0
-23 -695 701 0
-23 -692 701 0
-23 -701 695 692 0
-24 -701 695 0
-24 701 -695 0
-25 -701 695 0
-25 701 -695 0
-26 -695 701 0
-26 -693 701 0
-26 -701 695 693 0
-27 -701 695 0
-27 701 -695 0
-28 -695 701 0
-28 -694 701 0
-28 -701 695 694 0
-29 -701 695 0
-29 701 -695 0
-30 -701 695 0
-30 -701 696 0
-30 701 -695 -696 0
-92 -701 695 0
-92 701 -695 0
-16 -702 696 0
-16 702 -696 0
-17 -702 696 0
-17 702 -696 0
-18 -702 696 0
-18 702 -696 0
-19 -702 696 0
-19 702 -696 0
-20 -696 702 0
-20 -691 702 0
-20 -702 696 691 0
-21 -702 696 0
-21 702 -696 0
-22 -702 696 0
-22 702 -696 0
-23 -702 696 0
-23 702 -696 0
-24 -696 702 0
-24 -692 702 0
-24 -702 696 692 0
-25 -702 696 0
-25 702 -696 0
-26 -702 696 0
-26 702 -696 0
-27 -696 702 0
-27 -693 702 0
-27 -702 696 693 0
-28 -702 696 0
-28 702 -696 0
-29 -696 702 0
-29 -694 702 0
-29 -702 696 694 0
-30 -696 702 0
-30 -695 702 0
-30 -702 696 695 0
-92 -702 696 0
-92 702 -696 0
-31 -703 697 0
-31 -703 698 0
-31 703 -697 -698 0
-32 -703 697 0
-32 -703 699 0
-32 703 -697 -699 0
-33 -703 697 0
-33 -703 700 0
-33 703 -697 -700 0
-34 -703 697 0
-34 -703 701 0
-34 703 -697 -701 0
-35 -703 697 0
-35 -703 702 0
-35 703 -697 -702 0
-36 -703 697 0
-36 703 -697 0
-37 -703 697 0
-37 703 -697 0
-38 -703 697 0
-38 703 -697 0
-39 -703 697 0
-39 703 -697 0
-40 -703 697 0
-40 703 -697 0
-41 -703 697 0
-41 703 -697 0
-42 -703 697 0
-42 703 -697 0
-43 -703 697 0
-43 703 -697 0
-44 -703 697 0
-44 703 -697 0
-45 -703 697 0
-45 703 -697 0
-93 -703 697 0
-93 703 -697 0
-31 -698 704 0
-31 -697 704 0
-31 -704 698 697 0
-32 -704 698 0
-32 704 -698 0
-33 -704 698 0
-33 704 -698 0
-34 -704 698 0
-34 704 -698 0
-35 -704 698 0
-35 704 -698 0
-36 -704 698 0
-36 -704 699 0
-36 704 -698 -699 0
-37 -704 698 0
-37 -704 700 0
-37 704 -698 -700 0
-38 -704 698 0
-38 -704 701 0
-38 704 -698 -701 0
-39 -704 698 0
-39 -704 702 0
-39 704 -698 -702 0
-40 -704 698 0
-40 704 -698 0
-41 -704 698 0
-41 704 -698 0
-42 -704 698 0
-42 704 -698 0
-43 -704 698 0
-43 704 -698 0
-44 -704 698 0
-44 704 -698 0
-45 -704 698 0
-45 704 -698 0
-93 -704 698 0
-93 704 -698 0
-31 -705 699 0
-31 705 -699 0
-32 -699 705 0
-32 -697 705 0
-32 -705 699 697 0
-33 -705 699 0
-33 705 -699 0
-34 -705 699 0
-34 705 -699 0
-35 -705 699 0
-35 705 -699 0
-36 -699 705 0
-36 -698 705 0
-36 -705 699 698 0
-37 -705 699 0
-37 705 -699 0
-38 -705 699 0
-38 705 -699 0
-39 -705 699 0
-39 705 -699 0
-40 -705 699 0
-40 -705 700 0
-40 705 -699 -700 0
-41 -705 699 0
-41 -705 701 0
-41 705 -699 -701 0
-42 -705 699 0
-42 -705 702 0
-42 705 -699 -702 0
-43 -705 699 0
-43 705 -699 0
-44 -705 699 0
-44 705 -699 0
-45 -705 699 0
-45 705 -699 0
-93 -705 699 0
-93 705 -699 0
-31 -706 700 0
-31 706 -700 0
-32 -706 700 0
-32 706 -700 0
-33 -700 706 0
-33 -697 706 0
-33 -706 700 697 0
-34 -706 700 0
-34 706 -700 0
-35 -706 700 0
-35 706 -700 0
-36 -706 700 0
-36 706 -700 0
-37 -700 706 0
-37 -698 706 0
-37 -706 700 698 0
-38 -706 700 0
-38 706 -700 0
-39 -706 700 0
-39 706 -700 0
-40 -700 706 0
-40 -699 706 0
-40 -706 700 699 0
-41 -706 700 0
-41 706 -700 0
-42 -706 700 0
-42 706 -700 0
-43 -706 700 0
-43 -706 701 0
-43 706 -700 -701 0
-44 -706 700 0
-44 -706 702 0
-44 706 -700 -702 0
-45 -706 700 0
-45 706 -700 0
-93 -706 700 0
-93 706 -700 0
-31 -707 701 0
-31 707 -701 0
-32 -707 701 0
-32 707 -701 0
-33 -707 701 0
-33 707 -701 0
-34 -701 707 0
-34 -697 707 0
-34 -707 701 697 0
-35 -707 701 0
-35 707 -701 0
-36 -707 701 0
-36 707 -701 0
-37 -707 701 0
-37 707 -701 0
-38 -701 707 0
-38 -698 707 0
-38 -707 701 698 0
-39 -707 701 0
-39 707 -701 0
-40 -707 701 0
-40 707 -701 0
-41 -701 707 0
-41 -699 707 0
-41 -707 701 699 0
-42 -707 701 0
-42 707 -701 0
-43 -701 707 0
-43 -700 707 0
-43 -707 701 700 0
-44 -707 701 0
-44 707 -701 0
-45 -707 701 0
-45 -707 702 0
-45 707 -701 -702 0
-93 -707 701 0
-93 707 -701 0
-31 -708 702 0
-31 708 -702 0
-32 -708 702 0
-32 708 -702 0
-33 -708 702 0
-33 708 -702 0
-34 -708 702 0
-34 708 -702 0
-35 -702 708 0
-35 -697 708 0
-35 -708 702 697 0
-36 -708 702 0
-36 708 -702 0
-37 -708 702 0
-37 708 -702 0
-38 -708 702 0
-38 708 -702 0
-39 -702 708 0
-39 -698 708 0
-39 -708 702 698 0
-40 -708 702 0
-40 708 -702 0
-41 -708 702 0
-41 708 -702 0
-42 -702 708 0
-42 -699 708 0
-42 -708 702 699 0
-43 -708 702 0
-43 708 -702 0
-44 -702 708 0
-44 -700 708 0
-44 -708 702 700 0
-45 -702 708 0
-45 -701 708 0
-45 -708 702 701 0
-93 -708 702 0
-93 708 -702 0
-46 -709 703 0
-46 -709 704 0
-46 709 -703 -704 0
-47 -709 703 0
-47 -709 705 0
-47 709 -703 -705 0
-48 -709 703 0
-48 -709 706 0
-48 709 -703 -706 0
-49 -709 703 0
-49 -709 707 0
-49 709 -703 -707 0
-50 -709 703 0
-50 -709 708 0
-50 709 -703 -708 0
-51 -709 703 0
-51 709 -703 0
-52 -709 703 0
-52 709 -703 0
-53 -709 703 0
-53 709 -703 0
-54 -709 703 0
-54 709 -703 0
-55 -709 703 0
-55 709 -703 0
-56 -709 703 0
-56 709 -703 0
-57 -709 703 0
-57 709 -703 0
-58 -709 703 0
-58 709 -703 0
-59 -709 703 0
-59 709 -703 0
-60 -709 703 0
-60 709 -703 0
-94 -709 703 0
-94 709 -703 0
-46 -704 710 0
-46 -703 710 0
-46 -710 704 703 0
-47 -710 704 0
-47 710 -704 0
-48 -710 704 0
-48 710 -704 0
-49 -710 704 0
-49 710 -704 0
-50 -710 704 0
-50 710 -704 0
-51 -710 704 0
-51 -710 705 0
-51 710 -704 -705 0
-52 -710 704 0
-52 -710 706 0
-52 710 -704 -706 0
-53 -710 704 0
-53 -710 707 0
-53 710 -704 -707 0
-54 -710 704 0
-54 -710 708 0
-54 710 -704 -708 0
-55 -710 704 0
-55 710 -704 0
-56 -710 704 0
-56 710 -704 0
-57 -710 704 0
-57 710 -704 0
-58 -710 704 0
-58 710 -704 0
-59 -710 704 0
-59 710 -704 0
-60 -710 704 0
-60 710 -704 0
-94 -710 704 0
-94 710 -704 0
-46 -711 705 0
-46 711 -705 0
-47 -705 711 0
-47 -703 711 0
-47 -711 705 703 0
-48 -711 705 0
-48 711 -705 0
-49 -711 705 0
-49 711 -705 0
-50 -711 705 0
-50 711 -705 0
-51 -705 711 0
-51 -704 711 0
-51 -711 705 704 0
-52 -711 705 0
-52 711 -705 0
-53 -711 705 0
-53 711 -705 0
-54 -711 705 0
-54 711 -705 0
-55 -711 705 0
-55 -711 706 0
-55 711 -705 -706 0
-56 -711 705 0
-56 -711 707 0
-56 711 -705 -707 0
-57 -711 705 0
-57 -711 708 0
-57 711 -705 -708 0
-58 -711 705 0
-58 711 -705 0
-59 -711 705 0
-59 711 -705 0
-60 -711 705 0
-60 711 -705 0
-94 -711 705 0
-94 711 -705 0
-46 -712 706 0
-46 712 -706 0
-47 -712 706 0
-47 712 -706 0
-48 -706 712 0
-48 -703 712 0
-48 -712 706 703 0
-49 -712 706 0
-49 712 -706 0
-50 -712 706 0
-50 712 -706 0
-51 -712 706 0
-51 712 -706 0
-52 -706 712 0
-52 -704 712 0
-52 -712 706 704 0
-53 -712 706 0
-53 712 -706 0
-54 -712 706 0
-54 712 -706 0
-55 -706 712 0
-55 -705 712 0
-55 -712 706 705 0
-56 -712 706 0
-56 712 -706 0
-57 -712 706 0
-57 712 -706 0
-58 -712 706 0
-58 -712 707 0
-58 712 -706 -707 0
-59 -712 706 0
-59 -712 708 0
-59 712 -706 -708 0
-60 -712 706 0
-60 712 -706 0
-94 -712 706 0
-94 712 -706 0
-46 -713 707 0
-46 713 -707 0
-47 -713 707 0
-47 713 -707 0
-48 -713 707 0
-48 713 -707 0
-49 -707 713 0
-49 -703 713 0
-49 -713 707 703 0
-50 -713 707 0
-50 713 -707 0
-51 -713 707 0
-51 713 -707 0
-52 -713 707 0
-52 713 -707 0
-53 -707 713 0
-53 -704 713 0
-53 -713 707 704 0
-54 -713 707 0
-54 713 -707 0
-55 -713 707 0
-55 713 -707 0
-56 -707 713 0
-56 -705 713 0
-56 -713 707 705 0
-57 -713 707 0
-57 713 -707 0
-58 -707 713 0
-58 -706 713 0
-58 -713 707 706 0
-59 -713 707 0
-59 713 -707 0
-60 -713 707 0
-60 -713 708 0
-60 713 -707 -708 0
-94 -713 707 0
-94 713 -707 0
-46 -714 708 0
-46 714 -708 0
-47 -714 708 0
-47 714 -708 0
-48 -714 708 0
-48 714 -708 0
-49 -714 708 0
-49 714 -708 0
-50 -708 714 0
-50 -703 714 0
-50 -714 708 703 0
-51 -714 708 0
-51 714 -708 0
-52 -714 708 0
-52 714 -708 0
-53 -714 708 0
-53 714 -708 0
-54 -708 714 0
-54 -704 714 0
-54 -714 708 704 0
-55 -714 708 0
-55 714 -708 0
-56 -714 708 0
-56 714 -708 0
-57 -708 714 0
-57 -705 714 0
-57 -714 708 705 0
-58 -714 708 0
-58 714 -708 0
-59 -708 714 0
-59 -706 714 0
-59 -714 708 706 0
-60 -708 714 0
-60 -707 714 0
-60 -714 708 707 0
-94 -714 708 0
-94 714 -708 0
-61 -715 709 0
-61 -715 710 0
-61 715 -709 -710 0
-62 -715 709 0
-62 -715 711 0
-62 715 -709 -711 0
-63 -715 709 0
-63 -715 712 0
-63 715 -709 -712 0
-64 -715 709 0
-64 -715 713 0
-64 715 -709 -713 0
-65 -715 709 0
-65 -715 714 0
-65 715 -709 -714 0
-66 -715 709 0
-66 715 -709 0
-67 -715 709 0
-67 715 -709 0
-68 -715 709 0
-68 715 -709 0
-69 -715 709 0
-69 715 -709 0
-70 -715 709 0
-70 715 -709 0
-71 -715 709 0
-71 715 -709 0
-72 -715 709 0
-72 715 -709 0
-73 -715 709 0
-73 715 -709 0
-74 -715 709 0
-74 715 -709 0
-75 -715 709 0
-75 715 -709 0
-95 -715 709 0
-95 715 -709 0
-61 -710 716 0
-61 -709 716 0
-61 -716 710 709 0
-62 -716 710 0
-62 716 -710 0
-63 -716 710 0
-63 716 -710 0
-64 -716 710 0
-64 716 -710 0
-65 -716 710 0
-65 716 -710 0
-66 -716 710 0
-66 -716 711 0
-66 716 -710 -711 0
-67 -716 710 0
-67 -716 712 0
-67 716 -710 -712 0
-68 -716 710 0
-68 -716 713 0
-68 716 -710 -713 0
-69 -716 710 0
-69 -716 714 0
-69 716 -710 -714 0
-70 -716 710 0
-70 716 -710 0
-71 -716 710 0
-71 716 -710 0
-72 -716 710 0
-72 716 -710 0
-73 -716 710 0
-73 716 -710 0
-74 -716 710 0
-74 716 -710 0
-75 -716 710 0
-75 716 -710 0
-95 -716 710 0
-95 716 -710 0
-61 -717 711 0
-61 717 -711 0
-62 -711 717 0
-62 -709 717 0
-62 -717 711 709 0
-63 -717 711 0
-63 717 -711 0
-64 -717 711 0
-64 717 -711 0
-65 -717 711 0
-65 717 -711 0
-66 -711 717 0
-66 -710 717 0
-66 -717 711 710 0
-67 -717 711 0
-67 717 -711 0
-68 -717 711 0
-68 717 -711 0
-69 -717 711 0
-69 717 -711 0
-70 -717 711 0
-70 -717 712 0
-70 717 -711 -712 0
-71 -717 711 0
-71 -717 713 0
-71 717 -711 -713 0
-72 -717 711 0
-72 -717 714 0
-72 717 -711 -714 0
-73 -717 711 0
-73 717 -711 0
-74 -717 711 0
-74 717 -711 0
-75 -717 711 0
-75 717 -711 0
-95 -717 711 0
-95 717 -711 0
-61 -718 712 0
-61 718 -712 0
-62 -718 712 0
-62 718 -712 0
-63 -712 718 0
-63 -709 718 0
-63 -718 712 709 0
-64 -718 712 0
-64 718 -712 0
-65 -718 712 0
-65 718 -712 0
-66 -718 712 0
-66 718 -712 0
-67 -712 718 0
-67 -710 718 0
-67 -718 712 710 0
-68 -718 712 0
-68 718 -712 0
-69 -718 712 0
-69 718 -712 0
-70 -712 718 0
-70 -711 718 0
-70 -718 712 711 0
-71 -718 712 0
-71 718 -712 0
-72 -718 712 0
-72 718 -712 0
-73 -718 712 0
-73 -718 713 0
-73 718 -712 -713 0
-74 -718 712 0
-74 -718 714 0
-74 718 -712 -714 0
-75 -718 712 0
-75 718 -712 0
-95 -718 712 0
-95 718 -712 0
-61 -719 713 0
-61 719 -713 0
-62 -719 713 0
-62 719 -713 0
-63 -719 713 0
-63 719 -713 0
-64 -713 719 0
-64 -709 719 0
-64 -719 713 709 0
-65 -719 713 0
-65 719 -713 0
-66 -719 713 0
-66 719 -713 0
-67 -719 713 0
-67 719 -713 0
-68 -713 719 0
-68 -710 719 0
-68 -719 713 710 0
-69 -719 713 0
-69 719 -713 0
-70 -719 713 0
-70 719 -713 0
-71 -713 719 0
-71 -711 719 0
-71 -719 713 711 0
-72 -719 713 0
-72 719 -713 0
-73 -713 719 0
-73 -712 719 0
-73 -719 713 712 0
-74 -719 713 0
-74 719 -713 0
-75 -719 713 0
-75 -719 714 0
-75 719 -713 -714 0
-95 -719 713 0
-95 719 -713 0
-61 -720 714 0
-61 720 -714 0
-62 -720 714 0
-62 720 -714 0
-63 -720 714 0
-63 720 -714 0
-64 -720 714 0
-64 720 -714 0
-65 -714 720 0
-65 -709 720 0
-65 -720 714 709 0
-66 -720 714 0
-66 720 -714 0
-67 -720 714 0
-67 720 -714 0
-68 -720 714 0
-68 720 -714 0
-69 -714 720 0
-69 -710 720 0
-69 -720 714 710 0
-70 -720 714 0
-70 720 -714 0
-71 -720 714 0
-71 720 -714 0
-72 -714 720 0
-72 -711 720 0
-72 -720 714 711 0
-73 -720 714 0
-73 720 -714 0
-74 -714 720 0
-74 -712 720 0
-74 -720 714 712 0
-75 -714 720 0
-75 -713 720 0
-75 -720 714 713 0
-95 -720 714 0
-95 720 -714 0
-76 -721 715 0
-76 -721 716 0
-76 721 -715 -716 0
-77 -721 715 0
-77 -721 717 0
-77 721 -715 -717 0
-78 -721 715 0
-78 -721 718 0
-78 721 -715 -718 0
-79 -721 715 0
-79 -721 719 0
-79 721 -715 -719 0
-80 -721 715 0
-80 -721 720 0
-80 721 -715 -720 0
-81 -721 715 0
-81 721 -715 0
-82 -721 715 0
-82 721 -715 0
-83 -721 715 0
-83 721 -715 0
-84 -721 715 0
-84 721 -715 0
-85 -721 715 0
-85 721 -715 0
-86 -721 715 0
-86 721 -715 0
-87 -721 715 0
-87 721 -715 0
-88 -721 715 0
-88 721 -715 0
-89 -721 715 0
-89 721 -715 0
-90 -721 715 0
-90 721 -715 0
-96 -721 715 0
-96 721 -715 0
-76 -716 722 0
-76 -715 722 0
-76 -722 716 715 0
-77 -722 716 0
-77 722 -716 0
-78 -722 716 0
-78 722 -716 0
-79 -722 716 0
-79 722 -716 0
-80 -722 716 0
-80 722 -716 0
-81 -722 716 0
-81 -722 717 0
-81 722 -716 -717 0
-82 -722 716 0
-82 -722 718 0
-82 722 -716 -718 0
-83 -722 716 0
-83 -722 719 0
-83 722 -716 -719 0
-84 -722 716 0
-84 -722 720 0
-84 722 -716 -720 0
-85 -722 716 0
-85 722 -716 0
-86 -722 716 0
-86 722 -716 0
-87 -722 716 0
-87 722 -716 0
-88 -722 716 0
-88 722 -716 0
-89 -722 716 0
-89 722 -716 0
-90 -722 716 0
-90 722 -716 0
-96 -722 716 0
-96 722 -716 0
-76 -723 717 0
-76 723 -717 0
-77 -717 723 0
-77 -715 723 0
-77 -723 717 715 0
-78 -723 717 0
-78 723 -717 0
-79 -723 717 0
-79 723 -717 0
-80 -723 717 0
-80 723 -717 0
-81 -717 723 0
-81 -716 723 0
-81 -723 717 716 0
-82 -723 717 0
-82 723 -717 0
-83 -723 717 0
-83 723 -717 0
-84 -723 717 0
-84 723 -717 0
-85 -723 717 0
-85 -723 718 0
-85 723 -717 -718 0
-86 -723 717 0
-86 -723 719 0
-86 723 -717 -719 0
-87 -723 717 0
-87 -723 720 0
-87 723 -717 -720 0
-88 -723 717 0
-88 723 -717 0
-89 -723 717 0
-89 723 -717 0
-90 -723 717 0
-90 723 -717 0
-96 -723 717 0
-96 723 -717 0
-76 -724 718 0
-76 724 -718 0
-77 -724 718 0
-77 724 -718 0
-78 -718 724 0
-78 -715 724 0
-78 -724 718 715 0
-79 -724 718 0
-79 724 -718 0
-80 -724 718 0
-80 724 -718 0
-81 -724 718 0
-81 724 -718 0
-82 -718 724 0
-82 -716 724 0
-82 -724 718 716 0
-83 -724 718 0
-83 724 -718 0
-84 -724 718 0
-84 724 -718 0
-85 -718 724 0
-85 -717 724 0
-85 -724 718 717 0
-86 -724 718 0
-86 724 -718 0
-87 -724 718 0
-87 724 -718 0
-88 -724 718 0
-88 -724 719 0
-88 724 -718 -719 0
-89 -724 718 0
-89 -724 720 0
-89 724 -718 -720 0
-90 -724 718 0
-90 724 -718 0
-96 -724 718 0
-96 724 -718 0
-76 -725 719 0
-76 725 -719 0
-77 -725 719 0
-77 725 -719 0
-78 -725 719 0
-78 725 -719 0
-79 -719 725 0
-79 -715 725 0
-79 -725 719 715 0
-80 -725 719 0
-80 725 -719 0
-81 -725 719 0
-81 725 -719 0
-82 -725 719 0
-82 725 -719 0
-83 -719 725 0
-83 -716 725 0
-83 -725 719 716 0
-84 -725 719 0
-84 725 -719 0
-85 -725 719 0
-85 725 -719 0
-86 -719 725 0
-86 -717 725 0
-86 -725 719 717 0
-87 -725 719 0
-87 725 -719 0
-88 -719 725 0
-88 -718 725 0
-88 -725 719 718 0
-89 -725 719 0
-89 725 -719 0
-90 -725 719 0
-90 -725 720 0
-90 725 -719 -720 0
-96 -725 719 0
-96 725 -719 0
-76 -726 720 0
-76 726 -720 0
-77 -726 720 0
-77 726 -720 0
-78 -726 720 0
-78 726 -720 0
-79 -726 720 0
-79 726 -720 0
-80 -720 726 0
-80 -715 726 0
-80 -726 720 715 0
-81 -726 720 0
-81 726 -720 0
-82 -726 720 0
-82 726 -720 0
-83 -726 720 0
-83 726 -720 0
-84 -720 726 0
-84 -716 726 0
-84 -726 720 716 0
-85 -726 720 0
-85 726 -720 0
-86 -726 720 0
-86 726 -720 0
-87 -720 726 0
-87 -717 726 0
-87 -726 720 717 0
-88 -726 720 0
-88 726 -720 0
-89 -720 726 0
-89 -718 726 0
-89 -726 720 718 0
-90 -720 726 0
-90 -719 726 0
-90 -726 720 719 0
-96 -726 720 0
-96 726 -720 0
727 0
-1 -733 727 0
-1 -733 728 0
-1 733 -727 -728 0
-2 -733 727 0
-2 -733 729 0
-2 733 -727 -729 0
-3 -733 727 0
-3 -733 730 0
-3 733 -727 -730 0
-4 -733 727 0
-4 -733 731 0
-4 733 -727 -731 0
-5 -733 727 0
-5 -733 732 0
-5 733 -727 -732 0
-6 -733 727 0
-6 733 -727 0
-7 -733 727 0
-7 733 -727 0
-8 -733 727 0
-8 733 -727 0
-9 -733 727 0
-9 733 -727 0
-10 -733 727 0
-10 733 -727 0
-11 -733 727 0
-11 733 -727 0
-12 -733 727 0
-12 733 -727 0
-13 -733 727 0
-13 733 -727 0
-14 -733 727 0
-14 733 -727 0
-15 -733 727 0
-15 733 -727 0
-91 -733 727 0
-91 733 -727 0
728 0
-1 -728 734 0
-1 -727 734 0
-1 -734 728 727 0
-2 -734 728 0
-2 734 -728 0
-3 -734 728 0
-3 734 -728 0
-4 -734 728 0
-4 734 -728 0
-5 -734 728 0
-5 734 -728 0
-6 -734 728 0
-6 -734 729 0
-6 734 -728 -729 0
-7 -734 728 0
-7 -734 730 0
-7 734 -728 -730 0
-8 -734 728 0
-8 -734 731 0
-8 734 -728 -731 0
-9 -734 728 0
-9 -734 732 0
-9 734 -728 -732 0
-10 -734 728 0
-10 734 -728 0
-11 -734 728 0
-11 734 -728 0
-12 -734 728 0
-12 734 -728 0
-13 -734 728 0
-13 734 -728 0
-14 -734 728 0
-14 734 -728 0
-15 -734 728 0
-15 734 -728 0
-91 -734 728 0
-91 734 -728 0
729 0
-1 -735 729 0
-1 735 -729 0
-2 -729 735 0
-2 -727 735 0
-2 -735 729 727 0
-3 -735 729 0
-3 735 -729 0
-4 -735 729 0
-4 735 -729 0
-5 -735 729 0
-5 735 -729 0
-6 -729 735 0
-6 -728 735 0
-6 -735 729 728 0
-7 -735 729 0
-7 735 -729 0
-8 -735 729 0
-8 735 -729 0
-9 -735 729 0
-9 735 -729 0
-10 -735 729 0
-10 -735 730 0
-10 735 -729 -730 0
-11 -735 729 0
-11 -735 731 0
-11 735 -729 -731 0
-12 -735 729 0
-12 -735 732 0
-12 735 -729 -732 0
-13 -735 729 0
-13 735 -729 0
-14 -735 729 0
-14 735 -729 0
-15 -735 729 0
-15 735 -729 0
-91 -735 729 0
-91 735 -729 0
730 0
-1 -736 730 0
-1 736 -730 0
-2 -736 730 0
-2 736 -730 0
-3 -730 736 0
-3 -727 736 0
-3 -736 730 727 0
-4 -736 730 0
-4 736 -730 0
-5 -736 730 0
-5 736 -730 0
-6 -736 730 0
-6 736 -730 0
-7 -730 736 0
-7 -728 736 0
-7 -736 730 728 0
-8 -736 730 0
-8 736 -730 0
-9 -736 730 0
-9 736 -730 0
-10 -730 736 0
-10 -729 736 0
-10 -736 730 729 0
-11 -736 730 0
-11 736 -730 0
-12 -736 730 0
-12 736 -730 0
-13 -736 730 0
-13 -736 731 0
-13 736 -730 -731 0
-14 -736 730 0
-14 -736 732 0
-14 736 -730 -732 0
-15 -736 730 0
-15 736 -730 0
-91 -736 730 0
-91 736 -730 0
731 0
-1 -737 731 0
-1 737 -731 0
-2 -737 731 0
-2 737 -731 0
-3 -737 731 0
-3 737 -731 0
-4 -731 737 0
-4 -727 737 0
-4 -737 731 727 0
-5 -737 731 0
-5 737 -731 0
-6 -737 731 0
-6 737 -731 0
-7 -737 731 0
-7 737 -731 0
-8 -731 737 0
-8 -728 737 0
-8 -737 731 728 0
-9 -737 731 0
-9 737 -731 0
-10 -737 731 0
-10 737 -731 0
-11 -731 737 0
-11 -729 737 0
-11 -737 731 729 0
-12 -737 731 0
-12 737 -731 0
-13 -731 737 0
-13 -730 737 0
-13 -737 731 730 0
-14 -737 731 0
-14 737 -731 0
-15 -737 731 0
-15 -737 732 0
-15 737 -731 -732 0
-91 -737 731 0
-91 737 -731 0
732 0
-1 -738 732 0
-1 738 -732 0
-2 -738 732 0
-2 738 -732 0
-3 -738 732 0
-3 738 -732 0
-4 -738 732 0
-4 738 -732 0
-5 -732 738 0
-5 -727 738 0
-5 -738 732 727 0
-6 -738 732 0
-6 738 -732 0
-7 -738 732 0
-7 738 -732 0
-8 -738 732 0
-8 738 -732 0
-9 -732 738 0
-9 -728 738 0
-9 -738 732 728 0
-10 -738 732 0
-10 738 -732 0
-11 -738 732 0
-11 738 -732 0
-12 -732 738 0
-12 -729 738 0
-12 -738 732 729 0
-13 -738 732 0
-13 738 -732 0
-14 -732 738 0
-14 -730 738 0
-14 -738 732 730 0
-15 -732 738 0
-15 -731 738 0
-15 -738 732 731 0
-91 -738 732 0
-91 738 -732 0
-16 -739 733 0
-16 -739 734 0
-16 739 -733 -734 0
-17 -739 733 0
-17 -739 735 0
-17 739 -733 -735 0
-18 -739 733 0
-18 -739 736 0
-18 739 -733 -736 0
-19 -739 733 0
-19 -739 737 0
-19 739 -733 -737 0
-20 -739 733 0
-20 -739 738 0
-20 739 -733 -738 0
-21 -739 733 0
-21 739 -733 0
-22 -739 733 0
-22 739 -733 0
-23 -739 733 0
-23 739 -733 0
-24 -739 733 0
-24 739 -733 0
-25 -739 733 0
-25 739 -733 0
-26 -739 733 0
-26 739 -733 0
-27 -739 733 0
-27 739 -733 0
-28 -739 733 0
-28 739 -733 0
-29 -739 733 0
-29 739 -733 0
-30 -739 733 0
-30 739 -733 0
-92 -739 733 0
-92 739 -733 0
-16 -734 740 0
-16 -733 740 0
-16 -740 734 733 0
-17 -740 734 0
-17 740 -734 0
-18 -740 734 0
-18 740 -734 0
-19 -740 734 0
-19 740 -734 0
-20 -740 734 0
-20 740 -734 0
-21 -740 734 0
-21 -740 735 0
-21 740 -734 -735 0
-22 -740 734 0
-22 -740 736 0
-22 740 -734 -736 0
-23 -740 734 0
-23 -740 737 0
-23 740 -734 -737 0
-24 -740 734 0
-24 -740 738 0
-24 740 -734 -738 0
-25 -740 734 0
-25 740 -734 0
-26 -740 734 0
-26 740 -734 0
-27 -740 734 0
-27 740 -734 0
-28 -740 734 0
-28 740 -734 0
-29 -740 734 0
-29 740 -734 0
-30 -740 734 0
-30 740 -734 0
-92 -740 734 0
-92 740 -734 0
-16 -741 735 0
-16 741 -735 0
-17 -735 741 0
-17 -733 741 0
-17 -741 735 733 0
-18 -741 735 0
-18 741 -735 0
-19 -741 735 0
-19 741 -735 0
-20 -741 735 0
-20 741 -735 0
-21 -735 741 0
-21 -734 741 0
-21 -741 735 734 0
-22 -741 735 0
-22 741 -735 0
-23 -741 735 0
-23 741 -735 0
-24 -741 735 0
-24 741 -735 0
-25 -741 735 0
-25 -741 736 0
-25 741 -735 -736 0
-26 -741 735 0
-26 -741 737 0
-26 741 -735 -737 0
-27 -741 735 0
-27 -741 738 0
-27 741 -735 -738 0
-28 -741 735 0
-28 741 -735 0
-29 -741 735 0
-29 741 -735 0
-30 -741 735 0
-30 741 -735 0
-92 -741 735 0
-92 741 -735 0
-16 -742 736 0
-16 742 -736 0
-17 -742 736 0
-17 742 -736 0
-18 -736 742 0
-18 -733 742 0
-18 -742 736 733 0
-19 -742 736 0
-19 742 -736 0
-20 -742 736 0
-20 742 -736 0
-21 -742 736 0
-21 742 -736 0
-22 -736 742 0
-22 -734 742 0
-22 -742 736 734 0
-23 -742 736 0
-23 742 -736 0
-24 -742 736 0
-24 742 -736 0
-25 -736 742 0
-25 -735 742 0
-25 -742 736 735 0
-26 -742 736 0
-26 742 -736 0
-27 -742 736 0
-27 742 -736 0
-28 -742 736 0
-28 -742 737 0
-28 742 -736 -737 0
-29 -742 736 0
-29 -742 738 0
-29 742 -736 -738 0
-30 -742 736 0
-30 742 -736 0
-92 -742 736 0
-92 742 -736 0
-16 -743 737 0
-16 743 -737 0
-17 -743 737 0
-17 743 -737 0
-18 -743 737 0
-18 743 -737 0
-19 -737 743 0
-19 -733 743 0
-19 -743 737 733 0
-20 -743 737 0
-20 743 -737 0
-21 -743 737 0
-21 743 -737 0
-22 -743 737 0
-22 743 -737 0
-23 -737 743 0
-23 -734 743 0
-23 -743 737 734 0
-24 -743 737 0
-24 743 -737 0
-25 -743 737 0
-25 743 -737 0
-26 -737 743 0
-26 -735 743 0
-26 -743 737 735 0
-27 -743 737 0
-27 743 -737 0
-28 -737 743 0
-28 -736 743 0
-28 -743 737 736 0
-29 -743 737 0
-29 743 -737 0
-30 -743 737 0
-30 -743 738 0
-30 743 -737 -738 0
-92 -743 737 0
-92 743 -737 0
-16 -744 738 0
-16 744 -738 0
-17 -744 738 0
-17 744 -738 0
-18 -744 738 0
-18 744 -738 0
-19 -744 738 0
-19 744 -738 0
-20 -738 744 0
-20 -733 744 0
-20 -744 738 733 0
-21 -744 738 0
-21 744 -738 0
-22 -744 738 0
-22 744 -738 0
-23 -744 738 0
-23 744 -738 0
-24 -738 744 0
-24 -734 744 0
-24 -744 738 734 0
-25 -744 738 0
-25 744 -738 0
-26 -744 738 0
-26 744 -738 0
-27 -738 744 0
-27 -735 744 0
-27 -744 738 735 0
-28 -744 738 0
-28 744 -738 0
-29 -738 744 0
-29 -736 744 0
-29 -744 738 736 0
-30 -738 744 0
-30 -737 744 0
-30 -744 738 737 0
-92 -744 738 0
-92 744 -738 0
-31 -745 739 0
-31 -745 740 0
-31 745 -739 -740 0
-32 -745 739 0
-32 -745 741 0
-32 745 -739 -741 0
-33 -745 739 0
-33 -745 742 0
-33 745 -739 -742 0
-34 -745 739 0
-34 -745 743 0
-34 745 -739 -743 0
-35 -745 739 0
-35 -745 744 0
-35 745 -739 -744 0
-36 -745 739 0
-36 745 -739 0
-37 -745 739 0
-37 745 -739 0
-38 -745 739 0
-38 745 -739 0
-39 -745 739 0
-39 745 -739 0
-40 -745 739 0
-40 745 -739 0
-41 -745 739 0
-41 745 -739 0
-42 -745 739 0
-42 745 -739 0
-43 -745 739 0
-43 745 -739 0
-44 -745 739 0
-44 745 -739 0
-45 -745 739 0
-45 745 -739 0
-93 -745 739 0
-93 745 -739 0
-31 -740 746 0
-31 -739 746 0
-31 -746 740 739 0
-32 -746 740 0
-32 746 -740 0
-33 -746 740 0
-33 746 -740 0
-34 -746 740 0
-34 746 -740 0
-35 -746 740 0
-35 746 -740 0
-36 -746 740 0
-36 -746 741 0
-36 746 -740 -741 0
-37 -746 740 0
-37 -746 742 0
-37 746 -740 -742 0
-38 -746 740 0
-38 -746 743 0
-38 746 -740 -743 0
-39 -746 740 0
-39 -746 744 0
-39 746 -740 -744 0
-40 -746 740 0
-40 746 -740 0
-41 -746 740 0
-41 746 -740 0
-42 -746 740 0
-42 746 -740 0
-43 -746 740 0
-43 746 -740 0
-44 -746 740 0
-44 746 -740 0
-45 -746 740 0
-45 746 -740 0
-93 -746 740 0
-93 746 -740 0
-31 -747 741 0
-31 747 -741 0
-32 -741 747 0
-32 -739 747 0
-32 -747 741 739 0
-33 -747 741 0
-33 747 -741 0
-34 -747 741 0
-34 747 -741 0
-35 -747 741 0
-35 747 -741 0
-36 -741 747 0
-36 -740 747 0
-36 -747 741 740 0
-37 -747 741 0
-37 747 -741 0
-38 -747 741 0
-38 747 -741 0
-39 -747 741 0
-39 747 -741 0
-40 -747 741 0
-40 -747 742 0
-40 747 -741 -742 0
-41 -747 741 0
-41 -747 743 0
-41 747 -741 -743 0
-42 -747 741 0
-42 -747 744 0
-42 747 -741 -744 0
-43 -747 741 0
-43 747 -741 0
-44 -747 741 0
-44 747 -741 0
-45 -747 741 0
-45 747 -741 0
-93 -747 741 0
-93 747 -741 0
-31 -748 742 0
-31 748 -742 0
-32 -748 742 0
-32 748 -742 0
-33 -742 748 0
-33 -739 748 0
-33 -748 742 739 0
-34 -748 742 0
-34 748 -742 0
-35 -748 742 0
-35 748 -742 0
-36 -748 742 0
-36 748 -742 0
-37 -742 748 0
-37 -740 748 0
-37 -748 742 740 0
-38 -748 742 0
-38 748 -742 0
-39 -748 742 0
-39 748 -742 0
-40 -742 748 0
-40 -741 748 0
-40 -748 742 741 0
-41 -748 742 0
-41 748 -742 0
-42 -748 742 0
-42 748 -742 0
-43 -748 742 0
-43 -748 743 0
-43 748 -742 -743 0
-44 -748 742 0
-44 -748 744 0
-44 748 -742 -744 0
-45 -748 742 0
-45 748 -742 0
-93 -748 742 0
-93 748 -742 0
-31 -749 743 0
-31 749 -743 0
-32 -749 743 0
-32 749 -743 0
-33 -749 743 0
-33 749 -743 0
-34 -743 749 0
-34 -739 749 0
-34 -749 743 739 0
-35 -749 743 0
-35 749 -743 0
-36 -749 743 0
-36 749 -743 0
-37 -749 743 0
-37 749 -743 0
-38 -743 749 0
-38 -740 749 0
-38 -749 743 740 0
-39 -749 743 0
-39 749 -743 0
-40 -749 743 0
-40 749 -743 0
-41 -743 749 0
-41 -741 749 0
-41 -749 743 741 0
-42 -749 743 0
-42 749 -743 0
-43 -743 749 0
-43 -742 749 0
-43 -749 743 742 0
-44 -749 743 0
-44 749 -743 0
-45 -749 743 0
-45 -749 744 0
-45 749 -743 -744 0
-93 -749 743 0
-93 749 -743 0
-31 -750 744 0
-31 750 -744 0
-32 -750 744 0
-32 750 -744 0
-33 -750 744 0
-33 750 -744 0
-34 -750 744 0
-34 750 -744 0
-35 -744 750 0
-35 -739 750 0
-35 -750 744 739 0
-36 -750 744 0
-36 750 -744 0
-37 -750 744 0
-37 750 -744 0
-38 -750 744 0
-38 750 -744 0
-39 -744 750 0
-39 -740 750 0
-39 -750 744 740 0
-40 -750 744 0
-40 750 -744 0
-41 -750 744 0
-41 750 -744 0
-42 -744 750 0
-42 -741 750 0
-42 -750 744 741 0
-43 -750 744 0
-43 750 -744 0
-44 -744 750 0
-44 -742 750 0
-44 -750 744 742 0
-45 -744 750 0
-45 -743 750 0
-45 -750 744 743 0
-93 -750 744 0
-93 750 -744 0
-46 -751 745 0
-46 -751 746 0
-46 751 -745 -746 0
-47 -751 745 0
-47 -751 747 0
-47 751 -745 -747 0
-48 -751 745 0
-48 -751 748 0
-48 751 -745 -748 0
-49 -751 745 0
-49 -751 749 0
-49 751 -745 -749 0
-50 -751 745 0
-50 -751 750 0
-50 751 -745 -750 0
-51 -751 745 0
-51 751 -745 0
-52 -751 745 0
-52 751 -745 0
-53 -751 745 0
-53 751 -745 0
-54 -751 745 0
-54 751 -745 0
-55 -751 745 0
-55 751 -745 0
-56 -751 745 0
-56 751 -745 0
-57 -751 745 0
-57 751 -745 0
-58 -751 745 0
-58 751 -745 0
-59 -751 745 0
-59 751 -745 0
-60 -751 745 0
-60 751 -745 0
-94 -751 745 0
-94 751 -745 0
-46 -746 752 0
-46 -745 752 0
-46 -752 746 745 0
-47 -752 746 0
-47 752 -746 0
-48 -752 746 0
-48 752 -746 0
-49 -752 746 0
-49 752 -746 0
-50 -752 746 0
-50 752 -746 0
-51 -752 746 0
-51 -752 747 0
-51 752 -746 -747 0
-52 -752 746 0
-52 -752 748 0
-52 752 -746 -748 0
-53 -752 746 0
-53 -752 749 0
-53 752 -746 -749 0
-54 -752 746 0
-54 -752 750 0
-54 752 -746 -750 0
-55 -752 746 0
-55 752 -746 0
-56 -752 746 0
-56 752 -746 0
-57 -752 746 0
-57 752 -746 0
-58 -752 746 0
-58 752 -746 0
-59 -752 746 0
-59 752 -746 0
-60 -752 746 0
-60 752 -746 0
-94 -752 746 0
-94 752 -746 0
-46 -753 747 0
-46 753 -747 0
-47 -747 753 0
-47 -745 753 0
-47 -753 747 745 0
-48 -753 747 0
-48 753 -747 0
-49 -753 747 0
-49 753 -747 0
-50 -753 747 0
-50 753 -747 0
-51 -747 753 0
-51 -746 753 0
-51 -753 747 746 0
-52 -753 747 0
-52 753 -747 0
-53 -753 747 0
-53 753 -747 0
-54 -753 747 0
-54 753 -747 0
-55 -753 747 0
-55 -753 748 0
-55 753 -747 -748 0
-56 -753 747 0
-56 -753 749 0
-56 753 -747 -749 0
-57 -753 747 0
-57 -753 750 0
-57 753 -747 -750 0
-58 -753 747 0
-58 753 -747 0
-59 -753 747 0
-59 753 -747 0
-60 -753 747 0
-60 753 -747 0
-94 -753 747 0
-94 753 -747 0
-46 -754 748 0
-46 754 -748 0
-47 -754 748 0
-47 754 -748 0
-48 -748 754 0
-48 -745 754 0
-48 -754 748 745 0
-49 -754 748 0
-49 754 -748 0
-50 -754 748 0
-50 754 -748 0
-51 -754 748 0
-51 754 -748 0
-52 -748 754 0
-52 -746 754 0
-52 -754 748 746 0
-53 -754 748 0
-53 754 -748 0
-54 -754 748 0
-54 754 -748 0
-55 -748 754 0
-55 -747 754 0
-55 -754 748 747 0
-56 -754 748 0
-56 754 -748 0
-57 -754 748 0
-57 754 -748 0
-58 -754 748 0
-58 -754 749 0
-58 754 -748 -749 0
-59 -754 748 0
-59 -754 750 0
-59 754 -748 -750 0
-60 -754 748 0
-60 754 -748 0
-94 -754 748 0
-94 754 -748 0
-46 -755 749 0
-46 755 -749 0
-47 -755 749 0
-47 755 -749 0
-48 -755 749 0
-48 755 -749 0
-49 -749 755 0
-49 -745 755 0
-49 -755 749 745 0
-50 -755 749 0
-50 755 -749 0
-51 -755 749 0
-51 755 -749 0
-52 -755 749 0
-52 755 -749 0
-53 -749 755 0
-53 -746 755 0
-53 -755 749 746 0
-54 -755 749 0
-54 755 -749 0
-55 -755 749 0
-55 755 -749 0
-56 -749 755 0
-56 -747 755 0
-56 -755 749 747 0
-57 -755 749 0
-57 755 -749 0
-58 -749 755 0
-58 -748 755 0
-58 -755 749 748 0
-59 -755 749 0
-59 755 -749 0
-60 -755 749 0
-60 -755 750 0
-60 755 -749 -750 0
-94 -755 749 0
-94 755 -749 0
-46 -756 750 0
-46 756 -750 0
-47 -756 750 0
-47 756 -750 0
-48 -756 750 0
-48 756 -750 0
-49 -756 750 0
-49 756 -750 0
-50 -750 756 0
-50 -745 756 0
-50 -756 750 745 0
-51 -756 750 0
-51 756 -750 0
-52 -756 750 0
-52 756 -750 0
-53 -756 750 0
-53 756 -750 0
-54 -750 756 0
-54 -746 756 0
-54 -756 750 746 0
-55 -756 750 0
-55 756 -750 0
-56 -756 750 0
-56 756 -750 0
-57 -750 756 0
-57 -747 756 0
-57 -756 750 747 0
-58 -756 750 0
-58 756 -750 0
-59 -750 756 0
-59 -748 756 0
-59 -756 750 748 0
-60 -750 756 0
-60 -749 756 0
-60 -756 750 749 0
-94 -756 750 0
-94 756 -750 0
-61 -757 751 0
-61 -757 752 0
-61 757 -751 -752 0
-62 -757 751 0
-62 -757 753 0
-62 757 -751 -753 0
-63 -757 751 0
-63 -757 754 0
-63 757 -751 -754 0
-64 -757 751 0
-64 -757 755 0
-64 757 -751 -755 0
-65 -757 751 0
-65 -757 756 0
-65 757 -751 -756 0
-66 -757 751 0
-66 757 -751 0
-67 -757 751 0
-67 757 -751 0
-68 -757 751 0
-68 757 -751 0
-69 -757 751 0
-69 757 -751 0
-70 -757 751 0
-70 757 -751 0
-71 -757 751 0
-71 757 -751 0
-72 -757 751 0
-72 757 -751 0
-73 -757 751 0
-73 757 -751 0
-74 -757 751 0
-74 757 -751 0
-75 -757 751 0
-75 757 -751 0
-95 -757 751 0
-95 757 -751 0
-61 -752 758 0
-61 -751 758 0
-61 -758 752 751 0
-62 -758 752 0
-62 758 -752 0
-63 -758 752 0
-63 758 -752 0
-64 -758 752 0
-64 758 -752 0
-65 -758 752 0
-65 758 -752 0
-66 -758 752 0
-66 -758 753 0
-66 758 -752 -753 0
-67 -758 752 0
-67 -758 754 0
-67 758 -752 -754 0
-68 -758 752 0
-68 -758 755 0
-68 758 -752 -755 0
-69 -758 752 0
-69 -758 756 0
-69 758 -752 -756 0
-70 -758 752 0
-70 758 -752 0
-71 -758 752 0
-71 758 -752 0
-72 -758 752 0
-72 758 -752 0
-73 -758 752 0
-73 758 -752 0
-74 -758 752 0
-74 758 -752 0
-75 -758 752 0
-75 758 -752 0
-95 -758 752 0
-95 758 -752 0
-61 -759 753 0
-61 759 -753 0
-62 -753 759 0
-62 -751 759 0
-62 -759 753 751 0
-63 -759 753 0
-63 759 -753 0
-64 -759 753 0
-64 759 -753 0
-65 -759 753 0
-65 759 -753 0
-66 -753 759 0
-66 -752 759 0
-66 -759 753 752 0
-67 -759 753 0
-67 759 -753 0
-68 -759 753 0
-68 759 -753 0
-69 -759 753 0
-69 759 -753 0
-70 -759 753 0
-70 -759 754 0
-70 759 -753 -754 0
-71 -759 753 0
-71 -759 755 0
-71 759 -753 -755 0
-72 -759 753 0
-72 -759 756 0
-72 759 -753 -756 0
-73 -759 753 0
-73 759 -753 0
-74 -759 753 0
-74 759 -753 0
-75 -759 753 0
-75 759 -753 0
-95 -759 753 0
-95 759 -753 0
-61 -760 754 0
-61 760 -754 0
-62 -760 754 0
-62 760 -754 0
-63 -754 760 0
-63 -751 760 0
-63 -760 754 751 0
-64 -760 754 0
-64 760 -754 0
-65 -760 754 0
-65 760 -754 0
-66 -760 754 0
-66 760 -754 0
-67 -754 760 0
-67 -752 760 0
-67 -760 754 752 0
-68 -760 754 0
-68 760 -754 0
-69 -760 754 0
-69 760 -754 0
-70 -754 760 0
-70 -753 760 0
-70 -760 754 753 0
-71 -760 754 0
-71 760 -754 0
-72 -760 754 0
-72 760 -754 0
-73 -760 754 0
-73 -760 755 0
-73 760 -754 -755 0
-74 -760 754 0
-74 -760 756 0
-74 760 -754 -756 0
-75 -760 754 0
-75 760 -754 0
-95 -760 754 0
-95 760 -754 0
-61 -761 755 0
-61 761 -755 0
-62 -761 755 0
-62 761 -755 0
-63 -761 755 0
-63 761 -755 0
-64 -755 761 0
-64 -751 761 0
-64 -761 755 751 0
-65 -761 755 0
-65 761 -755 0
-66 -761 755 0
-66 761 -755 0
-67 -761 755 0
-67 761 -755 0
-68 -755 761 0
-68 -752 761 0
-68 -761 755 752 0
-69 -761 755 0
-69 761 -755 0
-70 -761 755 0
-70 761 -755 0
-71 -755 761 0
-71 -753 761 0
-71 -761 755 753 0
-72 -761 755 0
-72 761 -755 0
-73 -755 761 0
-73 -754 761 0
-73 -761 755 754 0
-74 -761 755 0
-74 761 -755 0
-75 -761 755 0
-75 -761 756 0
-75 761 -755 -756 0
-95 -761 755 0
-95 761 -755 0
-61 -762 756 0
-61 762 -756 0
-62 -762 756 0
-62 762 -756 0
-63 -762 756 0
-63 762 -756 0
-64 -762 756 0
-64 762 -756 0
-65 -756 762 0
-65 -751 762 0
-65 -762 756 751 0
-66 -762 756 0
-66 762 -756 0
-67 -762 756 0
-67 762 -756 0
-68 -762 756 0
-68 762 -756 0
-69 -756 762 0
-69 -752 762 0
-69 -762 756 752 0
-70 -762 756 0
-70 762 -756 0
-71 -762 756 0
-71 762 -756 0
-72 -756 762 0
-72 -753 762 0
-72 -762 756 753 0
-73 -762 756 0
-73 762 -756 0
-74 -756 762 0
-74 -754 762 0
-74 -762 756 754 0
-75 -756 762 0
-75 -755 762 0
-75 -762 756 755 0
-95 -762 756 0
-95 762 -756 0
-76 -763 757 0
-76 -763 758 0
-76 763 -757 -758 0
-77 -763 757 0
-77 -763 759 0
-77 763 -757 -759 0
-78 -763 757 0
-78 -763 760 0
-78 763 -757 -760 0
-79 -763 757 0
-79 -763 761 0
-79 763 -757 -761 0
-80 -763 757 0
-80 -763 762 0
-80 763 -757 -762 0
-81 -763 757 0
-81 763 -757 0
-82 -763 757 0
-82 763 -757 0
-83 -763 757 0
-83 763 -757 0
-84 -763 757 0
-84 763 -757 0
-85 -763 757 0
-85 763 -757 0
-86 -763 757 0
-86 763 -757 0
-87 -763 757 0
-87 763 -757 0
-88 -763 757 0
-88 763 -757 0
-89 -763 757 0
-89 763 -757 0
-90 -763 757 0
-90 763 -757 0
-96 -763 757 0
-96 763 -757 0
-76 -758 764 0
-76 -757 764 0
-76 -764 758 757 0
-77 -764 758 0
-77 764 -758 0
-78 -764 758 0
-78 764 -758 0
-79 -764 758 0
-79 764 -758 0
-80 -764 758 0
-80 764 -758 0
-81 -764 758 0
-81 -764 759 0
-81 764 -758 -759 0
-82 -764 758 0
-82 -764 760 0
-82 764 -758 -760 0
-83 -764 758 0
-83 -764 761 0
-83 764 -758 -761 0
-84 -764 758 0
-84 -764 762 0
-84 764 -758 -762 0
-85 -764 758 0
-85 764 -758 0
-86 -764 758 0
-86 764 -758 0
-87 -764 758 0
-87 764 -758 0
-88 -764 758 0
-88 764 -758 0
-89 -764 758 0
-89 764 -758 0
-90 -764 758 0
-90 764 -758 0
-96 -764 758 0
-96 764 -758 0
-76 -765 759 0
-76 765 -759 0
-77 -759 765 0
-77 -757 765 0
-77 -765 759 757 0
-78 -765 759 0
-78 765 -759 0
-79 -765 759 0
-79 765 -759 0
-80 -765 759 0
-80 765 -759 0
-81 -759 765 0
-81 -758 765 0
-81 -765 759 758 0
-82 -765 759 0
-82 765 -759 0
-83 -765 759 0
-83 765 -759 0
-84 -765 759 0
-84 765 -759 0
-85 -765 759 0
-85 -765 760 0
-85 765 -759 -760 0
-86 -765 759 0
-86 -765 761 0
-86 765 -759 -761 0
-87 -765 759 0
-87 -765 762 0
-87 765 -759 -762 0
-88 -765 759 0
-88 765 -759 0
-89 -765 759 0
-89 765 -759 0
-90 -765 759 0
-90 765 -759 0
-96 -765 759 0
-96 765 -759 0
-76 -766 760 0
-76 766 -760 0
-77 -766 760 0
-77 766 -760 0
-78 -760 766 0
-78 -757 766 0
-78 -766 760 757 0
-79 -766 760 0
-79 766 -760 0
-80 -766 760 0
-80 766 -760 0
-81 -766 760 0
-81 766 -760 0
-82 -760 766 0
-82 -758 766 0
-82 -766 760 758 0
-83 -766 760 0
-83 766 -760 0
-84 -766 760 0
-84 766 -760 0
-85 -760 766 0
-85 -759 766 0
-85 -766 760 759 0
-86 -766 760 0
-86 766 -760 0
-87 -766 760 0
-87 766 -760 0
-88 -766 760 0
-88 -766 761 0
-88 766 -760 -761 0
-89 -766 760 0
-89 -766 762 0
-89 766 -760 -762 0
-90 -766 760 0
-90 766 -760 0
-96 -766 760 0
-96 766 -760 0
-76 -767 761 0
-76 767 -761 0
-77 -767 761 0
-77 767 -761 0
-78 -767 761 0
-78 767 -761 0
-79 -761 767 0
-79 -757 767 0
-79 -767 761 757 0
-80 -767 761 0
-80 767 -761 0
-81 -767 761 0
-81 767 -761 0
-82 -767 761 0
-82 767 -761 0
-83 -761 767 0
-83 -758 767 0
-83 -767 761 758 0
-84 -767 761 0
-84 767 -761 0
-85 -767 761 0
-85 767 -761 0
-86 -761 767 0
-86 -759 767 0
-86 -767 761 759 0
-87 -767 761 0
-87 767 -761 0
-88 -761 767 0
-88 -760 767 0
-88 -767 761 760 0
-89 -767 761 0
-89 767 -761 0
-90 -767 761 0
-90 -767 762 0
-90 767 -761 -762 0
-96 -767 761 0
-96 767 -761 0
-76 -768 762 0
-76 768 -762 0
-77 -768 762 0
-77 768 -762 0
-78 -768 762 0
-78 768 -762 0
-79 -768 762 0
-79 768 -762 0
-80 -762 768 0
-80 -757 768 0
-80 -768 762 757 0
-81 -768 762 0
-81 768 -762 0
-82 -768 762 0
-82 768 -762 0
-83 -768 762 0
-83 768 -762 0
-84 -762 768 0
-84 -758 768 0
-84 -768 762 758 0
-85 -768 762 0
-85 768 -762 0
-86 -768 762 0
-86 768 -762 0
-87 -762 768 0
-87 -759 768 0
-87 -768 762 759 0
-88 -768 762 0
-88 768 -762 0
-89 -762 768 0
-89 -760 768 0
-89 -768 762 760 0
-90 -762 768 0
-90 -761 768 0
-90 -768 762 761 0
-96 -768 762 0
-96 768 -762 0
-133 134 0
-134 135 0
-135 136 0
-136 137 0
-137 138 0
-175 176 0
-176 177 0
-177 178 0
-178 179 0
-179 180 0
-217 218 0
-218 219 0
-219 220 0
-220 221 0
-221 222 0
-259 260 0
-260 261 0
-261 262 0
-262 263 0
-263 264 0
-301 302 0
-302 303 0
-303 304 0
-304 305 0
-305 306 0
-343 344 0
-344 345 0
-345 346 0
-346 347 0
-347 348 0
-385 386 0
-386 387 0
-387 388 0
-388 389 0
-389 390 0
-427 428 0
-428 429 0
-429 430 0
-430 431 0
-431 432 0
-469 470 0
-470 471 0
-471 472 0
-472 473 0
-473 474 0
-511 512 0
-512 513 0
-513 514 0
-514 515 0
-515 516 0
-553 554 0
-554 555 0
-555 556 0
-556 557 0
-557 558 0
-595 596 0
-596 597 0
-597 598 0
-598 599 0
-599 600 0
-637 638 0
-638 639 0
-639 640 0
-640 641 0
-641 642 0
-679 680 0
-680 681 0
-681 682 0
-682 683 0
-683 684 0
-721 722 0
-722 723 0
-723 724 0
-724 725 0
-725 726 0
-763 764 0
-764 765 0
-765 766 0
-766 767 0
-767 768 0
