p cnf 165 1983
1 2 3 4 5 6 19 0
-1 -2 0
-1 -3 0
-1 -4 0
-1 -5 0
-1 -6 0
-1 -19 0
-2 -3 0
-2 -4 0
-2 -5 0
-2 -6 0
-2 -19 0
-3 -4 0
-3 -5 0
-3 -6 0
-3 -19 0
-4 -5 0
-4 -6 0
-4 -19 0
-5 -6 0
-5 -19 0
-6 -19 0
7 8 9 10 11 12 20 0
-7 -8 0
-7 -9 0
-7 -10 0
-7 -11 0
-7 -12 0
-7 -20 0
-8 -9 0
-8 -10 0
-8 -11 0
-8 -12 0
-8 -20 0
-9 -10 0
-9 -11 0
-9 -12 0
-9 -20 0
-10 -11 0
-10 -12 0
-10 -20 0
-11 -12 0
-11 -20 0
-12 -20 0
13 14 15 16 17 18 21 0
-13 -14 0
-13 -15 0
-13 -16 0
-13 -17 0
-13 -18 0
-13 -21 0
-14 -15 0
-14 -16 0
-14 -17 0
-14 -18 0
-14 -21 0
-15 -16 0
-15 -17 0
-15 -18 0
-15 -21 0
-16 -17 0
-16 -18 0
-16 -21 0
-17 -18 0
-17 -21 0
-18 -21 0
-1 -7 0
-2 -8 0
-3 -9 0
-4 -10 0
-5 -11 0
-6 -12 0
-7 -13 0
-8 -14 0
-9 -15 0
-10 -16 0
-11 -17 0
-12 -18 0
-4 -9 0
-5 -8 0
-6 -7 0
-10 -15 0
-11 -14 0
-12 -13 0
-22 0
-1 -26 22 0
-1 -26 23 0
-1 26 -22 -23 0
-2 -26 22 0
-2 -26 24 0
-2 26 -22 -24 0
-3 -26 22 0
-3 -26 25 0
-3 26 -22 -25 0
-4 -26 22 0
-4 26 -22 0
-5 -26 22 0
-5 26 -22 0
-6 -26 22 0
-6 26 -22 0
-19 -26 22 0
-19 26 -22 0
-23 0
-1 -23 27 0
-1 -22 27 0
-1 -27 23 22 0
-2 -27 23 0
-2 27 -23 0
-3 -27 23 0
-3 27 -23 0
-4 -27 23 0
-4 -27 24 0
-4 27 -23 -24 0
-5 -27 23 0
-5 -27 25 0
-5 27 -23 -25 0
-6 -27 23 0
-6 27 -23 0
-19 -27 23 0
-19 27 -23 0
-24 0
-1 -28 24 0
-1 28 -24 0
-2 -24 28 0
-2 -22 28 0
-2 -28 24 22 0
-3 -28 24 0
-3 28 -24 0
-4 -24 28 0
-4 -23 28 0
-4 -28 24 23 0
-5 -28 24 0
-5 28 -24 0
-6 -28 24 0
-6 -28 25 0
-6 28 -24 -25 0
-19 -28 24 0
-19 28 -24 0
-25 0
-1 -29 25 0
-1 29 -25 0
-2 -29 25 0
-2 29 -25 0
-3 -25 29 0
-3 -22 29 0
-3 -29 25 22 0
-4 -29 25 0
-4 29 -25 0
-5 -25 29 0
-5 -23 29 0
-5 -29 25 23 0
-6 -25 29 0
-6 -24 29 0
-6 -29 25 24 0
-19 -29 25 0
-19 29 -25 0
-7 -30 26 0
-7 -30 27 0
-7 30 -26 -27 0
-8 -30 26 0
-8 -30 28 0
-8 30 -26 -28 0
-9 -30 26 0
-9 -30 29 0
-9 30 -26 -29 0
-10 -30 26 0
-10 30 -26 0
-11 -30 26 0
-11 30 -26 0
-12 -30 26 0
-12 30 -26 0
-20 -30 26 0
-20 30 -26 0
-7 -27 31 0
-7 -26 31 0
-7 -31 27 26 0
-8 -31 27 0
-8 31 -27 0
-9 -31 27 0
-9 31 -27 0
-10 -31 27 0
-10 -31 28 0
-10 31 -27 -28 0
-11 -31 27 0
-11 -31 29 0
-11 31 -27 -29 0
-12 -31 27 0
-12 31 -27 0
-20 -31 27 0
-20 31 -27 0
-7 -32 28 0
-7 32 -28 0
-8 -28 32 0
-8 -26 32 0
-8 -32 28 26 0
-9 -32 28 0
-9 32 -28 0
-10 -28 32 0
-10 -27 32 0
-10 -32 28 27 0
-11 -32 28 0
-11 32 -28 0
-12 -32 28 0
-12 -32 29 0
-12 32 -28 -29 0
-20 -32 28 0
-20 32 -28 0
-7 -33 29 0
-7 33 -29 0
-8 -33 29 0
-8 33 -29 0
-9 -29 33 0
-9 -26 33 0
-9 -33 29 26 0
-10 -33 29 0
-10 33 -29 0
-11 -29 33 0
-11 -27 33 0
-11 -33 29 27 0
-12 -29 33 0
-12 -28 33 0
-12 -33 29 28 0
-20 -33 29 0
-20 33 -29 0
-13 -34 30 0
-13 -34 31 0
-13 34 -30 -31 0
-14 -34 30 0
-14 -34 32 0
-14 34 -30 -32 0
-15 -34 30 0
-15 -34 33 0
-15 34 -30 -33 0
-16 -34 30 0
-16 34 -30 0
-17 -34 30 0
-17 34 -30 0
-18 -34 30 0
-18 34 -30 0
-21 -34 30 0
-21 34 -30 0
-13 -31 35 0
-13 -30 35 0
-13 -35 31 30 0
-14 -35 31 0
-14 35 -31 0
-15 -35 31 0
-15 35 -31 0
-16 -35 31 0
-16 -35 32 0
-16 35 -31 -32 0
-17 -35 31 0
-17 -35 33 0
-17 35 -31 -33 0
-18 -35 31 0
-18 35 -31 0
-21 -35 31 0
-21 35 -31 0
-13 -36 32 0
-13 36 -32 0
-14 -32 36 0
-14 -30 36 0
-14 -36 32 30 0
-15 -36 32 0
-15 36 -32 0
-16 -32 36 0
-16 -31 36 0
-16 -36 32 31 0
-17 -36 32 0
-17 36 -32 0
-18 -36 32 0
-18 -36 33 0
-18 36 -32 -33 0
-21 -36 32 0
-21 36 -32 0
-13 -37 33 0
-13 37 -33 0
-14 -37 33 0
-14 37 -33 0
-15 -33 37 0
-15 -30 37 0
-15 -37 33 30 0
-16 -37 33 0
-16 37 -33 0
-17 -33 37 0
-17 -31 37 0
-17 -37 33 31 0
-18 -33 37 0
-18 -32 37 0
-18 -37 33 32 0
-21 -37 33 0
-21 37 -33 0
-38 0
-1 -42 38 0
-1 -42 39 0
-1 42 -38 -39 0
-2 -42 38 0
-2 -42 40 0
-2 42 -38 -40 0
-3 -42 38 0
-3 -42 41 0
-3 42 -38 -41 0
-4 -42 38 0
-4 42 -38 0
-5 -42 38 0
-5 42 -38 0
-6 -42 38 0
-6 42 -38 0
-19 -42 38 0
-19 42 -38 0
-39 0
-1 -39 43 0
-1 -38 43 0
-1 -43 39 38 0
-2 -43 39 0
-2 43 -39 0
-3 -43 39 0
-3 43 -39 0
-4 -43 39 0
-4 -43 40 0
-4 43 -39 -40 0
-5 -43 39 0
-5 -43 41 0
-5 43 -39 -41 0
-6 -43 39 0
-6 43 -39 0
-19 -43 39 0
-19 43 -39 0
-40 0
-1 -44 40 0
-1 44 -40 0
-2 -40 44 0
-2 -38 44 0
-2 -44 40 38 0
-3 -44 40 0
-3 44 -40 0
-4 -40 44 0
-4 -39 44 0
-4 -44 40 39 0
-5 -44 40 0
-5 44 -40 0
-6 -44 40 0
-6 -44 41 0
-6 44 -40 -41 0
-19 -44 40 0
-19 44 -40 0
41 0
-1 -45 41 0
-1 45 -41 0
-2 -45 41 0
-2 45 -41 0
-3 -41 45 0
-3 -38 45 0
-3 -45 41 38 0
-4 -45 41 0
-4 45 -41 0
-5 -41 45 0
-5 -39 45 0
-5 -45 41 39 0
-6 -41 45 0
-6 -40 45 0
-6 -45 41 40 0
-19 -45 41 0
-19 45 -41 0
-7 -46 42 0
-7 -46 43 0
-7 46 -42 -43 0
-8 -46 42 0
-8 -46 44 0
-8 46 -42 -44 0
-9 -46 42 0
-9 -46 45 0
-9 46 -42 -45 0
-10 -46 42 0
-10 46 -42 0
-11 -46 42 0
-11 46 -42 0
-12 -46 42 0
-12 46 -42 0
-20 -46 42 0
-20 46 -42 0
-7 -43 47 0
-7 -42 47 0
-7 -47 43 42 0
-8 -47 43 0
-8 47 -43 0
-9 -47 43 0
-9 47 -43 0
-10 -47 43 0
-10 -47 44 0
-10 47 -43 -44 0
-11 -47 43 0
-11 -47 45 0
-11 47 -43 -45 0
-12 -47 43 0
-12 47 -43 0
-20 -47 43 0
-20 47 -43 0
-7 -48 44 0
-7 48 -44 0
-8 -44 48 0
-8 -42 48 0
-8 -48 44 42 0
-9 -48 44 0
-9 48 -44 0
-10 -44 48 0
-10 -43 48 0
-10 -48 44 43 0
-11 -48 44 0
-11 48 -44 0
-12 -48 44 0
-12 -48 45 0
-12 48 -44 -45 0
-20 -48 44 0
-20 48 -44 0
-7 -49 45 0
-7 49 -45 0
-8 -49 45 0
-8 49 -45 0
-9 -45 49 0
-9 -42 49 0
-9 -49 45 42 0
-10 -49 45 0
-10 49 -45 0
-11 -45 49 0
-11 -43 49 0
-11 -49 45 43 0
-12 -45 49 0
-12 -44 49 0
-12 -49 45 44 0
-20 -49 45 0
-20 49 -45 0
-13 -50 46 0
-13 -50 47 0
-13 50 -46 -47 0
-14 -50 46 0
-14 -50 48 0
-14 50 -46 -48 0
-15 -50 46 0
-15 -50 49 0
-15 50 -46 -49 0
-16 -50 46 0
-16 50 -46 0
-17 -50 46 0
-17 50 -46 0
-18 -50 46 0
-18 50 -46 0
-21 -50 46 0
-21 50 -46 0
-13 -47 51 0
-13 -46 51 0
-13 -51 47 46 0
-14 -51 47 0
-14 51 -47 0
-15 -51 47 0
-15 51 -47 0
-16 -51 47 0
-16 -51 48 0
-16 51 -47 -48 0
-17 -51 47 0
-17 -51 49 0
-17 51 -47 -49 0
-18 -51 47 0
-18 51 -47 0
-21 -51 47 0
-21 51 -47 0
-13 -52 48 0
-13 52 -48 0
-14 -48 52 0
-14 -46 52 0
-14 -52 48 46 0
-15 -52 48 0
-15 52 -48 0
-16 -48 52 0
-16 -47 52 0
-16 -52 48 47 0
-17 -52 48 0
-17 52 -48 0
-18 -52 48 0
-18 -52 49 0
-18 52 -48 -49 0
-21 -52 48 0
-21 52 -48 0
-13 -53 49 0
-13 53 -49 0
-14 -53 49 0
-14 53 -49 0
-15 -49 53 0
-15 -46 53 0
-15 -53 49 46 0
-16 -53 49 0
-16 53 -49 0
-17 -49 53 0
-17 -47 53 0
-17 -53 49 47 0
-18 -49 53 0
-18 -48 53 0
-18 -53 49 48 0
-21 -53 49 0
-21 53 -49 0
-54 0
-1 -58 54 0
-1 -58 55 0
-1 58 -54 -55 0
-2 -58 54 0
-2 -58 56 0
-2 58 -54 -56 0
-3 -58 54 0
-3 -58 57 0
-3 58 -54 -57 0
-4 -58 54 0
-4 58 -54 0
-5 -58 54 0
-5 58 -54 0
-6 -58 54 0
-6 58 -54 0
-19 -58 54 0
-19 58 -54 0
-55 0
-1 -55 59 0
-1 -54 59 0
-1 -59 55 54 0
-2 -59 55 0
-2 59 -55 0
-3 -59 55 0
-3 59 -55 0
-4 -59 55 0
-4 -59 56 0
-4 59 -55 -56 0
-5 -59 55 0
-5 -59 57 0
-5 59 -55 -57 0
-6 -59 55 0
-6 59 -55 0
-19 -59 55 0
-19 59 -55 0
56 0
-1 -60 56 0
-1 60 -56 0
-2 -56 60 0
-2 -54 60 0
-2 -60 56 54 0
-3 -60 56 0
-3 60 -56 0
-4 -56 60 0
-4 -55 60 0
-4 -60 56 55 0
-5 -60 56 0
-5 60 -56 0
-6 -60 56 0
-6 -60 57 0
-6 60 -56 -57 0
-19 -60 56 0
-19 60 -56 0
57 0
-1 -61 57 0
-1 61 -57 0
-2 -61 57 0
-2 61 -57 0
-3 -57 61 0
-3 -54 61 0
-3 -61 57 54 0
-4 -61 57 0
-4 61 -57 0
-5 -57 61 0
-5 -55 61 0
-5 -61 57 55 0
-6 -57 61 0
-6 -56 61 0
-6 -61 57 56 0
-19 -61 57 0
-19 61 -57 0
-7 -62 58 0
-7 -62 59 0
-7 62 -58 -59 0
-8 -62 58 0
-8 -62 60 0
-8 62 -58 -60 0
-9 -62 58 0
-9 -62 61 0
-9 62 -58 -61 0
-10 -62 58 0
-10 62 -58 0
-11 -62 58 0
-11 62 -58 0
-12 -62 58 0
-12 62 -58 0
-20 -62 58 0
-20 62 -58 0
-7 -59 63 0
-7 -58 63 0
-7 -63 59 58 0
-8 -63 59 0
-8 63 -59 0
-9 -63 59 0
-9 63 -59 0
-10 -63 59 0
-10 -63 60 0
-10 63 -59 -60 0
-11 -63 59 0
-11 -63 61 0
-11 63 -59 -61 0
-12 -63 59 0
-12 63 -59 0
-20 -63 59 0
-20 63 -59 0
-7 -64 60 0
-7 64 -60 0
-8 -60 64 0
-8 -58 64 0
-8 -64 60 58 0
-9 -64 60 0
-9 64 -60 0
-10 -60 64 0
-10 -59 64 0
-10 -64 60 59 0
-11 -64 60 0
-11 64 -60 0
-12 -64 60 0
-12 -64 61 0
-12 64 -60 -61 0
-20 -64 60 0
-20 64 -60 0
-7 -65 61 0
-7 65 -61 0
-8 -65 61 0
-8 65 -61 0
-9 -61 65 0
-9 -58 65 0
-9 -65 61 58 0
-10 -65 61 0
-10 65 -61 0
-11 -61 65 0
-11 -59 65 0
-11 -65 61 59 0
-12 -61 65 0
-12 -60 65 0
-12 -65 61 60 0
-20 -65 61 0
-20 65 -61 0
-13 -66 62 0
-13 -66 63 0
-13 66 -62 -63 0
-14 -66 62 0
-14 -66 64 0
-14 66 -62 -64 0
-15 -66 62 0
-15 -66 65 0
-15 66 -62 -65 0
-16 -66 62 0
-16 66 -62 0
-17 -66 62 0
-17 66 -62 0
-18 -66 62 0
-18 66 -62 0
-21 -66 62 0
-21 66 -62 0
-13 -63 67 0
-13 -62 67 0
-13 -67 63 62 0
-14 -67 63 0
-14 67 -63 0
-15 -67 63 0
-15 67 -63 0
-16 -67 63 0
-16 -67 64 0
-16 67 -63 -64 0
-17 -67 63 0
-17 -67 65 0
-17 67 -63 -65 0
-18 -67 63 0
-18 67 -63 0
-21 -67 63 0
-21 67 -63 0
-13 -68 64 0
-13 68 -64 0
-14 -64 68 0
-14 -62 68 0
-14 -68 64 62 0
-15 -68 64 0
-15 68 -64 0
-16 -64 68 0
-16 -63 68 0
-16 -68 64 63 0
-17 -68 64 0
-17 68 -64 0
-18 -68 64 0
-18 -68 65 0
-18 68 -64 -65 0
-21 -68 64 0
-21 68 -64 0
-13 -69 65 0
-13 69 -65 0
-14 -69 65 0
-14 69 -65 0
-15 -65 69 0
-15 -62 69 0
-15 -69 65 62 0
-16 -69 65 0
-16 69 -65 0
-17 -65 69 0
-17 -63 69 0
-17 -69 65 63 0
-18 -65 69 0
-18 -64 69 0
-18 -69 65 64 0
-21 -69 65 0
-21 69 -65 0
-70 0
-1 -74 70 0
-1 -74 71 0
-1 74 -70 -71 0
-2 -74 70 0
-2 -74 72 0
-2 74 -70 -72 0
-3 -74 70 0
-3 -74 73 0
-3 74 -70 -73 0
-4 -74 70 0
-4 74 -70 0
-5 -74 70 0
-5 74 -70 0
-6 -74 70 0
-6 74 -70 0
-19 -74 70 0
-19 74 -70 0
71 0
-1 -71 75 0
-1 -70 75 0
-1 -75 71 70 0
-2 -75 71 0
-2 75 -71 0
-3 -75 71 0
-3 75 -71 0
-4 -75 71 0
-4 -75 72 0
-4 75 -71 -72 0
-5 -75 71 0
-5 -75 73 0
-5 75 -71 -73 0
-6 -75 71 0
-6 75 -71 0
-19 -75 71 0
-19 75 -71 0
-72 0
-1 -76 72 0
-1 76 -72 0
-2 -72 76 0
-2 -70 76 0
-2 -76 72 70 0
-3 -76 72 0
-3 76 -72 0
-4 -72 76 0
-4 -71 76 0
-4 -76 72 71 0
-5 -76 72 0
-5 76 -72 0
-6 -76 72 0
-6 -76 73 0
-6 76 -72 -73 0
-19 -76 72 0
-19 76 -72 0
-73 0
-1 -77 73 0
-1 77 -73 0
-2 -77 73 0
-2 77 -73 0
-3 -73 77 0
-3 -70 77 0
-3 -77 73 70 0
-4 -77 73 0
-4 77 -73 0
-5 -73 77 0
-5 -71 77 0
-5 -77 73 71 0
-6 -73 77 0
-6 -72 77 0
-6 -77 73 72 0
-19 -77 73 0
-19 77 -73 0
-7 -78 74 0
-7 -78 75 0
-7 78 -74 -75 0
-8 -78 74 0
-8 -78 76 0
-8 78 -74 -76 0
-9 -78 74 0
-9 -78 77 0
-9 78 -74 -77 0
-10 -78 74 0
-10 78 -74 0
-11 -78 74 0
-11 78 -74 0
-12 -78 74 0
-12 78 -74 0
-20 -78 74 0
-20 78 -74 0
-7 -75 79 0
-7 -74 79 0
-7 -79 75 74 0
-8 -79 75 0
-8 79 -75 0
-9 -79 75 0
-9 79 -75 0
-10 -79 75 0
-10 -79 76 0
-10 79 -75 -76 0
-11 -79 75 0
-11 -79 77 0
-11 79 -75 -77 0
-12 -79 75 0
-12 79 -75 0
-20 -79 75 0
-20 79 -75 0
-7 -80 76 0
-7 80 -76 0
-8 -76 80 0
-8 -74 80 0
-8 -80 76 74 0
-9 -80 76 0
-9 80 -76 0
-10 -76 80 0
-10 -75 80 0
-10 -80 76 75 0
-11 -80 76 0
-11 80 -76 0
-12 -80 76 0
-12 -80 77 0
-12 80 -76 -77 0
-20 -80 76 0
-20 80 -76 0
-7 -81 77 0
-7 81 -77 0
-8 -81 77 0
-8 81 -77 0
-9 -77 81 0
-9 -74 81 0
-9 -81 77 74 0
-10 -81 77 0
-10 81 -77 0
-11 -77 81 0
-11 -75 81 0
-11 -81 77 75 0
-12 -77 81 0
-12 -76 81 0
-12 -81 77 76 0
-20 -81 77 0
-20 81 -77 0
-13 -82 78 0
-13 -82 79 0
-13 82 -78 -79 0
-14 -82 78 0
-14 -82 80 0
-14 82 -78 -80 0
-15 -82 78 0
-15 -82 81 0
-15 82 -78 -81 0
-16 -82 78 0
-16 82 -78 0
-17 -82 78 0
-17 82 -78 0
-18 -82 78 0
-18 82 -78 0
-21 -82 78 0
-21 82 -78 0
-13 -79 83 0
-13 -78 83 0
-13 -83 79 78 0
-14 -83 79 0
-14 83 -79 0
-15 -83 79 0
-15 83 -79 0
-16 -83 79 0
-16 -83 80 0
-16 83 -79 -80 0
-17 -83 79 0
-17 -83 81 0
-17 83 -79 -81 0
-18 -83 79 0
-18 83 -79 0
-21 -83 79 0
-21 83 -79 0
-13 -84 80 0
-13 84 -80 0
-14 -80 84 0
-14 -78 84 0
-14 -84 80 78 0
-15 -84 80 0
-15 84 -80 0
-16 -80 84 0
-16 -79 84 0
-16 -84 80 79 0
-17 -84 80 0
-17 84 -80 0
-18 -84 80 0
-18 -84 81 0
-18 84 -80 -81 0
-21 -84 80 0
-21 84 -80 0
-13 -85 81 0
-13 85 -81 0
-14 -85 81 0
-14 85 -81 0
-15 -81 85 0
-15 -78 85 0
-15 -85 81 78 0
-16 -85 81 0
-16 85 -81 0
-17 -81 85 0
-17 -79 85 0
-17 -85 81 79 0
-18 -81 85 0
-18 -80 85 0
-18 -85 81 80 0
-21 -85 81 0
-21 85 -81 0
-86 0
-1 -90 86 0
-1 -90 87 0
-1 90 -86 -87 0
-2 -90 86 0
-2 -90 88 0
-2 90 -86 -88 0
-3 -90 86 0
-3 -90 89 0
-3 90 -86 -89 0
-4 -90 86 0
-4 90 -86 0
-5 -90 86 0
-5 90 -86 0
-6 -90 86 0
-6 90 -86 0
-19 -90 86 0
-19 90 -86 0
87 0
-1 -87 91 0
-1 -86 91 0
-1 -91 87 86 0
-2 -91 87 0
-2 91 -87 0
-3 -91 87 0
-3 91 -87 0
-4 -91 87 0
-4 -91 88 0
-4 91 -87 -88 0
-5 -91 87 0
-5 -91 89 0
-5 91 -87 -89 0
-6 -91 87 0
-6 91 -87 0
-19 -91 87 0
-19 91 -87 0
-88 0
-1 -92 88 0
-1 92 -88 0
-2 -88 92 0
-2 -86 92 0
-2 -92 88 86 0
-3 -92 88 0
-3 92 -88 0
-4 -88 92 0
-4 -87 92 0
-4 -92 88 87 0
-5 -92 88 0
-5 92 -88 0
-6 -92 88 0
-6 -92 89 0
-6 92 -88 -89 0
-19 -92 88 0
-19 92 -88 0
89 0
-1 -93 89 0
-1 93 -89 0
-2 -93 89 0
-2 93 -89 0
-3 -89 93 0
-3 -86 93 0
-3 -93 89 86 0
-4 -93 89 0
-4 93 -89 0
-5 -89 93 0
-5 -87 93 0
-5 -93 89 87 0
-6 -89 93 0
-6 -88 93 0
-6 -93 89 88 0
-19 -93 89 0
-19 93 -89 0
-7 -94 90 0
-7 -94 91 0
-7 94 -90 -91 0
-8 -94 90 0
-8 -94 92 0
-8 94 -90 -92 0
-9 -94 90 0
-9 -94 93 0
-9 94 -90 -93 0
-10 -94 90 0
-10 94 -90 0
-11 -94 90 0
-11 94 -90 0
-12 -94 90 0
-12 94 -90 0
-20 -94 90 0
-20 94 -90 0
-7 -91 95 0
-7 -90 95 0
-7 -95 91 90 0
-8 -95 91 0
-8 95 -91 0
-9 -95 91 0
-9 95 -91 0
-10 -95 91 0
-10 -95 92 0
-10 95 -91 -92 0
-11 -95 91 0
-11 -95 93 0
-11 95 -91 -93 0
-12 -95 91 0
-12 95 -91 0
-20 -95 91 0
-20 95 -91 0
-7 -96 92 0
-7 96 -92 0
-8 -92 96 0
-8 -90 96 0
-8 -96 92 90 0
-9 -96 92 0
-9 96 -92 0
-10 -92 96 0
-10 -91 96 0
-10 -96 92 91 0
-11 -96 92 0
-11 96 -92 0
-12 -96 92 0
-12 -96 93 0
-12 96 -92 -93 0
-20 -96 92 0
-20 96 -92 0
-7 -97 93 0
-7 97 -93 0
-8 -97 93 0
-8 97 -93 0
-9 -93 97 0
-9 -90 97 0
-9 -97 93 90 0
-10 -97 93 0
-10 97 -93 0
-11 -93 97 0
-11 -91 97 0
-11 -97 93 91 0
-12 -93 97 0
-12 -92 97 0
-12 -97 93 92 0
-20 -97 93 0
-20 97 -93 0
-13 -98 94 0
-13 -98 95 0
-13 98 -94 -95 0
-14 -98 94 0
-14 -98 96 0
-14 98 -94 -96 0
-15 -98 94 0
-15 -98 97 0
-15 98 -94 -97 0
-16 -98 94 0
-16 98 -94 0
-17 -98 94 0
-17 98 -94 0
-18 -98 94 0
-18 98 -94 0
-21 -98 94 0
-21 98 -94 0
-13 -95 99 0
-13 -94 99 0
-13 -99 95 94 0
-14 -99 95 0
-14 99 -95 0
-15 -99 95 0
-15 99 -95 0
-16 -99 95 0
-16 -99 96 0
-16 99 -95 -96 0
-17 -99 95 0
-17 -99 97 0
-17 99 -95 -97 0
-18 -99 95 0
-18 99 -95 0
-21 -99 95 0
-21 99 -95 0
-13 -100 96 0
-13 100 -96 0
-14 -96 100 0
-14 -94 100 0
-14 -100 96 94 0
-15 -100 96 0
-15 100 -96 0
-16 -96 100 0
-16 -95 100 0
-16 -100 96 95 0
-17 -100 96 0
-17 100 -96 0
-18 -100 96 0
-18 -100 97 0
-18 100 -96 -97 0
-21 -100 96 0
-21 100 -96 0
-13 -101 97 0
-13 101 -97 0
-14 -101 97 0
-14 101 -97 0
-15 -97 101 0
-15 -94 101 0
-15 -101 97 94 0
-16 -101 97 0
-16 101 -97 0
-17 -97 101 0
-17 -95 101 0
-17 -101 97 95 0
-18 -97 101 0
-18 -96 101 0
-18 -101 97 96 0
-21 -101 97 0
-21 101 -97 0
-102 0
-1 -106 102 0
-1 -106 103 0
-1 106 -102 -103 0
-2 -106 102 0
-2 -106 104 0
-2 106 -102 -104 0
-3 -106 102 0
-3 -106 105 0
-3 106 -102 -105 0
-4 -106 102 0
-4 106 -102 0
-5 -106 102 0
-5 106 -102 0
-6 -106 102 0
-6 106 -102 0
-19 -106 102 0
-19 106 -102 0
103 0
-1 -103 107 0
-1 -102 107 0
-1 -107 103 102 0
-2 -107 103 0
-2 107 -103 0
-3 -107 103 0
-3 107 -103 0
-4 -107 103 0
-4 -107 104 0
-4 107 -103 -104 0
-5 -107 103 0
-5 -107 105 0
-5 107 -103 -105 0
-6 -107 103 0
-6 107 -103 0
-19 -107 103 0
-19 107 -103 0
104 0
-1 -108 104 0
-1 108 -104 0
-2 -104 108 0
-2 -102 108 0
-2 -108 104 102 0
-3 -108 104 0
-3 108 -104 0
-4 -104 108 0
-4 -103 108 0
-4 -108 104 103 0
-5 -108 104 0
-5 108 -104 0
-6 -108 104 0
-6 -108 105 0
-6 108 -104 -105 0
-19 -108 104 0
-19 108 -104 0
105 0
-1 -109 105 0
-1 109 -105 0
-2 -109 105 0
-2 109 -105 0
-3 -105 109 0
-3 -102 109 0
-3 -109 105 102 0
-4 -109 105 0
-4 109 -105 0
-5 -105 109 0
-5 -103 109 0
-5 -109 105 103 0
-6 -105 109 0
-6 -104 109 0
-6 -109 105 104 0
-19 -109 105 0
-19 109 -105 0
-7 -110 106 0
-7 -110 107 0
-7 110 -106 -107 0
-8 -110 106 0
-8 -110 108 0
-8 110 -106 -108 0
-9 -110 106 0
-9 -110 109 0
-9 110 -106 -109 0
-10 -110 106 0
-10 110 -106 0
-11 -110 106 0
-11 110 -106 0
-12 -110 106 0
-12 110 -106 0
-20 -110 106 0
-20 110 -106 0
-7 -107 111 0
-7 -106 111 0
-7 -111 107 106 0
-8 -111 107 0
-8 111 -107 0
-9 -111 107 0
-9 111 -107 0
-10 -111 107 0
-10 -111 108 0
-10 111 -107 -108 0
-11 -111 107 0
-11 -111 109 0
-11 111 -107 -109 0
-12 -111 107 0
-12 111 -107 0
-20 -111 107 0
-20 111 -107 0
-7 -112 108 0
-7 112 -108 0
-8 -108 112 0
-8 -106 112 0
-8 -112 108 106 0
-9 -112 108 0
-9 112 -108 0
-10 -108 112 0
-10 -107 112 0
-10 -112 108 107 0
-11 -112 108 0
-11 112 -108 0
-12 -112 108 0
-12 -112 109 0
-12 112 -108 -109 0
-20 -112 108 0
-20 112 -108 0
-7 -113 109 0
-7 113 -109 0
-8 -113 109 0
-8 113 -109 0
-9 -109 113 0
-9 -106 113 0
-9 -113 109 106 0
-10 -113 109 0
-10 113 -109 0
-11 -109 113 0
-11 -107 113 0
-11 -113 109 107 0
-12 -109 113 0
-12 -108 113 0
-12 -113 109 108 0
-20 -113 109 0
-20 113 -109 0
-13 -114 110 0
-13 -114 111 0
-13 114 -110 -111 0
-14 -114 110 0
-14 -114 112 0
-14 114 -110 -112 0
-15 -114 110 0
-15 -114 113 0
-15 114 -110 -113 0
-16 -114 110 0
-16 114 -110 0
-17 -114 110 0
-17 114 -110 0
-18 -114 110 0
-18 114 -110 0
-21 -114 110 0
-21 114 -110 0
-13 -111 115 0
-13 -110 115 0
-13 -115 111 110 0
-14 -115 111 0
-14 115 -111 0
-15 -115 111 0
-15 115 -111 0
-16 -115 111 0
-16 -115 112 0
-16 115 -111 -112 0
-17 -115 111 0
-17 -115 113 0
-17 115 -111 -113 0
-18 -115 111 0
-18 115 -111 0
-21 -115 111 0
-21 115 -111 0
-13 -116 112 0
-13 116 -112 0
-14 -112 116 0
-14 -110 116 0
-14 -116 112 110 0
-15 -116 112 0
-15 116 -112 0
-16 -112 116 0
-16 -111 116 0
-16 -116 112 111 0
-17 -116 112 0
-17 116 -112 0
-18 -116 112 0
-18 -116 113 0
-18 116 -112 -113 0
-21 -116 112 0
-21 116 -112 0
-13 -117 113 0
-13 117 -113 0
-14 -117 113 0
-14 117 -113 0
-15 -113 117 0
-15 -110 117 0
-15 -117 113 110 0
-16 -117 113 0
-16 117 -113 0
-17 -113 117 0
-17 -111 117 0
-17 -117 113 111 0
-18 -113 117 0
-18 -112 117 0
-18 -117 113 112 0
-21 -117 113 0
-21 117 -113 0
118 0
-1 -122 118 0
-1 -122 119 0
-1 122 -118 -119 0
-2 -122 118 0
-2 -122 120 0
-2 122 -118 -120 0
-3 -122 118 0
-3 -122 121 0
-3 122 -118 -121 0
-4 -122 118 0
-4 122 -118 0
-5 -122 118 0
-5 122 -118 0
-6 -122 118 0
-6 122 -118 0
-19 -122 118 0
-19 122 -118 0
119 0
-1 -119 123 0
-1 -118 123 0
-1 -123 119 118 0
-2 -123 119 0
-2 123 -119 0
-3 -123 119 0
-3 123 -119 0
-4 -123 119 0
-4 -123 120 0
-4 123 -119 -120 0
-5 -123 119 0
-5 -123 121 0
-5 123 -119 -121 0
-6 -123 119 0
-6 123 -119 0
-19 -123 119 0
-19 123 -119 0
-120 0
-1 -124 120 0
-1 124 -120 0
-2 -120 124 0
-2 -118 124 0
-2 -124 120 118 0
-3 -124 120 0
-3 124 -120 0
-4 -120 124 0
-4 -119 124 0
-4 -124 120 119 0
-5 -124 120 0
-5 124 -120 0
-6 -124 120 0
-6 -124 121 0
-6 124 -120 -121 0
-19 -124 120 0
-19 124 -120 0
-121 0
-1 -125 121 0
-1 125 -121 0
-2 -125 121 0
-2 125 -121 0
-3 -121 125 0
-3 -118 125 0
-3 -125 121 118 0
-4 -125 121 0
-4 125 -121 0
-5 -121 125 0
-5 -119 125 0
-5 -125 121 119 0
-6 -121 125 0
-6 -120 125 0
-6 -125 121 120 0
-19 -125 121 0
-19 125 -121 0
-7 -126 122 0
-7 -126 123 0
-7 126 -122 -123 0
-8 -126 122 0
-8 -126 124 0
-8 126 -122 -124 0
-9 -126 122 0
-9 -126 125 0
-9 126 -122 -125 0
-10 -126 122 0
-10 126 -122 0
-11 -126 122 0
-11 126 -122 0
-12 -126 122 0
-12 126 -122 0
-20 -126 122 0
-20 126 -122 0
-7 -123 127 0
-7 -122 127 0
-7 -127 123 122 0
-8 -127 123 0
-8 127 -123 0
-9 -127 123 0
-9 127 -123 0
-10 -127 123 0
-10 -127 124 0
-10 127 -123 -124 0
-11 -127 123 0
-11 -127 125 0
-11 127 -123 -125 0
-12 -127 123 0
-12 127 -123 0
-20 -127 123 0
-20 127 -123 0
-7 -128 124 0
-7 128 -124 0
-8 -124 128 0
-8 -122 128 0
-8 -128 124 122 0
-9 -128 124 0
-9 128 -124 0
-10 -124 128 0
-10 -123 128 0
-10 -128 124 123 0
-11 -128 124 0
-11 128 -124 0
-12 -128 124 0
-12 -128 125 0
-12 128 -124 -125 0
-20 -128 124 0
-20 128 -124 0
-7 -129 125 0
-7 129 -125 0
-8 -129 125 0
-8 129 -125 0
-9 -125 129 0
-9 -122 129 0
-9 -129 125 122 0
-10 -129 125 0
-10 129 -125 0
-11 -125 129 0
-11 -123 129 0
-11 -129 125 123 0
-12 -125 129 0
-12 -124 129 0
-12 -129 125 124 0
-20 -129 125 0
-20 129 -125 0
-13 -130 126 0
-13 -130 127 0
-13 130 -126 -127 0
-14 -130 126 0
-14 -130 128 0
-14 130 -126 -128 0
-15 -130 126 0
-15 -130 129 0
-15 130 -126 -129 0
-16 -130 126 0
-16 130 -126 0
-17 -130 126 0
-17 130 -126 0
-18 -130 126 0
-18 130 -126 0
-21 -130 126 0
-21 130 -126 0
-13 -127 131 0
-13 -126 131 0
-13 -131 127 126 0
-14 -131 127 0
-14 131 -127 0
-15 -131 127 0
-15 131 -127 0
-16 -131 127 0
-16 -131 128 0
-16 131 -127 -128 0
-17 -131 127 0
-17 -131 129 0
-17 131 -127 -129 0
-18 -131 127 0
-18 131 -127 0
-21 -131 127 0
-21 131 -127 0
-13 -132 128 0
-13 132 -128 0
-14 -128 132 0
-14 -126 132 0
-14 -132 128 126 0
-15 -132 128 0
-15 132 -128 0
-16 -128 132 0
-16 -127 132 0
-16 -132 128 127 0
-17 -132 128 0
-17 132 -128 0
-18 -132 128 0
-18 -132 129 0
-18 132 -128 -129 0
-21 -132 128 0
-21 132 -128 0
-13 -133 129 0
-13 133 -129 0
-14 -133 129 0
-14 133 -129 0
-15 -129 133 0
-15 -126 133 0
-15 -133 129 126 0
-16 -133 129 0
-16 133 -129 0
-17 -129 133 0
-17 -127 133 0
-17 -133 129 127 0
-18 -129 133 0
-18 -128 133 0
-18 -133 129 128 0
-21 -133 129 0
-21 133 -129 0
134 0
-1 -138 134 0
-1 -138 135 0
-1 138 -134 -135 0
-2 -138 134 0
-2 -138 136 0
-2 138 -134 -136 0
-3 -138 134 0
-3 -138 137 0
-3 138 -134 -137 0
-4 -138 134 0
-4 138 -134 0
-5 -138 134 0
-5 138 -134 0
-6 -138 134 0
-6 138 -134 0
-19 -138 134 0
-19 138 -134 0
135 0
-1 -135 139 0
-1 -134 139 0
-1 -139 135 134 0
-2 -139 135 0
-2 139 -135 0
-3 -139 135 0
-3 139 -135 0
-4 -139 135 0
-4 -139 136 0
-4 139 -135 -136 0
-5 -139 135 0
-5 -139 137 0
-5 139 -135 -137 0
-6 -139 135 0
-6 139 -135 0
-19 -139 135 0
-19 139 -135 0
-136 0
-1 -140 136 0
-1 140 -136 0
-2 -136 140 0
-2 -134 140 0
-2 -140 136 134 0
-3 -140 136 0
-3 140 -136 0
-4 -136 140 0
-4 -135 140 0
-4 -140 136 135 0
-5 -140 136 0
-5 140 -136 0
-6 -140 136 0
-6 -140 137 0
-6 140 -136 -137 0
-19 -140 136 0
-19 140 -136 0
137 0
-1 -141 137 0
-1 141 -137 0
-2 -141 137 0
-2 141 -137 0
-3 -137 141 0
-3 -134 141 0
-3 -141 137 134 0
-4 -141 137 0
-4 141 -137 0
-5 -137 141 0
-5 -135 141 0
-5 -141 137 135 0
-6 -137 141 0
-6 -136 141 0
-6 -141 137 136 0
-19 -141 137 0
-19 141 -137 0
-7 -142 138 0
-7 -142 139 0
-7 142 -138 -139 0
-8 -142 138 0
-8 -142 140 0
-8 142 -138 -140 0
-9 -142 138 0
-9 -142 141 0
-9 142 -138 -141 0
-10 -142 138 0
-10 142 -138 0
-11 -142 138 0
-11 142 -138 0
-12 -142 138 0
-12 142 -138 0
-20 -142 138 0
-20 142 -138 0
-7 -139 143 0
-7 -138 143 0
-7 -143 139 138 0
-8 -143 139 0
-8 143 -139 0
-9 -143 139 0
-9 143 -139 0
-10 -143 139 0
-10 -143 140 0
-10 143 -139 -140 0
-11 -143 139 0
-11 -143 141 0
-11 143 -139 -141 0
-12 -143 139 0
-12 143 -139 0
-20 -143 139 0
-20 143 -139 0
-7 -144 140 0
-7 144 -140 0
-8 -140 144 0
-8 -138 144 0
-8 -144 140 138 0
-9 -144 140 0
-9 144 -140 0
-10 -140 144 0
-10 -139 144 0
-10 -144 140 139 0
-11 -144 140 0
-11 144 -140 0
-12 -144 140 0
-12 -144 141 0
-12 144 -140 -141 0
-20 -144 140 0
-20 144 -140 0
-7 -145 141 0
-7 145 -141 0
-8 -145 141 0
-8 145 -141 0
-9 -141 145 0
-9 -138 145 0
-9 -145 141 138 0
-10 -145 141 0
-10 145 -141 0
-11 -141 145 0
-11 -139 145 0
-11 -145 141 139 0
-12 -141 145 0
-12 -140 145 0
-12 -145 141 140 0
-20 -145 141 0
-20 145 -141 0
-13 -146 142 0
-13 -146 143 0
-13 146 -142 -143 0
-14 -146 142 0
-14 -146 144 0
-14 146 -142 -144 0
-15 -146 142 0
-15 -146 145 0
-15 146 -142 -145 0
-16 -146 142 0
-16 146 -142 0
-17 -146 142 0
-17 146 -142 0
-18 -146 142 0
-18 146 -142 0
-21 -146 142 0
-21 146 -142 0
-13 -143 147 0
-13 -142 147 0
-13 -147 143 142 0
-14 -147 143 0
-14 147 -143 0
-15 -147 143 0
-15 147 -143 0
-16 -147 143 0
-16 -147 144 0
-16 147 -143 -144 0
-17 -147 143 0
-17 -147 145 0
-17 147 -143 -145 0
-18 -147 143 0
-18 147 -143 0
-21 -147 143 0
-21 147 -143 0
-13 -148 144 0
-13 148 -144 0
-14 -144 148 0
-14 -142 148 0
-14 -148 144 142 0
-15 -148 144 0
-15 148 -144 0
-16 -144 148 0
-16 -143 148 0
-16 -148 144 143 0
-17 -148 144 0
-17 148 -144 0
-18 -148 144 0
-18 -148 145 0
-18 148 -144 -145 0
-21 -148 144 0
-21 148 -144 0
-13 -149 145 0
-13 149 -145 0
-14 -149 145 0
-14 149 -145 0
-15 -145 149 0
-15 -142 149 0
-15 -149 145 142 0
-16 -149 145 0
-16 149 -145 0
-17 -145 149 0
-17 -143 149 0
-17 -149 145 143 0
-18 -145 149 0
-18 -144 149 0
-18 -149 145 144 0
-21 -149 145 0
-21 149 -145 0
150 0
-1 -154 150 0
-1 -154 151 0
-1 154 -150 -151 0
-2 -154 150 0
-2 -154 152 0
-2 154 -150 -152 0
-3 -154 150 0
-3 -154 153 0
-3 154 -150 -153 0
-4 -154 150 0
-4 154 -150 0
-5 -154 150 0
-5 154 -150 0
-6 -154 150 0
-6 154 -150 0
-19 -154 150 0
-19 154 -150 0
151 0
-1 -151 155 0
-1 -150 155 0
-1 -155 151 150 0
-2 -155 151 0
-2 155 -151 0
-3 -155 151 0
-3 155 -151 0
-4 -155 151 0
-4 -155 152 0
-4 155 -151 -152 0
-5 -155 151 0
-5 -155 153 0
-5 155 -151 -153 0
-6 -155 151 0
-6 155 -151 0
-19 -155 151 0
-19 155 -151 0
152 0
-1 -156 152 0
-1 156 -152 0
-2 -152 156 0
-2 -150 156 0
-2 -156 152 150 0
-3 -156 152 0
-3 156 -152 0
-4 -152 156 0
-4 -151 156 0
-4 -156 152 151 0
-5 -156 152 0
-5 156 -152 0
-6 -156 152 0
-6 -156 153 0
-6 156 -152 -153 0
-19 -156 152 0
-19 156 -152 0
153 0
-1 -157 153 0
-1 157 -153 0
-2 -157 153 0
-2 157 -153 0
-3 -153 157 0
-3 -150 157 0
-3 -157 153 150 0
-4 -157 153 0
-4 157 -153 0
-5 -153 157 0
-5 -151 157 0
-5 -157 153 151 0
-6 -153 157 0
-6 -152 157 0
-6 -157 153 152 0
-19 -157 153 0
-19 157 -153 0
-7 -158 154 0
-7 -158 155 0
-7 158 -154 -155 0
-8 -158 154 0
-8 -158 156 0
-8 158 -154 -156 0
-9 -158 154 0
-9 -158 157 0
-9 158 -154 -157 0
-10 -158 154 0
-10 158 -154 0
-11 -158 154 0
-11 158 -154 0
-12 -158 154 0
-12 158 -154 0
-20 -158 154 0
-20 158 -154 0
-7 -155 159 0
-7 -154 159 0
-7 -159 155 154 0
-8 -159 155 0
-8 159 -155 0
-9 -159 155 0
-9 159 -155 0
-10 -159 155 0
-10 -159 156 0
-10 159 -155 -156 0
-11 -159 155 0
-11 -159 157 0
-11 159 -155 -157 0
-12 -159 155 0
-12 159 -155 0
-20 -159 155 0
-20 159 -155 0
-7 -160 156 0
-7 160 -156 0
-8 -156 160 0
-8 -154 160 0
-8 -160 156 154 0
-9 -160 156 0
-9 160 -156 0
-10 -156 160 0
-10 -155 160 0
-10 -160 156 155 0
-11 -160 156 0
-11 160 -156 0
-12 -160 156 0
-12 -160 157 0
-12 160 -156 -157 0
-20 -160 156 0
-20 160 -156 0
-7 -161 157 0
-7 161 -157 0
-8 -161 157 0
-8 161 -157 0
-9 -157 161 0
-9 -154 161 0
-9 -161 157 154 0
-10 -161 157 0
-10 161 -157 0
-11 -157 161 0
-11 -155 161 0
-11 -161 157 155 0
-12 -157 161 0
-12 -156 161 0
-12 -161 157 156 0
-20 -161 157 0
-20 161 -157 0
-13 -162 158 0
-13 -162 159 0
-13 162 -158 -159 0
-14 -162 158 0
-14 -162 160 0
-14 162 -158 -160 0
-15 -162 158 0
-15 -162 161 0
-15 162 -158 -161 0
-16 -162 158 0
-16 162 -158 0
-17 -162 158 0
-17 162 -158 0
-18 -162 158 0
-18 162 -158 0
-21 -162 158 0
-21 162 -158 0
-13 -159 163 0
-13 -158 163 0
-13 -163 159 158 0
-14 -163 159 0
-14 163 -159 0
-15 -163 159 0
-15 163 -159 0
-16 -163 159 0
-16 -163 160 0
-16 163 -159 -160 0
-17 -163 159 0
-17 -163 161 0
-17 163 -159 -161 0
-18 -163 159 0
-18 163 -159 0
-21 -163 159 0
-21 163 -159 0
-13 -164 160 0
-13 164 -160 0
-14 -160 164 0
-14 -158 164 0
-14 -164 160 158 0
-15 -164 160 0
-15 164 -160 0
-16 -160 164 0
-16 -159 164 0
-16 -164 160 159 0
-17 -164 160 0
-17 164 -160 0
-18 -164 160 0
-18 -164 161 0
-18 164 -160 -161 0
-21 -164 160 0
-21 164 -160 0
-13 -165 161 0
-13 165 -161 0
-14 -165 161 0
-14 165 -161 0
-15 -161 165 0
-15 -158 165 0
-15 -165 161 158 0
-16 -165 161 0
-16 165 -161 0
-17 -161 165 0
-17 -159 165 0
-17 -165 161 159 0
-18 -161 165 0
-18 -160 165 0
-18 -165 161 160 0
-21 -165 161 0
-21 165 -161 0
-34 35 0
-35 36 0
-36 37 0
-50 51 0
-51 52 0
-52 53 0
-66 67 0
-67 68 0
-68 69 0
-82 83 0
-83 84 0
-84 85 0
-98 99 0
-99 100 0
-100 101 0
-114 115 0
-115 116 0
-116 117 0
-130 131 0
-131 132 0
-132 133 0
-146 147 0
-147 148 0
-148 149 0
-162 163 0
-163 164 0
-164 165 0
