p cnf 656 18781
1 2 3 4 5 6 7 8 9 10 11 12 13 14 15 76 0
-1 -2 0
-1 -3 0
-1 -4 0
-1 -5 0
-1 -6 0
-1 -7 0
-1 -8 0
-1 -9 0
-1 -10 0
-1 -11 0
-1 -12 0
-1 -13 0
-1 -14 0
-1 -15 0
-1 -76 0
-2 -3 0
-2 -4 0
-2 -5 0
-2 -6 0
-2 -7 0
-2 -8 0
-2 -9 0
-2 -10 0
-2 -11 0
-2 -12 0
-2 -13 0
-2 -14 0
-2 -15 0
-2 -76 0
-3 -4 0
-3 -5 0
-3 -6 0
-3 -7 0
-3 -8 0
-3 -9 0
-3 -10 0
-3 -11 0
-3 -12 0
-3 -13 0
-3 -14 0
-3 -15 0
-3 -76 0
-4 -5 0
-4 -6 0
-4 -7 0
-4 -8 0
-4 -9 0
-4 -10 0
-4 -11 0
-4 -12 0
-4 -13 0
-4 -14 0
-4 -15 0
-4 -76 0
-5 -6 0
-5 -7 0
-5 -8 0
-5 -9 0
-5 -10 0
-5 -11 0
-5 -12 0
-5 -13 0
-5 -14 0
-5 -15 0
-5 -76 0
-6 -7 0
-6 -8 0
-6 -9 0
-6 -10 0
-6 -11 0
-6 -12 0
-6 -13 0
-6 -14 0
-6 -15 0
-6 -76 0
-7 -8 0
-7 -9 0
-7 -10 0
-7 -11 0
-7 -12 0
-7 -13 0
-7 -14 0
-7 -15 0
-7 -76 0
-8 -9 0
-8 -10 0
-8 -11 0
-8 -12 0
-8 -13 0
-8 -14 0
-8 -15 0
-8 -76 0
-9 -10 0
-9 -11 0
-9 -12 0
-9 -13 0
-9 -14 0
-9 -15 0
-9 -76 0
-10 -11 0
-10 -12 0
-10 -13 0
-10 -14 0
-10 -15 0
-10 -76 0
-11 -12 0
-11 -13 0
-11 -14 0
-11 -15 0
-11 -76 0
-12 -13 0
-12 -14 0
-12 -15 0
-12 -76 0
-13 -14 0
-13 -15 0
-13 -76 0
-14 -15 0
-14 -76 0
-15 -76 0
16 17 18 19 20 21 22 23 24 25 26 27 28 29 30 77 0
-16 -17 0
-16 -18 0
-16 -19 0
-16 -20 0
-16 -21 0
-16 -22 0
-16 -23 0
-16 -24 0
-16 -25 0
-16 -26 0
-16 -27 0
-16 -28 0
-16 -29 0
-16 -30 0
-16 -77 0
-17 -18 0
-17 -19 0
-17 -20 0
-17 -21 0
-17 -22 0
-17 -23 0
-17 -24 0
-17 -25 0
-17 -26 0
-17 -27 0
-17 -28 0
-17 -29 0
-17 -30 0
-17 -77 0
-18 -19 0
-18 -20 0
-18 -21 0
-18 -22 0
-18 -23 0
-18 -24 0
-18 -25 0
-18 -26 0
-18 -27 0
-18 -28 0
-18 -29 0
-18 -30 0
-18 -77 0
-19 -20 0
-19 -21 0
-19 -22 0
-19 -23 0
-19 -24 0
-19 -25 0
-19 -26 0
-19 -27 0
-19 -28 0
-19 -29 0
-19 -30 0
-19 -77 0
-20 -21 0
-20 -22 0
-20 -23 0
-20 -24 0
-20 -25 0
-20 -26 0
-20 -27 0
-20 -28 0
-20 -29 0
-20 -30 0
-20 -77 0
-21 -22 0
-21 -23 0
-21 -24 0
-21 -25 0
-21 -26 0
-21 -27 0
-21 -28 0
-21 -29 0
-21 -30 0
-21 -77 0
-22 -23 0
-22 -24 0
-22 -25 0
-22 -26 0
-22 -27 0
-22 -28 0
-22 -29 0
-22 -30 0
-22 -77 0
-23 -24 0
-23 -25 0
-23 -26 0
-23 -27 0
-23 -28 0
-23 -29 0
-23 -30 0
-23 -77 0
-24 -25 0
-24 -26 0
-24 -27 0
-24 -28 0
-24 -29 0
-24 -30 0
-24 -77 0
-25 -26 0
-25 -27 0
-25 -28 0
-25 -29 0
-25 -30 0
-25 -77 0
-26 -27 0
-26 -28 0
-26 -29 0
-26 -30 0
-26 -77 0
-27 -28 0
-27 -29 0
-27 -30 0
-27 -77 0
-28 -29 0
-28 -30 0
-28 -77 0
-29 -30 0
-29 -77 0
-30 -77 0
31 32 33 34 35 36 37 38 39 40 41 42 43 44 45 78 0
-31 -32 0
-31 -33 0
-31 -34 0
-31 -35 0
-31 -36 0
-31 -37 0
-31 -38 0
-31 -39 0
-31 -40 0
-31 -41 0
-31 -42 0
-31 -43 0
-31 -44 0
-31 -45 0
-31 -78 0
-32 -33 0
-32 -34 0
-32 -35 0
-32 -36 0
-32 -37 0
-32 -38 0
-32 -39 0
-32 -40 0
-32 -41 0
-32 -42 0
-32 -43 0
-32 -44 0
-32 -45 0
-32 -78 0
-33 -34 0
-33 -35 0
-33 -36 0
-33 -37 0
-33 -38 0
-33 -39 0
-33 -40 0
-33 -41 0
-33 -42 0
-33 -43 0
-33 -44 0
-33 -45 0
-33 -78 0
-34 -35 0
-34 -36 0
-34 -37 0
-34 -38 0
-34 -39 0
-34 -40 0
-34 -41 0
-34 -42 0
-34 -43 0
-34 -44 0
-34 -45 0
-34 -78 0
-35 -36 0
-35 -37 0
-35 -38 0
-35 -39 0
-35 -40 0
-35 -41 0
-35 -42 0
-35 -43 0
-35 -44 0
-35 -45 0
-35 -78 0
-36 -37 0
-36 -38 0
-36 -39 0
-36 -40 0
-36 -41 0
-36 -42 0
-36 -43 0
-36 -44 0
-36 -45 0
-36 -78 0
-37 -38 0
-37 -39 0
-37 -40 0
-37 -41 0
-37 -42 0
-37 -43 0
-37 -44 0
-37 -45 0
-37 -78 0
-38 -39 0
-38 -40 0
-38 -41 0
-38 -42 0
-38 -43 0
-38 -44 0
-38 -45 0
-38 -78 0
-39 -40 0
-39 -41 0
-39 -42 0
-39 -43 0
-39 -44 0
-39 -45 0
-39 -78 0
-40 -41 0
-40 -42 0
-40 -43 0
-40 -44 0
-40 -45 0
-40 -78 0
-41 -42 0
-41 -43 0
-41 -44 0
-41 -45 0
-41 -78 0
-42 -43 0
-42 -44 0
-42 -45 0
-42 -78 0
-43 -44 0
-43 -45 0
-43 -78 0
-44 -45 0
-44 -78 0
-45 -78 0
46 47 48 49 50 51 52 53 54 55 56 57 58 59 60 79 0
-46 -47 0
-46 -48 0
-46 -49 0
-46 -50 0
-46 -51 0
-46 -52 0
-46 -53 0
-46 -54 0
-46 -55 0
-46 -56 0
-46 -57 0
-46 -58 0
-46 -59 0
-46 -60 0
-46 -79 0
-47 -48 0
-47 -49 0
-47 -50 0
-47 -51 0
-47 -52 0
-47 -53 0
-47 -54 0
-47 -55 0
-47 -56 0
-47 -57 0
-47 -58 0
-47 -59 0
-47 -60 0
-47 -79 0
-48 -49 0
-48 -50 0
-48 -51 0
-48 -52 0
-48 -53 0
-48 -54 0
-48 -55 0
-48 -56 0
-48 -57 0
-48 -58 0
-48 -59 0
-48 -60 0
-48 -79 0
-49 -50 0
-49 -51 0
-49 -52 0
-49 -53 0
-49 -54 0
-49 -55 0
-49 -56 0
-49 -57 0
-49 -58 0
-49 -59 0
-49 -60 0
-49 -79 0
-50 -51 0
-50 -52 0
-50 -53 0
-50 -54 0
-50 -55 0
-50 -56 0
-50 -57 0
-50 -58 0
-50 -59 0
-50 -60 0
-50 -79 0
-51 -52 0
-51 -53 0
-51 -54 0
-51 -55 0
-51 -56 0
-51 -57 0
-51 -58 0
-51 -59 0
-51 -60 0
-51 -79 0
-52 -53 0
-52 -54 0
-52 -55 0
-52 -56 0
-52 -57 0
-52 -58 0
-52 -59 0
-52 -60 0
-52 -79 0
-53 -54 0
-53 -55 0
-53 -56 0
-53 -57 0
-53 -58 0
-53 -59 0
-53 -60 0
-53 -79 0
-54 -55 0
-54 -56 0
-54 -57 0
-54 -58 0
-54 -59 0
-54 -60 0
-54 -79 0
-55 -56 0
-55 -57 0
-55 -58 0
-55 -59 0
-55 -60 0
-55 -79 0
-56 -57 0
-56 -58 0
-56 -59 0
-56 -60 0
-56 -79 0
-57 -58 0
-57 -59 0
-57 -60 0
-57 -79 0
-58 -59 0
-58 -60 0
-58 -79 0
-59 -60 0
-59 -79 0
-60 -79 0
61 62 63 64 65 66 67 68 69 70 71 72 73 74 75 80 0
-61 -62 0
-61 -63 0
-61 -64 0
-61 -65 0
-61 -66 0
-61 -67 0
-61 -68 0
-61 -69 0
-61 -70 0
-61 -71 0
-61 -72 0
-61 -73 0
-61 -74 0
-61 -75 0
-61 -80 0
-62 -63 0
-62 -64 0
-62 -65 0
-62 -66 0
-62 -67 0
-62 -68 0
-62 -69 0
-62 -70 0
-62 -71 0
-62 -72 0
-62 -73 0
-62 -74 0
-62 -75 0
-62 -80 0
-63 -64 0
-63 -65 0
-63 -66 0
-63 -67 0
-63 -68 0
-63 -69 0
-63 -70 0
-63 -71 0
-63 -72 0
-63 -73 0
-63 -74 0
-63 -75 0
-63 -80 0
-64 -65 0
-64 -66 0
-64 -67 0
-64 -68 0
-64 -69 0
-64 -70 0
-64 -71 0
-64 -72 0
-64 -73 0
-64 -74 0
-64 -75 0
-64 -80 0
-65 -66 0
-65 -67 0
-65 -68 0
-65 -69 0
-65 -70 0
-65 -71 0
-65 -72 0
-65 -73 0
-65 -74 0
-65 -75 0
-65 -80 0
-66 -67 0
-66 -68 0
-66 -69 0
-66 -70 0
-66 -71 0
-66 -72 0
-66 -73 0
-66 -74 0
-66 -75 0
-66 -80 0
-67 -68 0
-67 -69 0
-67 -70 0
-67 -71 0
-67 -72 0
-67 -73 0
-67 -74 0
-67 -75 0
-67 -80 0
-68 -69 0
-68 -70 0
-68 -71 0
-68 -72 0
-68 -73 0
-68 -74 0
-68 -75 0
-68 -80 0
-69 -70 0
-69 -71 0
-69 -72 0
-69 -73 0
-69 -74 0
-69 -75 0
-69 -80 0
-70 -71 0
-70 -72 0
-70 -73 0
-70 -74 0
-70 -75 0
-70 -80 0
-71 -72 0
-71 -73 0
-71 -74 0
-71 -75 0
-71 -80 0
-72 -73 0
-72 -74 0
-72 -75 0
-72 -80 0
-73 -74 0
-73 -75 0
-73 -80 0
-74 -75 0
-74 -80 0
-75 -80 0
-1 -16 0
-2 -17 0
-3 -18 0
-4 -19 0
-5 -20 0
-6 -21 0
-7 -22 0
-8 -23 0
-9 -24 0
-10 -25 0
-11 -26 0
-12 -27 0
-13 -28 0
-14 -29 0
-15 -30 0
-16 -31 0
-17 -32 0
-18 -33 0
-19 -34 0
-20 -35 0
-21 -36 0
-22 -37 0
-23 -38 0
-24 -39 0
-25 -40 0
-26 -41 0
-27 -42 0
-28 -43 0
-29 -44 0
-30 -45 0
-31 -46 0
-32 -47 0
-33 -48 0
-34 -49 0
-35 -50 0
-36 -51 0
-37 -52 0
-38 -53 0
-39 -54 0
-40 -55 0
-41 -56 0
-42 -57 0
-43 -58 0
-44 -59 0
-45 -60 0
-46 -61 0
-47 -62 0
-48 -63 0
-49 -64 0
-50 -65 0
-51 -66 0
-52 -67 0
-53 -68 0
-54 -69 0
-55 -70 0
-56 -71 0
-57 -72 0
-58 -73 0
-59 -74 0
-60 -75 0
-6 -18 0
-6 -19 0
-6 -20 0
-7 -17 0
-7 -19 0
-7 -20 0
-8 -17 0
-8 -18 0
-8 -20 0
-9 -17 0
-9 -18 0
-9 -19 0
-10 -16 0
-10 -19 0
-10 -20 0
-10 -23 0
-10 -24 0
-11 -16 0
-11 -18 0
-11 -20 0
-11 -22 0
-11 -24 0
-12 -16 0
-12 -18 0
-12 -19 0
-12 -22 0
-12 -23 0
-13 -16 0
-13 -17 0
-13 -20 0
-13 -21 0
-13 -24 0
-13 -27 0
-14 -16 0
-14 -17 0
-14 -19 0
-14 -21 0
-14 -23 0
-14 -26 0
-15 -16 0
-15 -17 0
-15 -18 0
-15 -21 0
-15 -22 0
-15 -25 0
-21 -33 0
-21 -34 0
-21 -35 0
-22 -32 0
-22 -34 0
-22 -35 0
-23 -32 0
-23 -33 0
-23 -35 0
-24 -32 0
-24 -33 0
-24 -34 0
-25 -31 0
-25 -34 0
-25 -35 0
-25 -38 0
-25 -39 0
-26 -31 0
-26 -33 0
-26 -35 0
-26 -37 0
-26 -39 0
-27 -31 0
-27 -33 0
-27 -34 0
-27 -37 0
-27 -38 0
-28 -31 0
-28 -32 0
-28 -35 0
-28 -36 0
-28 -39 0
-28 -42 0
-29 -31 0
-29 -32 0
-29 -34 0
-29 -36 0
-29 -38 0
-29 -41 0
-30 -31 0
-30 -32 0
-30 -33 0
-30 -36 0
-30 -37 0
-30 -40 0
-36 -48 0
-36 -49 0
-36 -50 0
-37 -47 0
-37 -49 0
-37 -50 0
-38 -47 0
-38 -48 0
-38 -50 0
-39 -47 0
-39 -48 0
-39 -49 0
-40 -46 0
-40 -49 0
-40 -50 0
-40 -53 0
-40 -54 0
-41 -46 0
-41 -48 0
-41 -50 0
-41 -52 0
-41 -54 0
-42 -46 0
-42 -48 0
-42 -49 0
-42 -52 0
-42 -53 0
-43 -46 0
-43 -47 0
-43 -50 0
-43 -51 0
-43 -54 0
-43 -57 0
-44 -46 0
-44 -47 0
-44 -49 0
-44 -51 0
-44 -53 0
-44 -56 0
-45 -46 0
-45 -47 0
-45 -48 0
-45 -51 0
-45 -52 0
-45 -55 0
-51 -63 0
-51 -64 0
-51 -65 0
-52 -62 0
-52 -64 0
-52 -65 0
-53 -62 0
-53 -63 0
-53 -65 0
-54 -62 0
-54 -63 0
-54 -64 0
-55 -61 0
-55 -64 0
-55 -65 0
-55 -68 0
-55 -69 0
-56 -61 0
-56 -63 0
-56 -65 0
-56 -67 0
-56 -69 0
-57 -61 0
-57 -63 0
-57 -64 0
-57 -67 0
-57 -68 0
-58 -61 0
-58 -62 0
-58 -65 0
-58 -66 0
-58 -69 0
-58 -72 0
-59 -61 0
-59 -62 0
-59 -64 0
-59 -66 0
-59 -68 0
-59 -71 0
-60 -61 0
-60 -62 0
-60 -63 0
-60 -66 0
-60 -67 0
-60 -70 0
-81 0
-1 -87 81 0
-1 -87 82 0
-1 87 -81 -82 0
-2 -87 81 0
-2 -87 83 0
-2 87 -81 -83 0
-3 -87 81 0
-3 -87 84 0
-3 87 -81 -84 0
-4 -87 81 0
-4 -87 85 0
-4 87 -81 -85 0
-5 -87 81 0
-5 -87 86 0
-5 87 -81 -86 0
-6 -87 81 0
-6 87 -81 0
-7 -87 81 0
-7 87 -81 0
-8 -87 81 0
-8 87 -81 0
-9 -87 81 0
-9 87 -81 0
-10 -87 81 0
-10 87 -81 0
-11 -87 81 0
-11 87 -81 0
-12 -87 81 0
-12 87 -81 0
-13 -87 81 0
-13 87 -81 0
-14 -87 81 0
-14 87 -81 0
-15 -87 81 0
-15 87 -81 0
-76 -87 81 0
-76 87 -81 0
-82 0
-1 -82 88 0
-1 -81 88 0
-1 -88 82 81 0
-2 -88 82 0
-2 88 -82 0
-3 -88 82 0
-3 88 -82 0
-4 -88 82 0
-4 88 -82 0
-5 -88 82 0
-5 88 -82 0
-6 -88 82 0
-6 -88 83 0
-6 88 -82 -83 0
-7 -88 82 0
-7 -88 84 0
-7 88 -82 -84 0
-8 -88 82 0
-8 -88 85 0
-8 88 -82 -85 0
-9 -88 82 0
-9 -88 86 0
-9 88 -82 -86 0
-10 -88 82 0
-10 88 -82 0
-11 -88 82 0
-11 88 -82 0
-12 -88 82 0
-12 88 -82 0
-13 -88 82 0
-13 88 -82 0
-14 -88 82 0
-14 88 -82 0
-15 -88 82 0
-15 88 -82 0
-76 -88 82 0
-76 88 -82 0
-83 0
-1 -89 83 0
-1 89 -83 0
-2 -83 89 0
-2 -81 89 0
-2 -89 83 81 0
-3 -89 83 0
-3 89 -83 0
-4 -89 83 0
-4 89 -83 0
-5 -89 83 0
-5 89 -83 0
-6 -83 89 0
-6 -82 89 0
-6 -89 83 82 0
-7 -89 83 0
-7 89 -83 0
-8 -89 83 0
-8 89 -83 0
-9 -89 83 0
-9 89 -83 0
-10 -89 83 0
-10 -89 84 0
-10 89 -83 -84 0
-11 -89 83 0
-11 -89 85 0
-11 89 -83 -85 0
-12 -89 83 0
-12 -89 86 0
-12 89 -83 -86 0
-13 -89 83 0
-13 89 -83 0
-14 -89 83 0
-14 89 -83 0
-15 -89 83 0
-15 89 -83 0
-76 -89 83 0
-76 89 -83 0
-84 0
-1 -90 84 0
-1 90 -84 0
-2 -90 84 0
-2 90 -84 0
-3 -84 90 0
-3 -81 90 0
-3 -90 84 81 0
-4 -90 84 0
-4 90 -84 0
-5 -90 84 0
-5 90 -84 0
-6 -90 84 0
-6 90 -84 0
-7 -84 90 0
-7 -82 90 0
-7 -90 84 82 0
-8 -90 84 0
-8 90 -84 0
-9 -90 84 0
-9 90 -84 0
-10 -84 90 0
-10 -83 90 0
-10 -90 84 83 0
-11 -90 84 0
-11 90 -84 0
-12 -90 84 0
-12 90 -84 0
-13 -90 84 0
-13 -90 85 0
-13 90 -84 -85 0
-14 -90 84 0
-14 -90 86 0
-14 90 -84 -86 0
-15 -90 84 0
-15 90 -84 0
-76 -90 84 0
-76 90 -84 0
-85 0
-1 -91 85 0
-1 91 -85 0
-2 -91 85 0
-2 91 -85 0
-3 -91 85 0
-3 91 -85 0
-4 -85 91 0
-4 -81 91 0
-4 -91 85 81 0
-5 -91 85 0
-5 91 -85 0
-6 -91 85 0
-6 91 -85 0
-7 -91 85 0
-7 91 -85 0
-8 -85 91 0
-8 -82 91 0
-8 -91 85 82 0
-9 -91 85 0
-9 91 -85 0
-10 -91 85 0
-10 91 -85 0
-11 -85 91 0
-11 -83 91 0
-11 -91 85 83 0
-12 -91 85 0
-12 91 -85 0
-13 -85 91 0
-13 -84 91 0
-13 -91 85 84 0
-14 -91 85 0
-14 91 -85 0
-15 -91 85 0
-15 -91 86 0
-15 91 -85 -86 0
-76 -91 85 0
-76 91 -85 0
-86 0
-1 -92 86 0
-1 92 -86 0
-2 -92 86 0
-2 92 -86 0
-3 -92 86 0
-3 92 -86 0
-4 -92 86 0
-4 92 -86 0
-5 -86 92 0
-5 -81 92 0
-5 -92 86 81 0
-6 -92 86 0
-6 92 -86 0
-7 -92 86 0
-7 92 -86 0
-8 -92 86 0
-8 92 -86 0
-9 -86 92 0
-9 -82 92 0
-9 -92 86 82 0
-10 -92 86 0
-10 92 -86 0
-11 -92 86 0
-11 92 -86 0
-12 -86 92 0
-12 -83 92 0
-12 -92 86 83 0
-13 -92 86 0
-13 92 -86 0
-14 -86 92 0
-14 -84 92 0
-14 -92 86 84 0
-15 -86 92 0
-15 -85 92 0
-15 -92 86 85 0
-76 -92 86 0
-76 92 -86 0
-16 -93 87 0
-16 -93 88 0
-16 93 -87 -88 0
-17 -93 87 0
-17 -93 89 0
-17 93 -87 -89 0
-18 -93 87 0
-18 -93 90 0
-18 93 -87 -90 0
-19 -93 87 0
-19 -93 91 0
-19 93 -87 -91 0
-20 -93 87 0
-20 -93 92 0
-20 93 -87 -92 0
-21 -93 87 0
-21 93 -87 0
-22 -93 87 0
-22 93 -87 0
-23 -93 87 0
-23 93 -87 0
-24 -93 87 0
-24 93 -87 0
-25 -93 87 0
-25 93 -87 0
-26 -93 87 0
-26 93 -87 0
-27 -93 87 0
-27 93 -87 0
-28 -93 87 0
-28 93 -87 0
-29 -93 87 0
-29 93 -87 0
-30 -93 87 0
-30 93 -87 0
-77 -93 87 0
-77 93 -87 0
-16 -88 94 0
-16 -87 94 0
-16 -94 88 87 0
-17 -94 88 0
-17 94 -88 0
-18 -94 88 0
-18 94 -88 0
-19 -94 88 0
-19 94 -88 0
-20 -94 88 0
-20 94 -88 0
-21 -94 88 0
-21 -94 89 0
-21 94 -88 -89 0
-22 -94 88 0
-22 -94 90 0
-22 94 -88 -90 0
-23 -94 88 0
-23 -94 91 0
-23 94 -88 -91 0
-24 -94 88 0
-24 -94 92 0
-24 94 -88 -92 0
-25 -94 88 0
-25 94 -88 0
-26 -94 88 0
-26 94 -88 0
-27 -94 88 0
-27 94 -88 0
-28 -94 88 0
-28 94 -88 0
-29 -94 88 0
-29 94 -88 0
-30 -94 88 0
-30 94 -88 0
-77 -94 88 0
-77 94 -88 0
-16 -95 89 0
-16 95 -89 0
-17 -89 95 0
-17 -87 95 0
-17 -95 89 87 0
-18 -95 89 0
-18 95 -89 0
-19 -95 89 0
-19 95 -89 0
-20 -95 89 0
-20 95 -89 0
-21 -89 95 0
-21 -88 95 0
-21 -95 89 88 0
-22 -95 89 0
-22 95 -89 0
-23 -95 89 0
-23 95 -89 0
-24 -95 89 0
-24 95 -89 0
-25 -95 89 0
-25 -95 90 0
-25 95 -89 -90 0
-26 -95 89 0
-26 -95 91 0
-26 95 -89 -91 0
-27 -95 89 0
-27 -95 92 0
-27 95 -89 -92 0
-28 -95 89 0
-28 95 -89 0
-29 -95 89 0
-29 95 -89 0
-30 -95 89 0
-30 95 -89 0
-77 -95 89 0
-77 95 -89 0
-16 -96 90 0
-16 96 -90 0
-17 -96 90 0
-17 96 -90 0
-18 -90 96 0
-18 -87 96 0
-18 -96 90 87 0
-19 -96 90 0
-19 96 -90 0
-20 -96 90 0
-20 96 -90 0
-21 -96 90 0
-21 96 -90 0
-22 -90 96 0
-22 -88 96 0
-22 -96 90 88 0
-23 -96 90 0
-23 96 -90 0
-24 -96 90 0
-24 96 -90 0
-25 -90 96 0
-25 -89 96 0
-25 -96 90 89 0
-26 -96 90 0
-26 96 -90 0
-27 -96 90 0
-27 96 -90 0
-28 -96 90 0
-28 -96 91 0
-28 96 -90 -91 0
-29 -96 90 0
-29 -96 92 0
-29 96 -90 -92 0
-30 -96 90 0
-30 96 -90 0
-77 -96 90 0
-77 96 -90 0
-16 -97 91 0
-16 97 -91 0
-17 -97 91 0
-17 97 -91 0
-18 -97 91 0
-18 97 -91 0
-19 -91 97 0
-19 -87 97 0
-19 -97 91 87 0
-20 -97 91 0
-20 97 -91 0
-21 -97 91 0
-21 97 -91 0
-22 -97 91 0
-22 97 -91 0
-23 -91 97 0
-23 -88 97 0
-23 -97 91 88 0
-24 -97 91 0
-24 97 -91 0
-25 -97 91 0
-25 97 -91 0
-26 -91 97 0
-26 -89 97 0
-26 -97 91 89 0
-27 -97 91 0
-27 97 -91 0
-28 -91 97 0
-28 -90 97 0
-28 -97 91 90 0
-29 -97 91 0
-29 97 -91 0
-30 -97 91 0
-30 -97 92 0
-30 97 -91 -92 0
-77 -97 91 0
-77 97 -91 0
-16 -98 92 0
-16 98 -92 0
-17 -98 92 0
-17 98 -92 0
-18 -98 92 0
-18 98 -92 0
-19 -98 92 0
-19 98 -92 0
-20 -92 98 0
-20 -87 98 0
-20 -98 92 87 0
-21 -98 92 0
-21 98 -92 0
-22 -98 92 0
-22 98 -92 0
-23 -98 92 0
-23 98 -92 0
-24 -92 98 0
-24 -88 98 0
-24 -98 92 88 0
-25 -98 92 0
-25 98 -92 0
-26 -98 92 0
-26 98 -92 0
-27 -92 98 0
-27 -89 98 0
-27 -98 92 89 0
-28 -98 92 0
-28 98 -92 0
-29 -92 98 0
-29 -90 98 0
-29 -98 92 90 0
-30 -92 98 0
-30 -91 98 0
-30 -98 92 91 0
-77 -98 92 0
-77 98 -92 0
-31 -99 93 0
-31 -99 94 0
-31 99 -93 -94 0
-32 -99 93 0
-32 -99 95 0
-32 99 -93 -95 0
-33 -99 93 0
-33 -99 96 0
-33 99 -93 -96 0
-34 -99 93 0
-34 -99 97 0
-34 99 -93 -97 0
-35 -99 93 0
-35 -99 98 0
-35 99 -93 -98 0
-36 -99 93 0
-36 99 -93 0
-37 -99 93 0
-37 99 -93 0
-38 -99 93 0
-38 99 -93 0
-39 -99 93 0
-39 99 -93 0
-40 -99 93 0
-40 99 -93 0
-41 -99 93 0
-41 99 -93 0
-42 -99 93 0
-42 99 -93 0
-43 -99 93 0
-43 99 -93 0
-44 -99 93 0
-44 99 -93 0
-45 -99 93 0
-45 99 -93 0
-78 -99 93 0
-78 99 -93 0
-31 -94 100 0
-31 -93 100 0
-31 -100 94 93 0
-32 -100 94 0
-32 100 -94 0
-33 -100 94 0
-33 100 -94 0
-34 -100 94 0
-34 100 -94 0
-35 -100 94 0
-35 100 -94 0
-36 -100 94 0
-36 -100 95 0
-36 100 -94 -95 0
-37 -100 94 0
-37 -100 96 0
-37 100 -94 -96 0
-38 -100 94 0
-38 -100 97 0
-38 100 -94 -97 0
-39 -100 94 0
-39 -100 98 0
-39 100 -94 -98 0
-40 -100 94 0
-40 100 -94 0
-41 -100 94 0
-41 100 -94 0
-42 -100 94 0
-42 100 -94 0
-43 -100 94 0
-43 100 -94 0
-44 -100 94 0
-44 100 -94 0
-45 -100 94 0
-45 100 -94 0
-78 -100 94 0
-78 100 -94 0
-31 -101 95 0
-31 101 -95 0
-32 -95 101 0
-32 -93 101 0
-32 -101 95 93 0
-33 -101 95 0
-33 101 -95 0
-34 -101 95 0
-34 101 -95 0
-35 -101 95 0
-35 101 -95 0
-36 -95 101 0
-36 -94 101 0
-36 -101 95 94 0
-37 -101 95 0
-37 101 -95 0
-38 -101 95 0
-38 101 -95 0
-39 -101 95 0
-39 101 -95 0
-40 -101 95 0
-40 -101 96 0
-40 101 -95 -96 0
-41 -101 95 0
-41 -101 97 0
-41 101 -95 -97 0
-42 -101 95 0
-42 -101 98 0
-42 101 -95 -98 0
-43 -101 95 0
-43 101 -95 0
-44 -101 95 0
-44 101 -95 0
-45 -101 95 0
-45 101 -95 0
-78 -101 95 0
-78 101 -95 0
-31 -102 96 0
-31 102 -96 0
-32 -102 96 0
-32 102 -96 0
-33 -96 102 0
-33 -93 102 0
-33 -102 96 93 0
-34 -102 96 0
-34 102 -96 0
-35 -102 96 0
-35 102 -96 0
-36 -102 96 0
-36 102 -96 0
-37 -96 102 0
-37 -94 102 0
-37 -102 96 94 0
-38 -102 96 0
-38 102 -96 0
-39 -102 96 0
-39 102 -96 0
-40 -96 102 0
-40 -95 102 0
-40 -102 96 95 0
-41 -102 96 0
-41 102 -96 0
-42 -102 96 0
-42 102 -96 0
-43 -102 96 0
-43 -102 97 0
-43 102 -96 -97 0
-44 -102 96 0
-44 -102 98 0
-44 102 -96 -98 0
-45 -102 96 0
-45 102 -96 0
-78 -102 96 0
-78 102 -96 0
-31 -103 97 0
-31 103 -97 0
-32 -103 97 0
-32 103 -97 0
-33 -103 97 0
-33 103 -97 0
-34 -97 103 0
-34 -93 103 0
-34 -103 97 93 0
-35 -103 97 0
-35 103 -97 0
-36 -103 97 0
-36 103 -97 0
-37 -103 97 0
-37 103 -97 0
-38 -97 103 0
-38 -94 103 0
-38 -103 97 94 0
-39 -103 97 0
-39 103 -97 0
-40 -103 97 0
-40 103 -97 0
-41 -97 103 0
-41 -95 103 0
-41 -103 97 95 0
-42 -103 97 0
-42 103 -97 0
-43 -97 103 0
-43 -96 103 0
-43 -103 97 96 0
-44 -103 97 0
-44 103 -97 0
-45 -103 97 0
-45 -103 98 0
-45 103 -97 -98 0
-78 -103 97 0
-78 103 -97 0
-31 -104 98 0
-31 104 -98 0
-32 -104 98 0
-32 104 -98 0
-33 -104 98 0
-33 104 -98 0
-34 -104 98 0
-34 104 -98 0
-35 -98 104 0
-35 -93 104 0
-35 -104 98 93 0
-36 -104 98 0
-36 104 -98 0
-37 -104 98 0
-37 104 -98 0
-38 -104 98 0
-38 104 -98 0
-39 -98 104 0
-39 -94 104 0
-39 -104 98 94 0
-40 -104 98 0
-40 104 -98 0
-41 -104 98 0
-41 104 -98 0
-42 -98 104 0
-42 -95 104 0
-42 -104 98 95 0
-43 -104 98 0
-43 104 -98 0
-44 -98 104 0
-44 -96 104 0
-44 -104 98 96 0
-45 -98 104 0
-45 -97 104 0
-45 -104 98 97 0
-78 -104 98 0
-78 104 -98 0
-46 -105 99 0
-46 -105 100 0
-46 105 -99 -100 0
-47 -105 99 0
-47 -105 101 0
-47 105 -99 -101 0
-48 -105 99 0
-48 -105 102 0
-48 105 -99 -102 0
-49 -105 99 0
-49 -105 103 0
-49 105 -99 -103 0
-50 -105 99 0
-50 -105 104 0
-50 105 -99 -104 0
-51 -105 99 0
-51 105 -99 0
-52 -105 99 0
-52 105 -99 0
-53 -105 99 0
-53 105 -99 0
-54 -105 99 0
-54 105 -99 0
-55 -105 99 0
-55 105 -99 0
-56 -105 99 0
-56 105 -99 0
-57 -105 99 0
-57 105 -99 0
-58 -105 99 0
-58 105 -99 0
-59 -105 99 0
-59 105 -99 0
-60 -105 99 0
-60 105 -99 0
-79 -105 99 0
-79 105 -99 0
-46 -100 106 0
-46 -99 106 0
-46 -106 100 99 0
-47 -106 100 0
-47 106 -100 0
-48 -106 100 0
-48 106 -100 0
-49 -106 100 0
-49 106 -100 0
-50 -106 100 0
-50 106 -100 0
-51 -106 100 0
-51 -106 101 0
-51 106 -100 -101 0
-52 -106 100 0
-52 -106 102 0
-52 106 -100 -102 0
-53 -106 100 0
-53 -106 103 0
-53 106 -100 -103 0
-54 -106 100 0
-54 -106 104 0
-54 106 -100 -104 0
-55 -106 100 0
-55 106 -100 0
-56 -106 100 0
-56 106 -100 0
-57 -106 100 0
-57 106 -100 0
-58 -106 100 0
-58 106 -100 0
-59 -106 100 0
-59 106 -100 0
-60 -106 100 0
-60 106 -100 0
-79 -106 100 0
-79 106 -100 0
-46 -107 101 0
-46 107 -101 0
-47 -101 107 0
-47 -99 107 0
-47 -107 101 99 0
-48 -107 101 0
-48 107 -101 0
-49 -107 101 0
-49 107 -101 0
-50 -107 101 0
-50 107 -101 0
-51 -101 107 0
-51 -100 107 0
-51 -107 101 100 0
-52 -107 101 0
-52 107 -101 0
-53 -107 101 0
-53 107 -101 0
-54 -107 101 0
-54 107 -101 0
-55 -107 101 0
-55 -107 102 0
-55 107 -101 -102 0
-56 -107 101 0
-56 -107 103 0
-56 107 -101 -103 0
-57 -107 101 0
-57 -107 104 0
-57 107 -101 -104 0
-58 -107 101 0
-58 107 -101 0
-59 -107 101 0
-59 107 -101 0
-60 -107 101 0
-60 107 -101 0
-79 -107 101 0
-79 107 -101 0
-46 -108 102 0
-46 108 -102 0
-47 -108 102 0
-47 108 -102 0
-48 -102 108 0
-48 -99 108 0
-48 -108 102 99 0
-49 -108 102 0
-49 108 -102 0
-50 -108 102 0
-50 108 -102 0
-51 -108 102 0
-51 108 -102 0
-52 -102 108 0
-52 -100 108 0
-52 -108 102 100 0
-53 -108 102 0
-53 108 -102 0
-54 -108 102 0
-54 108 -102 0
-55 -102 108 0
-55 -101 108 0
-55 -108 102 101 0
-56 -108 102 0
-56 108 -102 0
-57 -108 102 0
-57 108 -102 0
-58 -108 102 0
-58 -108 103 0
-58 108 -102 -103 0
-59 -108 102 0
-59 -108 104 0
-59 108 -102 -104 0
-60 -108 102 0
-60 108 -102 0
-79 -108 102 0
-79 108 -102 0
-46 -109 103 0
-46 109 -103 0
-47 -109 103 0
-47 109 -103 0
-48 -109 103 0
-48 109 -103 0
-49 -103 109 0
-49 -99 109 0
-49 -109 103 99 0
-50 -109 103 0
-50 109 -103 0
-51 -109 103 0
-51 109 -103 0
-52 -109 103 0
-52 109 -103 0
-53 -103 109 0
-53 -100 109 0
-53 -109 103 100 0
-54 -109 103 0
-54 109 -103 0
-55 -109 103 0
-55 109 -103 0
-56 -103 109 0
-56 -101 109 0
-56 -109 103 101 0
-57 -109 103 0
-57 109 -103 0
-58 -103 109 0
-58 -102 109 0
-58 -109 103 102 0
-59 -109 103 0
-59 109 -103 0
-60 -109 103 0
-60 -109 104 0
-60 109 -103 -104 0
-79 -109 103 0
-79 109 -103 0
-46 -110 104 0
-46 110 -104 0
-47 -110 104 0
-47 110 -104 0
-48 -110 104 0
-48 110 -104 0
-49 -110 104 0
-49 110 -104 0
-50 -104 110 0
-50 -99 110 0
-50 -110 104 99 0
-51 -110 104 0
-51 110 -104 0
-52 -110 104 0
-52 110 -104 0
-53 -110 104 0
-53 110 -104 0
-54 -104 110 0
-54 -100 110 0
-54 -110 104 100 0
-55 -110 104 0
-55 110 -104 0
-56 -110 104 0
-56 110 -104 0
-57 -104 110 0
-57 -101 110 0
-57 -110 104 101 0
-58 -110 104 0
-58 110 -104 0
-59 -104 110 0
-59 -102 110 0
-59 -110 104 102 0
-60 -104 110 0
-60 -103 110 0
-60 -110 104 103 0
-79 -110 104 0
-79 110 -104 0
-61 -111 105 0
-61 -111 106 0
-61 111 -105 -106 0
-62 -111 105 0
-62 -111 107 0
-62 111 -105 -107 0
-63 -111 105 0
-63 -111 108 0
-63 111 -105 -108 0
-64 -111 105 0
-64 -111 109 0
-64 111 -105 -109 0
-65 -111 105 0
-65 -111 110 0
-65 111 -105 -110 0
-66 -111 105 0
-66 111 -105 0
-67 -111 105 0
-67 111 -105 0
-68 -111 105 0
-68 111 -105 0
-69 -111 105 0
-69 111 -105 0
-70 -111 105 0
-70 111 -105 0
-71 -111 105 0
-71 111 -105 0
-72 -111 105 0
-72 111 -105 0
-73 -111 105 0
-73 111 -105 0
-74 -111 105 0
-74 111 -105 0
-75 -111 105 0
-75 111 -105 0
-80 -111 105 0
-80 111 -105 0
-61 -106 112 0
-61 -105 112 0
-61 -112 106 105 0
-62 -112 106 0
-62 112 -106 0
-63 -112 106 0
-63 112 -106 0
-64 -112 106 0
-64 112 -106 0
-65 -112 106 0
-65 112 -106 0
-66 -112 106 0
-66 -112 107 0
-66 112 -106 -107 0
-67 -112 106 0
-67 -112 108 0
-67 112 -106 -108 0
-68 -112 106 0
-68 -112 109 0
-68 112 -106 -109 0
-69 -112 106 0
-69 -112 110 0
-69 112 -106 -110 0
-70 -112 106 0
-70 112 -106 0
-71 -112 106 0
-71 112 -106 0
-72 -112 106 0
-72 112 -106 0
-73 -112 106 0
-73 112 -106 0
-74 -112 106 0
-74 112 -106 0
-75 -112 106 0
-75 112 -106 0
-80 -112 106 0
-80 112 -106 0
-61 -113 107 0
-61 113 -107 0
-62 -107 113 0
-62 -105 113 0
-62 -113 107 105 0
-63 -113 107 0
-63 113 -107 0
-64 -113 107 0
-64 113 -107 0
-65 -113 107 0
-65 113 -107 0
-66 -107 113 0
-66 -106 113 0
-66 -113 107 106 0
-67 -113 107 0
-67 113 -107 0
-68 -113 107 0
-68 113 -107 0
-69 -113 107 0
-69 113 -107 0
-70 -113 107 0
-70 -113 108 0
-70 113 -107 -108 0
-71 -113 107 0
-71 -113 109 0
-71 113 -107 -109 0
-72 -113 107 0
-72 -113 110 0
-72 113 -107 -110 0
-73 -113 107 0
-73 113 -107 0
-74 -113 107 0
-74 113 -107 0
-75 -113 107 0
-75 113 -107 0
-80 -113 107 0
-80 113 -107 0
-61 -114 108 0
-61 114 -108 0
-62 -114 108 0
-62 114 -108 0
-63 -108 114 0
-63 -105 114 0
-63 -114 108 105 0
-64 -114 108 0
-64 114 -108 0
-65 -114 108 0
-65 114 -108 0
-66 -114 108 0
-66 114 -108 0
-67 -108 114 0
-67 -106 114 0
-67 -114 108 106 0
-68 -114 108 0
-68 114 -108 0
-69 -114 108 0
-69 114 -108 0
-70 -108 114 0
-70 -107 114 0
-70 -114 108 107 0
-71 -114 108 0
-71 114 -108 0
-72 -114 108 0
-72 114 -108 0
-73 -114 108 0
-73 -114 109 0
-73 114 -108 -109 0
-74 -114 108 0
-74 -114 110 0
-74 114 -108 -110 0
-75 -114 108 0
-75 114 -108 0
-80 -114 108 0
-80 114 -108 0
-61 -115 109 0
-61 115 -109 0
-62 -115 109 0
-62 115 -109 0
-63 -115 109 0
-63 115 -109 0
-64 -109 115 0
-64 -105 115 0
-64 -115 109 105 0
-65 -115 109 0
-65 115 -109 0
-66 -115 109 0
-66 115 -109 0
-67 -115 109 0
-67 115 -109 0
-68 -109 115 0
-68 -106 115 0
-68 -115 109 106 0
-69 -115 109 0
-69 115 -109 0
-70 -115 109 0
-70 115 -109 0
-71 -109 115 0
-71 -107 115 0
-71 -115 109 107 0
-72 -115 109 0
-72 115 -109 0
-73 -109 115 0
-73 -108 115 0
-73 -115 109 108 0
-74 -115 109 0
-74 115 -109 0
-75 -115 109 0
-75 -115 110 0
-75 115 -109 -110 0
-80 -115 109 0
-80 115 -109 0
-61 -116 110 0
-61 116 -110 0
-62 -116 110 0
-62 116 -110 0
-63 -116 110 0
-63 116 -110 0
-64 -116 110 0
-64 116 -110 0
-65 -110 116 0
-65 -105 116 0
-65 -116 110 105 0
-66 -116 110 0
-66 116 -110 0
-67 -116 110 0
-67 116 -110 0
-68 -116 110 0
-68 116 -110 0
-69 -110 116 0
-69 -106 116 0
-69 -116 110 106 0
-70 -116 110 0
-70 116 -110 0
-71 -116 110 0
-71 116 -110 0
-72 -110 116 0
-72 -107 116 0
-72 -116 110 107 0
-73 -116 110 0
-73 116 -110 0
-74 -110 116 0
-74 -108 116 0
-74 -116 110 108 0
-75 -110 116 0
-75 -109 116 0
-75 -116 110 109 0
-80 -116 110 0
-80 116 -110 0
-117 0
-1 -123 117 0
-1 -123 118 0
-1 123 -117 -118 0
-2 -123 117 0
-2 -123 119 0
-2 123 -117 -119 0
-3 -123 117 0
-3 -123 120 0
-3 123 -117 -120 0
-4 -123 117 0
-4 -123 121 0
-4 123 -117 -121 0
-5 -123 117 0
-5 -123 122 0
-5 123 -117 -122 0
-6 -123 117 0
-6 123 -117 0
-7 -123 117 0
-7 123 -117 0
-8 -123 117 0
-8 123 -117 0
-9 -123 117 0
-9 123 -117 0
-10 -123 117 0
-10 123 -117 0
-11 -123 117 0
-11 123 -117 0
-12 -123 117 0
-12 123 -117 0
-13 -123 117 0
-13 123 -117 0
-14 -123 117 0
-14 123 -117 0
-15 -123 117 0
-15 123 -117 0
-76 -123 117 0
-76 123 -117 0
-118 0
-1 -118 124 0
-1 -117 124 0
-1 -124 118 117 0
-2 -124 118 0
-2 124 -118 0
-3 -124 118 0
-3 124 -118 0
-4 -124 118 0
-4 124 -118 0
-5 -124 118 0
-5 124 -118 0
-6 -124 118 0
-6 -124 119 0
-6 124 -118 -119 0
-7 -124 118 0
-7 -124 120 0
-7 124 -118 -120 0
-8 -124 118 0
-8 -124 121 0
-8 124 -118 -121 0
-9 -124 118 0
-9 -124 122 0
-9 124 -118 -122 0
-10 -124 118 0
-10 124 -118 0
-11 -124 118 0
-11 124 -118 0
-12 -124 118 0
-12 124 -118 0
-13 -124 118 0
-13 124 -118 0
-14 -124 118 0
-14 124 -118 0
-15 -124 118 0
-15 124 -118 0
-76 -124 118 0
-76 124 -118 0
-119 0
-1 -125 119 0
-1 125 -119 0
-2 -119 125 0
-2 -117 125 0
-2 -125 119 117 0
-3 -125 119 0
-3 125 -119 0
-4 -125 119 0
-4 125 -119 0
-5 -125 119 0
-5 125 -119 0
-6 -119 125 0
-6 -118 125 0
-6 -125 119 118 0
-7 -125 119 0
-7 125 -119 0
-8 -125 119 0
-8 125 -119 0
-9 -125 119 0
-9 125 -119 0
-10 -125 119 0
-10 -125 120 0
-10 125 -119 -120 0
-11 -125 119 0
-11 -125 121 0
-11 125 -119 -121 0
-12 -125 119 0
-12 -125 122 0
-12 125 -119 -122 0
-13 -125 119 0
-13 125 -119 0
-14 -125 119 0
-14 125 -119 0
-15 -125 119 0
-15 125 -119 0
-76 -125 119 0
-76 125 -119 0
-120 0
-1 -126 120 0
-1 126 -120 0
-2 -126 120 0
-2 126 -120 0
-3 -120 126 0
-3 -117 126 0
-3 -126 120 117 0
-4 -126 120 0
-4 126 -120 0
-5 -126 120 0
-5 126 -120 0
-6 -126 120 0
-6 126 -120 0
-7 -120 126 0
-7 -118 126 0
-7 -126 120 118 0
-8 -126 120 0
-8 126 -120 0
-9 -126 120 0
-9 126 -120 0
-10 -120 126 0
-10 -119 126 0
-10 -126 120 119 0
-11 -126 120 0
-11 126 -120 0
-12 -126 120 0
-12 126 -120 0
-13 -126 120 0
-13 -126 121 0
-13 126 -120 -121 0
-14 -126 120 0
-14 -126 122 0
-14 126 -120 -122 0
-15 -126 120 0
-15 126 -120 0
-76 -126 120 0
-76 126 -120 0
-121 0
-1 -127 121 0
-1 127 -121 0
-2 -127 121 0
-2 127 -121 0
-3 -127 121 0
-3 127 -121 0
-4 -121 127 0
-4 -117 127 0
-4 -127 121 117 0
-5 -127 121 0
-5 127 -121 0
-6 -127 121 0
-6 127 -121 0
-7 -127 121 0
-7 127 -121 0
-8 -121 127 0
-8 -118 127 0
-8 -127 121 118 0
-9 -127 121 0
-9 127 -121 0
-10 -127 121 0
-10 127 -121 0
-11 -121 127 0
-11 -119 127 0
-11 -127 121 119 0
-12 -127 121 0
-12 127 -121 0
-13 -121 127 0
-13 -120 127 0
-13 -127 121 120 0
-14 -127 121 0
-14 127 -121 0
-15 -127 121 0
-15 -127 122 0
-15 127 -121 -122 0
-76 -127 121 0
-76 127 -121 0
122 0
-1 -128 122 0
-1 128 -122 0
-2 -128 122 0
-2 128 -122 0
-3 -128 122 0
-3 128 -122 0
-4 -128 122 0
-4 128 -122 0
-5 -122 128 0
-5 -117 128 0
-5 -128 122 117 0
-6 -128 122 0
-6 128 -122 0
-7 -128 122 0
-7 128 -122 0
-8 -128 122 0
-8 128 -122 0
-9 -122 128 0
-9 -118 128 0
-9 -128 122 118 0
-10 -128 122 0
-10 128 -122 0
-11 -128 122 0
-11 128 -122 0
-12 -122 128 0
-12 -119 128 0
-12 -128 122 119 0
-13 -128 122 0
-13 128 -122 0
-14 -122 128 0
-14 -120 128 0
-14 -128 122 120 0
-15 -122 128 0
-15 -121 128 0
-15 -128 122 121 0
-76 -128 122 0
-76 128 -122 0
-16 -129 123 0
-16 -129 124 0
-16 129 -123 -124 0
-17 -129 123 0
-17 -129 125 0
-17 129 -123 -125 0
-18 -129 123 0
-18 -129 126 0
-18 129 -123 -126 0
-19 -129 123 0
-19 -129 127 0
-19 129 -123 -127 0
-20 -129 123 0
-20 -129 128 0
-20 129 -123 -128 0
-21 -129 123 0
-21 129 -123 0
-22 -129 123 0
-22 129 -123 0
-23 -129 123 0
-23 129 -123 0
-24 -129 123 0
-24 129 -123 0
-25 -129 123 0
-25 129 -123 0
-26 -129 123 0
-26 129 -123 0
-27 -129 123 0
-27 129 -123 0
-28 -129 123 0
-28 129 -123 0
-29 -129 123 0
-29 129 -123 0
-30 -129 123 0
-30 129 -123 0
-77 -129 123 0
-77 129 -123 0
-16 -124 130 0
-16 -123 130 0
-16 -130 124 123 0
-17 -130 124 0
-17 130 -124 0
-18 -130 124 0
-18 130 -124 0
-19 -130 124 0
-19 130 -124 0
-20 -130 124 0
-20 130 -124 0
-21 -130 124 0
-21 -130 125 0
-21 130 -124 -125 0
-22 -130 124 0
-22 -130 126 0
-22 130 -124 -126 0
-23 -130 124 0
-23 -130 127 0
-23 130 -124 -127 0
-24 -130 124 0
-24 -130 128 0
-24 130 -124 -128 0
-25 -130 124 0
-25 130 -124 0
-26 -130 124 0
-26 130 -124 0
-27 -130 124 0
-27 130 -124 0
-28 -130 124 0
-28 130 -124 0
-29 -130 124 0
-29 130 -124 0
-30 -130 124 0
-30 130 -124 0
-77 -130 124 0
-77 130 -124 0
-16 -131 125 0
-16 131 -125 0
-17 -125 131 0
-17 -123 131 0
-17 -131 125 123 0
-18 -131 125 0
-18 131 -125 0
-19 -131 125 0
-19 131 -125 0
-20 -131 125 0
-20 131 -125 0
-21 -125 131 0
-21 -124 131 0
-21 -131 125 124 0
-22 -131 125 0
-22 131 -125 0
-23 -131 125 0
-23 131 -125 0
-24 -131 125 0
-24 131 -125 0
-25 -131 125 0
-25 -131 126 0
-25 131 -125 -126 0
-26 -131 125 0
-26 -131 127 0
-26 131 -125 -127 0
-27 -131 125 0
-27 -131 128 0
-27 131 -125 -128 0
-28 -131 125 0
-28 131 -125 0
-29 -131 125 0
-29 131 -125 0
-30 -131 125 0
-30 131 -125 0
-77 -131 125 0
-77 131 -125 0
-16 -132 126 0
-16 132 -126 0
-17 -132 126 0
-17 132 -126 0
-18 -126 132 0
-18 -123 132 0
-18 -132 126 123 0
-19 -132 126 0
-19 132 -126 0
-20 -132 126 0
-20 132 -126 0
-21 -132 126 0
-21 132 -126 0
-22 -126 132 0
-22 -124 132 0
-22 -132 126 124 0
-23 -132 126 0
-23 132 -126 0
-24 -132 126 0
-24 132 -126 0
-25 -126 132 0
-25 -125 132 0
-25 -132 126 125 0
-26 -132 126 0
-26 132 -126 0
-27 -132 126 0
-27 132 -126 0
-28 -132 126 0
-28 -132 127 0
-28 132 -126 -127 0
-29 -132 126 0
-29 -132 128 0
-29 132 -126 -128 0
-30 -132 126 0
-30 132 -126 0
-77 -132 126 0
-77 132 -126 0
-16 -133 127 0
-16 133 -127 0
-17 -133 127 0
-17 133 -127 0
-18 -133 127 0
-18 133 -127 0
-19 -127 133 0
-19 -123 133 0
-19 -133 127 123 0
-20 -133 127 0
-20 133 -127 0
-21 -133 127 0
-21 133 -127 0
-22 -133 127 0
-22 133 -127 0
-23 -127 133 0
-23 -124 133 0
-23 -133 127 124 0
-24 -133 127 0
-24 133 -127 0
-25 -133 127 0
-25 133 -127 0
-26 -127 133 0
-26 -125 133 0
-26 -133 127 125 0
-27 -133 127 0
-27 133 -127 0
-28 -127 133 0
-28 -126 133 0
-28 -133 127 126 0
-29 -133 127 0
-29 133 -127 0
-30 -133 127 0
-30 -133 128 0
-30 133 -127 -128 0
-77 -133 127 0
-77 133 -127 0
-16 -134 128 0
-16 134 -128 0
-17 -134 128 0
-17 134 -128 0
-18 -134 128 0
-18 134 -128 0
-19 -134 128 0
-19 134 -128 0
-20 -128 134 0
-20 -123 134 0
-20 -134 128 123 0
-21 -134 128 0
-21 134 -128 0
-22 -134 128 0
-22 134 -128 0
-23 -134 128 0
-23 134 -128 0
-24 -128 134 0
-24 -124 134 0
-24 -134 128 124 0
-25 -134 128 0
-25 134 -128 0
-26 -134 128 0
-26 134 -128 0
-27 -128 134 0
-27 -125 134 0
-27 -134 128 125 0
-28 -134 128 0
-28 134 -128 0
-29 -128 134 0
-29 -126 134 0
-29 -134 128 126 0
-30 -128 134 0
-30 -127 134 0
-30 -134 128 127 0
-77 -134 128 0
-77 134 -128 0
-31 -135 129 0
-31 -135 130 0
-31 135 -129 -130 0
-32 -135 129 0
-32 -135 131 0
-32 135 -129 -131 0
-33 -135 129 0
-33 -135 132 0
-33 135 -129 -132 0
-34 -135 129 0
-34 -135 133 0
-34 135 -129 -133 0
-35 -135 129 0
-35 -135 134 0
-35 135 -129 -134 0
-36 -135 129 0
-36 135 -129 0
-37 -135 129 0
-37 135 -129 0
-38 -135 129 0
-38 135 -129 0
-39 -135 129 0
-39 135 -129 0
-40 -135 129 0
-40 135 -129 0
-41 -135 129 0
-41 135 -129 0
-42 -135 129 0
-42 135 -129 0
-43 -135 129 0
-43 135 -129 0
-44 -135 129 0
-44 135 -129 0
-45 -135 129 0
-45 135 -129 0
-78 -135 129 0
-78 135 -129 0
-31 -130 136 0
-31 -129 136 0
-31 -136 130 129 0
-32 -136 130 0
-32 136 -130 0
-33 -136 130 0
-33 136 -130 0
-34 -136 130 0
-34 136 -130 0
-35 -136 130 0
-35 136 -130 0
-36 -136 130 0
-36 -136 131 0
-36 136 -130 -131 0
-37 -136 130 0
-37 -136 132 0
-37 136 -130 -132 0
-38 -136 130 0
-38 -136 133 0
-38 136 -130 -133 0
-39 -136 130 0
-39 -136 134 0
-39 136 -130 -134 0
-40 -136 130 0
-40 136 -130 0
-41 -136 130 0
-41 136 -130 0
-42 -136 130 0
-42 136 -130 0
-43 -136 130 0
-43 136 -130 0
-44 -136 130 0
-44 136 -130 0
-45 -136 130 0
-45 136 -130 0
-78 -136 130 0
-78 136 -130 0
-31 -137 131 0
-31 137 -131 0
-32 -131 137 0
-32 -129 137 0
-32 -137 131 129 0
-33 -137 131 0
-33 137 -131 0
-34 -137 131 0
-34 137 -131 0
-35 -137 131 0
-35 137 -131 0
-36 -131 137 0
-36 -130 137 0
-36 -137 131 130 0
-37 -137 131 0
-37 137 -131 0
-38 -137 131 0
-38 137 -131 0
-39 -137 131 0
-39 137 -131 0
-40 -137 131 0
-40 -137 132 0
-40 137 -131 -132 0
-41 -137 131 0
-41 -137 133 0
-41 137 -131 -133 0
-42 -137 131 0
-42 -137 134 0
-42 137 -131 -134 0
-43 -137 131 0
-43 137 -131 0
-44 -137 131 0
-44 137 -131 0
-45 -137 131 0
-45 137 -131 0
-78 -137 131 0
-78 137 -131 0
-31 -138 132 0
-31 138 -132 0
-32 -138 132 0
-32 138 -132 0
-33 -132 138 0
-33 -129 138 0
-33 -138 132 129 0
-34 -138 132 0
-34 138 -132 0
-35 -138 132 0
-35 138 -132 0
-36 -138 132 0
-36 138 -132 0
-37 -132 138 0
-37 -130 138 0
-37 -138 132 130 0
-38 -138 132 0
-38 138 -132 0
-39 -138 132 0
-39 138 -132 0
-40 -132 138 0
-40 -131 138 0
-40 -138 132 131 0
-41 -138 132 0
-41 138 -132 0
-42 -138 132 0
-42 138 -132 0
-43 -138 132 0
-43 -138 133 0
-43 138 -132 -133 0
-44 -138 132 0
-44 -138 134 0
-44 138 -132 -134 0
-45 -138 132 0
-45 138 -132 0
-78 -138 132 0
-78 138 -132 0
-31 -139 133 0
-31 139 -133 0
-32 -139 133 0
-32 139 -133 0
-33 -139 133 0
-33 139 -133 0
-34 -133 139 0
-34 -129 139 0
-34 -139 133 129 0
-35 -139 133 0
-35 139 -133 0
-36 -139 133 0
-36 139 -133 0
-37 -139 133 0
-37 139 -133 0
-38 -133 139 0
-38 -130 139 0
-38 -139 133 130 0
-39 -139 133 0
-39 139 -133 0
-40 -139 133 0
-40 139 -133 0
-41 -133 139 0
-41 -131 139 0
-41 -139 133 131 0
-42 -139 133 0
-42 139 -133 0
-43 -133 139 0
-43 -132 139 0
-43 -139 133 132 0
-44 -139 133 0
-44 139 -133 0
-45 -139 133 0
-45 -139 134 0
-45 139 -133 -134 0
-78 -139 133 0
-78 139 -133 0
-31 -140 134 0
-31 140 -134 0
-32 -140 134 0
-32 140 -134 0
-33 -140 134 0
-33 140 -134 0
-34 -140 134 0
-34 140 -134 0
-35 -134 140 0
-35 -129 140 0
-35 -140 134 129 0
-36 -140 134 0
-36 140 -134 0
-37 -140 134 0
-37 140 -134 0
-38 -140 134 0
-38 140 -134 0
-39 -134 140 0
-39 -130 140 0
-39 -140 134 130 0
-40 -140 134 0
-40 140 -134 0
-41 -140 134 0
-41 140 -134 0
-42 -134 140 0
-42 -131 140 0
-42 -140 134 131 0
-43 -140 134 0
-43 140 -134 0
-44 -134 140 0
-44 -132 140 0
-44 -140 134 132 0
-45 -134 140 0
-45 -133 140 0
-45 -140 134 133 0
-78 -140 134 0
-78 140 -134 0
-46 -141 135 0
-46 -141 136 0
-46 141 -135 -136 0
-47 -141 135 0
-47 -141 137 0
-47 141 -135 -137 0
-48 -141 135 0
-48 -141 138 0
-48 141 -135 -138 0
-49 -141 135 0
-49 -141 139 0
-49 141 -135 -139 0
-50 -141 135 0
-50 -141 140 0
-50 141 -135 -140 0
-51 -141 135 0
-51 141 -135 0
-52 -141 135 0
-52 141 -135 0
-53 -141 135 0
-53 141 -135 0
-54 -141 135 0
-54 141 -135 0
-55 -141 135 0
-55 141 -135 0
-56 -141 135 0
-56 141 -135 0
-57 -141 135 0
-57 141 -135 0
-58 -141 135 0
-58 141 -135 0
-59 -141 135 0
-59 141 -135 0
-60 -141 135 0
-60 141 -135 0
-79 -141 135 0
-79 141 -135 0
-46 -136 142 0
-46 -135 142 0
-46 -142 136 135 0
-47 -142 136 0
-47 142 -136 0
-48 -142 136 0
-48 142 -136 0
-49 -142 136 0
-49 142 -136 0
-50 -142 136 0
-50 142 -136 0
-51 -142 136 0
-51 -142 137 0
-51 142 -136 -137 0
-52 -142 136 0
-52 -142 138 0
-52 142 -136 -138 0
-53 -142 136 0
-53 -142 139 0
-53 142 -136 -139 0
-54 -142 136 0
-54 -142 140 0
-54 142 -136 -140 0
-55 -142 136 0
-55 142 -136 0
-56 -142 136 0
-56 142 -136 0
-57 -142 136 0
-57 142 -136 0
-58 -142 136 0
-58 142 -136 0
-59 -142 136 0
-59 142 -136 0
-60 -142 136 0
-60 142 -136 0
-79 -142 136 0
-79 142 -136 0
-46 -143 137 0
-46 143 -137 0
-47 -137 143 0
-47 -135 143 0
-47 -143 137 135 0
-48 -143 137 0
-48 143 -137 0
-49 -143 137 0
-49 143 -137 0
-50 -143 137 0
-50 143 -137 0
-51 -137 143 0
-51 -136 143 0
-51 -143 137 136 0
-52 -143 137 0
-52 143 -137 0
-53 -143 137 0
-53 143 -137 0
-54 -143 137 0
-54 143 -137 0
-55 -143 137 0
-55 -143 138 0
-55 143 -137 -138 0
-56 -143 137 0
-56 -143 139 0
-56 143 -137 -139 0
-57 -143 137 0
-57 -143 140 0
-57 143 -137 -140 0
-58 -143 137 0
-58 143 -137 0
-59 -143 137 0
-59 143 -137 0
-60 -143 137 0
-60 143 -137 0
-79 -143 137 0
-79 143 -137 0
-46 -144 138 0
-46 144 -138 0
-47 -144 138 0
-47 144 -138 0
-48 -138 144 0
-48 -135 144 0
-48 -144 138 135 0
-49 -144 138 0
-49 144 -138 0
-50 -144 138 0
-50 144 -138 0
-51 -144 138 0
-51 144 -138 0
-52 -138 144 0
-52 -136 144 0
-52 -144 138 136 0
-53 -144 138 0
-53 144 -138 0
-54 -144 138 0
-54 144 -138 0
-55 -138 144 0
-55 -137 144 0
-55 -144 138 137 0
-56 -144 138 0
-56 144 -138 0
-57 -144 138 0
-57 144 -138 0
-58 -144 138 0
-58 -144 139 0
-58 144 -138 -139 0
-59 -144 138 0
-59 -144 140 0
-59 144 -138 -140 0
-60 -144 138 0
-60 144 -138 0
-79 -144 138 0
-79 144 -138 0
-46 -145 139 0
-46 145 -139 0
-47 -145 139 0
-47 145 -139 0
-48 -145 139 0
-48 145 -139 0
-49 -139 145 0
-49 -135 145 0
-49 -145 139 135 0
-50 -145 139 0
-50 145 -139 0
-51 -145 139 0
-51 145 -139 0
-52 -145 139 0
-52 145 -139 0
-53 -139 145 0
-53 -136 145 0
-53 -145 139 136 0
-54 -145 139 0
-54 145 -139 0
-55 -145 139 0
-55 145 -139 0
-56 -139 145 0
-56 -137 145 0
-56 -145 139 137 0
-57 -145 139 0
-57 145 -139 0
-58 -139 145 0
-58 -138 145 0
-58 -145 139 138 0
-59 -145 139 0
-59 145 -139 0
-60 -145 139 0
-60 -145 140 0
-60 145 -139 -140 0
-79 -145 139 0
-79 145 -139 0
-46 -146 140 0
-46 146 -140 0
-47 -146 140 0
-47 146 -140 0
-48 -146 140 0
-48 146 -140 0
-49 -146 140 0
-49 146 -140 0
-50 -140 146 0
-50 -135 146 0
-50 -146 140 135 0
-51 -146 140 0
-51 146 -140 0
-52 -146 140 0
-52 146 -140 0
-53 -146 140 0
-53 146 -140 0
-54 -140 146 0
-54 -136 146 0
-54 -146 140 136 0
-55 -146 140 0
-55 146 -140 0
-56 -146 140 0
-56 146 -140 0
-57 -140 146 0
-57 -137 146 0
-57 -146 140 137 0
-58 -146 140 0
-58 146 -140 0
-59 -140 146 0
-59 -138 146 0
-59 -146 140 138 0
-60 -140 146 0
-60 -139 146 0
-60 -146 140 139 0
-79 -146 140 0
-79 146 -140 0
-61 -147 141 0
-61 -147 142 0
-61 147 -141 -142 0
-62 -147 141 0
-62 -147 143 0
-62 147 -141 -143 0
-63 -147 141 0
-63 -147 144 0
-63 147 -141 -144 0
-64 -147 141 0
-64 -147 145 0
-64 147 -141 -145 0
-65 -147 141 0
-65 -147 146 0
-65 147 -141 -146 0
-66 -147 141 0
-66 147 -141 0
-67 -147 141 0
-67 147 -141 0
-68 -147 141 0
-68 147 -141 0
-69 -147 141 0
-69 147 -141 0
-70 -147 141 0
-70 147 -141 0
-71 -147 141 0
-71 147 -141 0
-72 -147 141 0
-72 147 -141 0
-73 -147 141 0
-73 147 -141 0
-74 -147 141 0
-74 147 -141 0
-75 -147 141 0
-75 147 -141 0
-80 -147 141 0
-80 147 -141 0
-61 -142 148 0
-61 -141 148 0
-61 -148 142 141 0
-62 -148 142 0
-62 148 -142 0
-63 -148 142 0
-63 148 -142 0
-64 -148 142 0
-64 148 -142 0
-65 -148 142 0
-65 148 -142 0
-66 -148 142 0
-66 -148 143 0
-66 148 -142 -143 0
-67 -148 142 0
-67 -148 144 0
-67 148 -142 -144 0
-68 -148 142 0
-68 -148 145 0
-68 148 -142 -145 0
-69 -148 142 0
-69 -148 146 0
-69 148 -142 -146 0
-70 -148 142 0
-70 148 -142 0
-71 -148 142 0
-71 148 -142 0
-72 -148 142 0
-72 148 -142 0
-73 -148 142 0
-73 148 -142 0
-74 -148 142 0
-74 148 -142 0
-75 -148 142 0
-75 148 -142 0
-80 -148 142 0
-80 148 -142 0
-61 -149 143 0
-61 149 -143 0
-62 -143 149 0
-62 -141 149 0
-62 -149 143 141 0
-63 -149 143 0
-63 149 -143 0
-64 -149 143 0
-64 149 -143 0
-65 -149 143 0
-65 149 -143 0
-66 -143 149 0
-66 -142 149 0
-66 -149 143 142 0
-67 -149 143 0
-67 149 -143 0
-68 -149 143 0
-68 149 -143 0
-69 -149 143 0
-69 149 -143 0
-70 -149 143 0
-70 -149 144 0
-70 149 -143 -144 0
-71 -149 143 0
-71 -149 145 0
-71 149 -143 -145 0
-72 -149 143 0
-72 -149 146 0
-72 149 -143 -146 0
-73 -149 143 0
-73 149 -143 0
-74 -149 143 0
-74 149 -143 0
-75 -149 143 0
-75 149 -143 0
-80 -149 143 0
-80 149 -143 0
-61 -150 144 0
-61 150 -144 0
-62 -150 144 0
-62 150 -144 0
-63 -144 150 0
-63 -141 150 0
-63 -150 144 141 0
-64 -150 144 0
-64 150 -144 0
-65 -150 144 0
-65 150 -144 0
-66 -150 144 0
-66 150 -144 0
-67 -144 150 0
-67 -142 150 0
-67 -150 144 142 0
-68 -150 144 0
-68 150 -144 0
-69 -150 144 0
-69 150 -144 0
-70 -144 150 0
-70 -143 150 0
-70 -150 144 143 0
-71 -150 144 0
-71 150 -144 0
-72 -150 144 0
-72 150 -144 0
-73 -150 144 0
-73 -150 145 0
-73 150 -144 -145 0
-74 -150 144 0
-74 -150 146 0
-74 150 -144 -146 0
-75 -150 144 0
-75 150 -144 0
-80 -150 144 0
-80 150 -144 0
-61 -151 145 0
-61 151 -145 0
-62 -151 145 0
-62 151 -145 0
-63 -151 145 0
-63 151 -145 0
-64 -145 151 0
-64 -141 151 0
-64 -151 145 141 0
-65 -151 145 0
-65 151 -145 0
-66 -151 145 0
-66 151 -145 0
-67 -151 145 0
-67 151 -145 0
-68 -145 151 0
-68 -142 151 0
-68 -151 145 142 0
-69 -151 145 0
-69 151 -145 0
-70 -151 145 0
-70 151 -145 0
-71 -145 151 0
-71 -143 151 0
-71 -151 145 143 0
-72 -151 145 0
-72 151 -145 0
-73 -145 151 0
-73 -144 151 0
-73 -151 145 144 0
-74 -151 145 0
-74 151 -145 0
-75 -151 145 0
-75 -151 146 0
-75 151 -145 -146 0
-80 -151 145 0
-80 151 -145 0
-61 -152 146 0
-61 152 -146 0
-62 -152 146 0
-62 152 -146 0
-63 -152 146 0
-63 152 -146 0
-64 -152 146 0
-64 152 -146 0
-65 -146 152 0
-65 -141 152 0
-65 -152 146 141 0
-66 -152 146 0
-66 152 -146 0
-67 -152 146 0
-67 152 -146 0
-68 -152 146 0
-68 152 -146 0
-69 -146 152 0
-69 -142 152 0
-69 -152 146 142 0
-70 -152 146 0
-70 152 -146 0
-71 -152 146 0
-71 152 -146 0
-72 -146 152 0
-72 -143 152 0
-72 -152 146 143 0
-73 -152 146 0
-73 152 -146 0
-74 -146 152 0
-74 -144 152 0
-74 -152 146 144 0
-75 -146 152 0
-75 -145 152 0
-75 -152 146 145 0
-80 -152 146 0
-80 152 -146 0
-153 0
-1 -159 153 0
-1 -159 154 0
-1 159 -153 -154 0
-2 -159 153 0
-2 -159 155 0
-2 159 -153 -155 0
-3 -159 153 0
-3 -159 156 0
-3 159 -153 -156 0
-4 -159 153 0
-4 -159 157 0
-4 159 -153 -157 0
-5 -159 153 0
-5 -159 158 0
-5 159 -153 -158 0
-6 -159 153 0
-6 159 -153 0
-7 -159 153 0
-7 159 -153 0
-8 -159 153 0
-8 159 -153 0
-9 -159 153 0
-9 159 -153 0
-10 -159 153 0
-10 159 -153 0
-11 -159 153 0
-11 159 -153 0
-12 -159 153 0
-12 159 -153 0
-13 -159 153 0
-13 159 -153 0
-14 -159 153 0
-14 159 -153 0
-15 -159 153 0
-15 159 -153 0
-76 -159 153 0
-76 159 -153 0
-154 0
-1 -154 160 0
-1 -153 160 0
-1 -160 154 153 0
-2 -160 154 0
-2 160 -154 0
-3 -160 154 0
-3 160 -154 0
-4 -160 154 0
-4 160 -154 0
-5 -160 154 0
-5 160 -154 0
-6 -160 154 0
-6 -160 155 0
-6 160 -154 -155 0
-7 -160 154 0
-7 -160 156 0
-7 160 -154 -156 0
-8 -160 154 0
-8 -160 157 0
-8 160 -154 -157 0
-9 -160 154 0
-9 -160 158 0
-9 160 -154 -158 0
-10 -160 154 0
-10 160 -154 0
-11 -160 154 0
-11 160 -154 0
-12 -160 154 0
-12 160 -154 0
-13 -160 154 0
-13 160 -154 0
-14 -160 154 0
-14 160 -154 0
-15 -160 154 0
-15 160 -154 0
-76 -160 154 0
-76 160 -154 0
-155 0
-1 -161 155 0
-1 161 -155 0
-2 -155 161 0
-2 -153 161 0
-2 -161 155 153 0
-3 -161 155 0
-3 161 -155 0
-4 -161 155 0
-4 161 -155 0
-5 -161 155 0
-5 161 -155 0
-6 -155 161 0
-6 -154 161 0
-6 -161 155 154 0
-7 -161 155 0
-7 161 -155 0
-8 -161 155 0
-8 161 -155 0
-9 -161 155 0
-9 161 -155 0
-10 -161 155 0
-10 -161 156 0
-10 161 -155 -156 0
-11 -161 155 0
-11 -161 157 0
-11 161 -155 -157 0
-12 -161 155 0
-12 -161 158 0
-12 161 -155 -158 0
-13 -161 155 0
-13 161 -155 0
-14 -161 155 0
-14 161 -155 0
-15 -161 155 0
-15 161 -155 0
-76 -161 155 0
-76 161 -155 0
-156 0
-1 -162 156 0
-1 162 -156 0
-2 -162 156 0
-2 162 -156 0
-3 -156 162 0
-3 -153 162 0
-3 -162 156 153 0
-4 -162 156 0
-4 162 -156 0
-5 -162 156 0
-5 162 -156 0
-6 -162 156 0
-6 162 -156 0
-7 -156 162 0
-7 -154 162 0
-7 -162 156 154 0
-8 -162 156 0
-8 162 -156 0
-9 -162 156 0
-9 162 -156 0
-10 -156 162 0
-10 -155 162 0
-10 -162 156 155 0
-11 -162 156 0
-11 162 -156 0
-12 -162 156 0
-12 162 -156 0
-13 -162 156 0
-13 -162 157 0
-13 162 -156 -157 0
-14 -162 156 0
-14 -162 158 0
-14 162 -156 -158 0
-15 -162 156 0
-15 162 -156 0
-76 -162 156 0
-76 162 -156 0
157 0
-1 -163 157 0
-1 163 -157 0
-2 -163 157 0
-2 163 -157 0
-3 -163 157 0
-3 163 -157 0
-4 -157 163 0
-4 -153 163 0
-4 -163 157 153 0
-5 -163 157 0
-5 163 -157 0
-6 -163 157 0
-6 163 -157 0
-7 -163 157 0
-7 163 -157 0
-8 -157 163 0
-8 -154 163 0
-8 -163 157 154 0
-9 -163 157 0
-9 163 -157 0
-10 -163 157 0
-10 163 -157 0
-11 -157 163 0
-11 -155 163 0
-11 -163 157 155 0
-12 -163 157 0
-12 163 -157 0
-13 -157 163 0
-13 -156 163 0
-13 -163 157 156 0
-14 -163 157 0
-14 163 -157 0
-15 -163 157 0
-15 -163 158 0
-15 163 -157 -158 0
-76 -163 157 0
-76 163 -157 0
158 0
-1 -164 158 0
-1 164 -158 0
-2 -164 158 0
-2 164 -158 0
-3 -164 158 0
-3 164 -158 0
-4 -164 158 0
-4 164 -158 0
-5 -158 164 0
-5 -153 164 0
-5 -164 158 153 0
-6 -164 158 0
-6 164 -158 0
-7 -164 158 0
-7 164 -158 0
-8 -164 158 0
-8 164 -158 0
-9 -158 164 0
-9 -154 164 0
-9 -164 158 154 0
-10 -164 158 0
-10 164 -158 0
-11 -164 158 0
-11 164 -158 0
-12 -158 164 0
-12 -155 164 0
-12 -164 158 155 0
-13 -164 158 0
-13 164 -158 0
-14 -158 164 0
-14 -156 164 0
-14 -164 158 156 0
-15 -158 164 0
-15 -157 164 0
-15 -164 158 157 0
-76 -164 158 0
-76 164 -158 0
-16 -165 159 0
-16 -165 160 0
-16 165 -159 -160 0
-17 -165 159 0
-17 -165 161 0
-17 165 -159 -161 0
-18 -165 159 0
-18 -165 162 0
-18 165 -159 -162 0
-19 -165 159 0
-19 -165 163 0
-19 165 -159 -163 0
-20 -165 159 0
-20 -165 164 0
-20 165 -159 -164 0
-21 -165 159 0
-21 165 -159 0
-22 -165 159 0
-22 165 -159 0
-23 -165 159 0
-23 165 -159 0
-24 -165 159 0
-24 165 -159 0
-25 -165 159 0
-25 165 -159 0
-26 -165 159 0
-26 165 -159 0
-27 -165 159 0
-27 165 -159 0
-28 -165 159 0
-28 165 -159 0
-29 -165 159 0
-29 165 -159 0
-30 -165 159 0
-30 165 -159 0
-77 -165 159 0
-77 165 -159 0
-16 -160 166 0
-16 -159 166 0
-16 -166 160 159 0
-17 -166 160 0
-17 166 -160 0
-18 -166 160 0
-18 166 -160 0
-19 -166 160 0
-19 166 -160 0
-20 -166 160 0
-20 166 -160 0
-21 -166 160 0
-21 -166 161 0
-21 166 -160 -161 0
-22 -166 160 0
-22 -166 162 0
-22 166 -160 -162 0
-23 -166 160 0
-23 -166 163 0
-23 166 -160 -163 0
-24 -166 160 0
-24 -166 164 0
-24 166 -160 -164 0
-25 -166 160 0
-25 166 -160 0
-26 -166 160 0
-26 166 -160 0
-27 -166 160 0
-27 166 -160 0
-28 -166 160 0
-28 166 -160 0
-29 -166 160 0
-29 166 -160 0
-30 -166 160 0
-30 166 -160 0
-77 -166 160 0
-77 166 -160 0
-16 -167 161 0
-16 167 -161 0
-17 -161 167 0
-17 -159 167 0
-17 -167 161 159 0
-18 -167 161 0
-18 167 -161 0
-19 -167 161 0
-19 167 -161 0
-20 -167 161 0
-20 167 -161 0
-21 -161 167 0
-21 -160 167 0
-21 -167 161 160 0
-22 -167 161 0
-22 167 -161 0
-23 -167 161 0
-23 167 -161 0
-24 -167 161 0
-24 167 -161 0
-25 -167 161 0
-25 -167 162 0
-25 167 -161 -162 0
-26 -167 161 0
-26 -167 163 0
-26 167 -161 -163 0
-27 -167 161 0
-27 -167 164 0
-27 167 -161 -164 0
-28 -167 161 0
-28 167 -161 0
-29 -167 161 0
-29 167 -161 0
-30 -167 161 0
-30 167 -161 0
-77 -167 161 0
-77 167 -161 0
-16 -168 162 0
-16 168 -162 0
-17 -168 162 0
-17 168 -162 0
-18 -162 168 0
-18 -159 168 0
-18 -168 162 159 0
-19 -168 162 0
-19 168 -162 0
-20 -168 162 0
-20 168 -162 0
-21 -168 162 0
-21 168 -162 0
-22 -162 168 0
-22 -160 168 0
-22 -168 162 160 0
-23 -168 162 0
-23 168 -162 0
-24 -168 162 0
-24 168 -162 0
-25 -162 168 0
-25 -161 168 0
-25 -168 162 161 0
-26 -168 162 0
-26 168 -162 0
-27 -168 162 0
-27 168 -162 0
-28 -168 162 0
-28 -168 163 0
-28 168 -162 -163 0
-29 -168 162 0
-29 -168 164 0
-29 168 -162 -164 0
-30 -168 162 0
-30 168 -162 0
-77 -168 162 0
-77 168 -162 0
-16 -169 163 0
-16 169 -163 0
-17 -169 163 0
-17 169 -163 0
-18 -169 163 0
-18 169 -163 0
-19 -163 169 0
-19 -159 169 0
-19 -169 163 159 0
-20 -169 163 0
-20 169 -163 0
-21 -169 163 0
-21 169 -163 0
-22 -169 163 0
-22 169 -163 0
-23 -163 169 0
-23 -160 169 0
-23 -169 163 160 0
-24 -169 163 0
-24 169 -163 0
-25 -169 163 0
-25 169 -163 0
-26 -163 169 0
-26 -161 169 0
-26 -169 163 161 0
-27 -169 163 0
-27 169 -163 0
-28 -163 169 0
-28 -162 169 0
-28 -169 163 162 0
-29 -169 163 0
-29 169 -163 0
-30 -169 163 0
-30 -169 164 0
-30 169 -163 -164 0
-77 -169 163 0
-77 169 -163 0
-16 -170 164 0
-16 170 -164 0
-17 -170 164 0
-17 170 -164 0
-18 -170 164 0
-18 170 -164 0
-19 -170 164 0
-19 170 -164 0
-20 -164 170 0
-20 -159 170 0
-20 -170 164 159 0
-21 -170 164 0
-21 170 -164 0
-22 -170 164 0
-22 170 -164 0
-23 -170 164 0
-23 170 -164 0
-24 -164 170 0
-24 -160 170 0
-24 -170 164 160 0
-25 -170 164 0
-25 170 -164 0
-26 -170 164 0
-26 170 -164 0
-27 -164 170 0
-27 -161 170 0
-27 -170 164 161 0
-28 -170 164 0
-28 170 -164 0
-29 -164 170 0
-29 -162 170 0
-29 -170 164 162 0
-30 -164 170 0
-30 -163 170 0
-30 -170 164 163 0
-77 -170 164 0
-77 170 -164 0
-31 -171 165 0
-31 -171 166 0
-31 171 -165 -166 0
-32 -171 165 0
-32 -171 167 0
-32 171 -165 -167 0
-33 -171 165 0
-33 -171 168 0
-33 171 -165 -168 0
-34 -171 165 0
-34 -171 169 0
-34 171 -165 -169 0
-35 -171 165 0
-35 -171 170 0
-35 171 -165 -170 0
-36 -171 165 0
-36 171 -165 0
-37 -171 165 0
-37 171 -165 0
-38 -171 165 0
-38 171 -165 0
-39 -171 165 0
-39 171 -165 0
-40 -171 165 0
-40 171 -165 0
-41 -171 165 0
-41 171 -165 0
-42 -171 165 0
-42 171 -165 0
-43 -171 165 0
-43 171 -165 0
-44 -171 165 0
-44 171 -165 0
-45 -171 165 0
-45 171 -165 0
-78 -171 165 0
-78 171 -165 0
-31 -166 172 0
-31 -165 172 0
-31 -172 166 165 0
-32 -172 166 0
-32 172 -166 0
-33 -172 166 0
-33 172 -166 0
-34 -172 166 0
-34 172 -166 0
-35 -172 166 0
-35 172 -166 0
-36 -172 166 0
-36 -172 167 0
-36 172 -166 -167 0
-37 -172 166 0
-37 -172 168 0
-37 172 -166 -168 0
-38 -172 166 0
-38 -172 169 0
-38 172 -166 -169 0
-39 -172 166 0
-39 -172 170 0
-39 172 -166 -170 0
-40 -172 166 0
-40 172 -166 0
-41 -172 166 0
-41 172 -166 0
-42 -172 166 0
-42 172 -166 0
-43 -172 166 0
-43 172 -166 0
-44 -172 166 0
-44 172 -166 0
-45 -172 166 0
-45 172 -166 0
-78 -172 166 0
-78 172 -166 0
-31 -173 167 0
-31 173 -167 0
-32 -167 173 0
-32 -165 173 0
-32 -173 167 165 0
-33 -173 167 0
-33 173 -167 0
-34 -173 167 0
-34 173 -167 0
-35 -173 167 0
-35 173 -167 0
-36 -167 173 0
-36 -166 173 0
-36 -173 167 166 0
-37 -173 167 0
-37 173 -167 0
-38 -173 167 0
-38 173 -167 0
-39 -173 167 0
-39 173 -167 0
-40 -173 167 0
-40 -173 168 0
-40 173 -167 -168 0
-41 -173 167 0
-41 -173 169 0
-41 173 -167 -169 0
-42 -173 167 0
-42 -173 170 0
-42 173 -167 -170 0
-43 -173 167 0
-43 173 -167 0
-44 -173 167 0
-44 173 -167 0
-45 -173 167 0
-45 173 -167 0
-78 -173 167 0
-78 173 -167 0
-31 -174 168 0
-31 174 -168 0
-32 -174 168 0
-32 174 -168 0
-33 -168 174 0
-33 -165 174 0
-33 -174 168 165 0
-34 -174 168 0
-34 174 -168 0
-35 -174 168 0
-35 174 -168 0
-36 -174 168 0
-36 174 -168 0
-37 -168 174 0
-37 -166 174 0
-37 -174 168 166 0
-38 -174 168 0
-38 174 -168 0
-39 -174 168 0
-39 174 -168 0
-40 -168 174 0
-40 -167 174 0
-40 -174 168 167 0
-41 -174 168 0
-41 174 -168 0
-42 -174 168 0
-42 174 -168 0
-43 -174 168 0
-43 -174 169 0
-43 174 -168 -169 0
-44 -174 168 0
-44 -174 170 0
-44 174 -168 -170 0
-45 -174 168 0
-45 174 -168 0
-78 -174 168 0
-78 174 -168 0
-31 -175 169 0
-31 175 -169 0
-32 -175 169 0
-32 175 -169 0
-33 -175 169 0
-33 175 -169 0
-34 -169 175 0
-34 -165 175 0
-34 -175 169 165 0
-35 -175 169 0
-35 175 -169 0
-36 -175 169 0
-36 175 -169 0
-37 -175 169 0
-37 175 -169 0
-38 -169 175 0
-38 -166 175 0
-38 -175 169 166 0
-39 -175 169 0
-39 175 -169 0
-40 -175 169 0
-40 175 -169 0
-41 -169 175 0
-41 -167 175 0
-41 -175 169 167 0
-42 -175 169 0
-42 175 -169 0
-43 -169 175 0
-43 -168 175 0
-43 -175 169 168 0
-44 -175 169 0
-44 175 -169 0
-45 -175 169 0
-45 -175 170 0
-45 175 -169 -170 0
-78 -175 169 0
-78 175 -169 0
-31 -176 170 0
-31 176 -170 0
-32 -176 170 0
-32 176 -170 0
-33 -176 170 0
-33 176 -170 0
-34 -176 170 0
-34 176 -170 0
-35 -170 176 0
-35 -165 176 0
-35 -176 170 165 0
-36 -176 170 0
-36 176 -170 0
-37 -176 170 0
-37 176 -170 0
-38 -176 170 0
-38 176 -170 0
-39 -170 176 0
-39 -166 176 0
-39 -176 170 166 0
-40 -176 170 0
-40 176 -170 0
-41 -176 170 0
-41 176 -170 0
-42 -170 176 0
-42 -167 176 0
-42 -176 170 167 0
-43 -176 170 0
-43 176 -170 0
-44 -170 176 0
-44 -168 176 0
-44 -176 170 168 0
-45 -170 176 0
-45 -169 176 0
-45 -176 170 169 0
-78 -176 170 0
-78 176 -170 0
-46 -177 171 0
-46 -177 172 0
-46 177 -171 -172 0
-47 -177 171 0
-47 -177 173 0
-47 177 -171 -173 0
-48 -177 171 0
-48 -177 174 0
-48 177 -171 -174 0
-49 -177 171 0
-49 -177 175 0
-49 177 -171 -175 0
-50 -177 171 0
-50 -177 176 0
-50 177 -171 -176 0
-51 -177 171 0
-51 177 -171 0
-52 -177 171 0
-52 177 -171 0
-53 -177 171 0
-53 177 -171 0
-54 -177 171 0
-54 177 -171 0
-55 -177 171 0
-55 177 -171 0
-56 -177 171 0
-56 177 -171 0
-57 -177 171 0
-57 177 -171 0
-58 -177 171 0
-58 177 -171 0
-59 -177 171 0
-59 177 -171 0
-60 -177 171 0
-60 177 -171 0
-79 -177 171 0
-79 177 -171 0
-46 -172 178 0
-46 -171 178 0
-46 -178 172 171 0
-47 -178 172 0
-47 178 -172 0
-48 -178 172 0
-48 178 -172 0
-49 -178 172 0
-49 178 -172 0
-50 -178 172 0
-50 178 -172 0
-51 -178 172 0
-51 -178 173 0
-51 178 -172 -173 0
-52 -178 172 0
-52 -178 174 0
-52 178 -172 -174 0
-53 -178 172 0
-53 -178 175 0
-53 178 -172 -175 0
-54 -178 172 0
-54 -178 176 0
-54 178 -172 -176 0
-55 -178 172 0
-55 178 -172 0
-56 -178 172 0
-56 178 -172 0
-57 -178 172 0
-57 178 -172 0
-58 -178 172 0
-58 178 -172 0
-59 -178 172 0
-59 178 -172 0
-60 -178 172 0
-60 178 -172 0
-79 -178 172 0
-79 178 -172 0
-46 -179 173 0
-46 179 -173 0
-47 -173 179 0
-47 -171 179 0
-47 -179 173 171 0
-48 -179 173 0
-48 179 -173 0
-49 -179 173 0
-49 179 -173 0
-50 -179 173 0
-50 179 -173 0
-51 -173 179 0
-51 -172 179 0
-51 -179 173 172 0
-52 -179 173 0
-52 179 -173 0
-53 -179 173 0
-53 179 -173 0
-54 -179 173 0
-54 179 -173 0
-55 -179 173 0
-55 -179 174 0
-55 179 -173 -174 0
-56 -179 173 0
-56 -179 175 0
-56 179 -173 -175 0
-57 -179 173 0
-57 -179 176 0
-57 179 -173 -176 0
-58 -179 173 0
-58 179 -173 0
-59 -179 173 0
-59 179 -173 0
-60 -179 173 0
-60 179 -173 0
-79 -179 173 0
-79 179 -173 0
-46 -180 174 0
-46 180 -174 0
-47 -180 174 0
-47 180 -174 0
-48 -174 180 0
-48 -171 180 0
-48 -180 174 171 0
-49 -180 174 0
-49 180 -174 0
-50 -180 174 0
-50 180 -174 0
-51 -180 174 0
-51 180 -174 0
-52 -174 180 0
-52 -172 180 0
-52 -180 174 172 0
-53 -180 174 0
-53 180 -174 0
-54 -180 174 0
-54 180 -174 0
-55 -174 180 0
-55 -173 180 0
-55 -180 174 173 0
-56 -180 174 0
-56 180 -174 0
-57 -180 174 0
-57 180 -174 0
-58 -180 174 0
-58 -180 175 0
-58 180 -174 -175 0
-59 -180 174 0
-59 -180 176 0
-59 180 -174 -176 0
-60 -180 174 0
-60 180 -174 0
-79 -180 174 0
-79 180 -174 0
-46 -181 175 0
-46 181 -175 0
-47 -181 175 0
-47 181 -175 0
-48 -181 175 0
-48 181 -175 0
-49 -175 181 0
-49 -171 181 0
-49 -181 175 171 0
-50 -181 175 0
-50 181 -175 0
-51 -181 175 0
-51 181 -175 0
-52 -181 175 0
-52 181 -175 0
-53 -175 181 0
-53 -172 181 0
-53 -181 175 172 0
-54 -181 175 0
-54 181 -175 0
-55 -181 175 0
-55 181 -175 0
-56 -175 181 0
-56 -173 181 0
-56 -181 175 173 0
-57 -181 175 0
-57 181 -175 0
-58 -175 181 0
-58 -174 181 0
-58 -181 175 174 0
-59 -181 175 0
-59 181 -175 0
-60 -181 175 0
-60 -181 176 0
-60 181 -175 -176 0
-79 -181 175 0
-79 181 -175 0
-46 -182 176 0
-46 182 -176 0
-47 -182 176 0
-47 182 -176 0
-48 -182 176 0
-48 182 -176 0
-49 -182 176 0
-49 182 -176 0
-50 -176 182 0
-50 -171 182 0
-50 -182 176 171 0
-51 -182 176 0
-51 182 -176 0
-52 -182 176 0
-52 182 -176 0
-53 -182 176 0
-53 182 -176 0
-54 -176 182 0
-54 -172 182 0
-54 -182 176 172 0
-55 -182 176 0
-55 182 -176 0
-56 -182 176 0
-56 182 -176 0
-57 -176 182 0
-57 -173 182 0
-57 -182 176 173 0
-58 -182 176 0
-58 182 -176 0
-59 -176 182 0
-59 -174 182 0
-59 -182 176 174 0
-60 -176 182 0
-60 -175 182 0
-60 -182 176 175 0
-79 -182 176 0
-79 182 -176 0
-61 -183 177 0
-61 -183 178 0
-61 183 -177 -178 0
-62 -183 177 0
-62 -183 179 0
-62 183 -177 -179 0
-63 -183 177 0
-63 -183 180 0
-63 183 -177 -180 0
-64 -183 177 0
-64 -183 181 0
-64 183 -177 -181 0
-65 -183 177 0
-65 -183 182 0
-65 183 -177 -182 0
-66 -183 177 0
-66 183 -177 0
-67 -183 177 0
-67 183 -177 0
-68 -183 177 0
-68 183 -177 0
-69 -183 177 0
-69 183 -177 0
-70 -183 177 0
-70 183 -177 0
-71 -183 177 0
-71 183 -177 0
-72 -183 177 0
-72 183 -177 0
-73 -183 177 0
-73 183 -177 0
-74 -183 177 0
-74 183 -177 0
-75 -183 177 0
-75 183 -177 0
-80 -183 177 0
-80 183 -177 0
-61 -178 184 0
-61 -177 184 0
-61 -184 178 177 0
-62 -184 178 0
-62 184 -178 0
-63 -184 178 0
-63 184 -178 0
-64 -184 178 0
-64 184 -178 0
-65 -184 178 0
-65 184 -178 0
-66 -184 178 0
-66 -184 179 0
-66 184 -178 -179 0
-67 -184 178 0
-67 -184 180 0
-67 184 -178 -180 0
-68 -184 178 0
-68 -184 181 0
-68 184 -178 -181 0
-69 -184 178 0
-69 -184 182 0
-69 184 -178 -182 0
-70 -184 178 0
-70 184 -178 0
-71 -184 178 0
-71 184 -178 0
-72 -184 178 0
-72 184 -178 0
-73 -184 178 0
-73 184 -178 0
-74 -184 178 0
-74 184 -178 0
-75 -184 178 0
-75 184 -178 0
-80 -184 178 0
-80 184 -178 0
-61 -185 179 0
-61 185 -179 0
-62 -179 185 0
-62 -177 185 0
-62 -185 179 177 0
-63 -185 179 0
-63 185 -179 0
-64 -185 179 0
-64 185 -179 0
-65 -185 179 0
-65 185 -179 0
-66 -179 185 0
-66 -178 185 0
-66 -185 179 178 0
-67 -185 179 0
-67 185 -179 0
-68 -185 179 0
-68 185 -179 0
-69 -185 179 0
-69 185 -179 0
-70 -185 179 0
-70 -185 180 0
-70 185 -179 -180 0
-71 -185 179 0
-71 -185 181 0
-71 185 -179 -181 0
-72 -185 179 0
-72 -185 182 0
-72 185 -179 -182 0
-73 -185 179 0
-73 185 -179 0
-74 -185 179 0
-74 185 -179 0
-75 -185 179 0
-75 185 -179 0
-80 -185 179 0
-80 185 -179 0
-61 -186 180 0
-61 186 -180 0
-62 -186 180 0
-62 186 -180 0
-63 -180 186 0
-63 -177 186 0
-63 -186 180 177 0
-64 -186 180 0
-64 186 -180 0
-65 -186 180 0
-65 186 -180 0
-66 -186 180 0
-66 186 -180 0
-67 -180 186 0
-67 -178 186 0
-67 -186 180 178 0
-68 -186 180 0
-68 186 -180 0
-69 -186 180 0
-69 186 -180 0
-70 -180 186 0
-70 -179 186 0
-70 -186 180 179 0
-71 -186 180 0
-71 186 -180 0
-72 -186 180 0
-72 186 -180 0
-73 -186 180 0
-73 -186 181 0
-73 186 -180 -181 0
-74 -186 180 0
-74 -186 182 0
-74 186 -180 -182 0
-75 -186 180 0
-75 186 -180 0
-80 -186 180 0
-80 186 -180 0
-61 -187 181 0
-61 187 -181 0
-62 -187 181 0
-62 187 -181 0
-63 -187 181 0
-63 187 -181 0
-64 -181 187 0
-64 -177 187 0
-64 -187 181 177 0
-65 -187 181 0
-65 187 -181 0
-66 -187 181 0
-66 187 -181 0
-67 -187 181 0
-67 187 -181 0
-68 -181 187 0
-68 -178 187 0
-68 -187 181 178 0
-69 -187 181 0
-69 187 -181 0
-70 -187 181 0
-70 187 -181 0
-71 -181 187 0
-71 -179 187 0
-71 -187 181 179 0
-72 -187 181 0
-72 187 -181 0
-73 -181 187 0
-73 -180 187 0
-73 -187 181 180 0
-74 -187 181 0
-74 187 -181 0
-75 -187 181 0
-75 -187 182 0
-75 187 -181 -182 0
-80 -187 181 0
-80 187 -181 0
-61 -188 182 0
-61 188 -182 0
-62 -188 182 0
-62 188 -182 0
-63 -188 182 0
-63 188 -182 0
-64 -188 182 0
-64 188 -182 0
-65 -182 188 0
-65 -177 188 0
-65 -188 182 177 0
-66 -188 182 0
-66 188 -182 0
-67 -188 182 0
-67 188 -182 0
-68 -188 182 0
-68 188 -182 0
-69 -182 188 0
-69 -178 188 0
-69 -188 182 178 0
-70 -188 182 0
-70 188 -182 0
-71 -188 182 0
-71 188 -182 0
-72 -182 188 0
-72 -179 188 0
-72 -188 182 179 0
-73 -188 182 0
-73 188 -182 0
-74 -182 188 0
-74 -180 188 0
-74 -188 182 180 0
-75 -182 188 0
-75 -181 188 0
-75 -188 182 181 0
-80 -188 182 0
-80 188 -182 0
-189 0
-1 -195 189 0
-1 -195 190 0
-1 195 -189 -190 0
-2 -195 189 0
-2 -195 191 0
-2 195 -189 -191 0
-3 -195 189 0
-3 -195 192 0
-3 195 -189 -192 0
-4 -195 189 0
-4 -195 193 0
-4 195 -189 -193 0
-5 -195 189 0
-5 -195 194 0
-5 195 -189 -194 0
-6 -195 189 0
-6 195 -189 0
-7 -195 189 0
-7 195 -189 0
-8 -195 189 0
-8 195 -189 0
-9 -195 189 0
-9 195 -189 0
-10 -195 189 0
-10 195 -189 0
-11 -195 189 0
-11 195 -189 0
-12 -195 189 0
-12 195 -189 0
-13 -195 189 0
-13 195 -189 0
-14 -195 189 0
-14 195 -189 0
-15 -195 189 0
-15 195 -189 0
-76 -195 189 0
-76 195 -189 0
-190 0
-1 -190 196 0
-1 -189 196 0
-1 -196 190 189 0
-2 -196 190 0
-2 196 -190 0
-3 -196 190 0
-3 196 -190 0
-4 -196 190 0
-4 196 -190 0
-5 -196 190 0
-5 196 -190 0
-6 -196 190 0
-6 -196 191 0
-6 196 -190 -191 0
-7 -196 190 0
-7 -196 192 0
-7 196 -190 -192 0
-8 -196 190 0
-8 -196 193 0
-8 196 -190 -193 0
-9 -196 190 0
-9 -196 194 0
-9 196 -190 -194 0
-10 -196 190 0
-10 196 -190 0
-11 -196 190 0
-11 196 -190 0
-12 -196 190 0
-12 196 -190 0
-13 -196 190 0
-13 196 -190 0
-14 -196 190 0
-14 196 -190 0
-15 -196 190 0
-15 196 -190 0
-76 -196 190 0
-76 196 -190 0
-191 0
-1 -197 191 0
-1 197 -191 0
-2 -191 197 0
-2 -189 197 0
-2 -197 191 189 0
-3 -197 191 0
-3 197 -191 0
-4 -197 191 0
-4 197 -191 0
-5 -197 191 0
-5 197 -191 0
-6 -191 197 0
-6 -190 197 0
-6 -197 191 190 0
-7 -197 191 0
-7 197 -191 0
-8 -197 191 0
-8 197 -191 0
-9 -197 191 0
-9 197 -191 0
-10 -197 191 0
-10 -197 192 0
-10 197 -191 -192 0
-11 -197 191 0
-11 -197 193 0
-11 197 -191 -193 0
-12 -197 191 0
-12 -197 194 0
-12 197 -191 -194 0
-13 -197 191 0
-13 197 -191 0
-14 -197 191 0
-14 197 -191 0
-15 -197 191 0
-15 197 -191 0
-76 -197 191 0
-76 197 -191 0
192 0
-1 -198 192 0
-1 198 -192 0
-2 -198 192 0
-2 198 -192 0
-3 -192 198 0
-3 -189 198 0
-3 -198 192 189 0
-4 -198 192 0
-4 198 -192 0
-5 -198 192 0
-5 198 -192 0
-6 -198 192 0
-6 198 -192 0
-7 -192 198 0
-7 -190 198 0
-7 -198 192 190 0
-8 -198 192 0
-8 198 -192 0
-9 -198 192 0
-9 198 -192 0
-10 -192 198 0
-10 -191 198 0
-10 -198 192 191 0
-11 -198 192 0
-11 198 -192 0
-12 -198 192 0
-12 198 -192 0
-13 -198 192 0
-13 -198 193 0
-13 198 -192 -193 0
-14 -198 192 0
-14 -198 194 0
-14 198 -192 -194 0
-15 -198 192 0
-15 198 -192 0
-76 -198 192 0
-76 198 -192 0
193 0
-1 -199 193 0
-1 199 -193 0
-2 -199 193 0
-2 199 -193 0
-3 -199 193 0
-3 199 -193 0
-4 -193 199 0
-4 -189 199 0
-4 -199 193 189 0
-5 -199 193 0
-5 199 -193 0
-6 -199 193 0
-6 199 -193 0
-7 -199 193 0
-7 199 -193 0
-8 -193 199 0
-8 -190 199 0
-8 -199 193 190 0
-9 -199 193 0
-9 199 -193 0
-10 -199 193 0
-10 199 -193 0
-11 -193 199 0
-11 -191 199 0
-11 -199 193 191 0
-12 -199 193 0
-12 199 -193 0
-13 -193 199 0
-13 -192 199 0
-13 -199 193 192 0
-14 -199 193 0
-14 199 -193 0
-15 -199 193 0
-15 -199 194 0
-15 199 -193 -194 0
-76 -199 193 0
-76 199 -193 0
194 0
-1 -200 194 0
-1 200 -194 0
-2 -200 194 0
-2 200 -194 0
-3 -200 194 0
-3 200 -194 0
-4 -200 194 0
-4 200 -194 0
-5 -194 200 0
-5 -189 200 0
-5 -200 194 189 0
-6 -200 194 0
-6 200 -194 0
-7 -200 194 0
-7 200 -194 0
-8 -200 194 0
-8 200 -194 0
-9 -194 200 0
-9 -190 200 0
-9 -200 194 190 0
-10 -200 194 0
-10 200 -194 0
-11 -200 194 0
-11 200 -194 0
-12 -194 200 0
-12 -191 200 0
-12 -200 194 191 0
-13 -200 194 0
-13 200 -194 0
-14 -194 200 0
-14 -192 200 0
-14 -200 194 192 0
-15 -194 200 0
-15 -193 200 0
-15 -200 194 193 0
-76 -200 194 0
-76 200 -194 0
-16 -201 195 0
-16 -201 196 0
-16 201 -195 -196 0
-17 -201 195 0
-17 -201 197 0
-17 201 -195 -197 0
-18 -201 195 0
-18 -201 198 0
-18 201 -195 -198 0
-19 -201 195 0
-19 -201 199 0
-19 201 -195 -199 0
-20 -201 195 0
-20 -201 200 0
-20 201 -195 -200 0
-21 -201 195 0
-21 201 -195 0
-22 -201 195 0
-22 201 -195 0
-23 -201 195 0
-23 201 -195 0
-24 -201 195 0
-24 201 -195 0
-25 -201 195 0
-25 201 -195 0
-26 -201 195 0
-26 201 -195 0
-27 -201 195 0
-27 201 -195 0
-28 -201 195 0
-28 201 -195 0
-29 -201 195 0
-29 201 -195 0
-30 -201 195 0
-30 201 -195 0
-77 -201 195 0
-77 201 -195 0
-16 -196 202 0
-16 -195 202 0
-16 -202 196 195 0
-17 -202 196 0
-17 202 -196 0
-18 -202 196 0
-18 202 -196 0
-19 -202 196 0
-19 202 -196 0
-20 -202 196 0
-20 202 -196 0
-21 -202 196 0
-21 -202 197 0
-21 202 -196 -197 0
-22 -202 196 0
-22 -202 198 0
-22 202 -196 -198 0
-23 -202 196 0
-23 -202 199 0
-23 202 -196 -199 0
-24 -202 196 0
-24 -202 200 0
-24 202 -196 -200 0
-25 -202 196 0
-25 202 -196 0
-26 -202 196 0
-26 202 -196 0
-27 -202 196 0
-27 202 -196 0
-28 -202 196 0
-28 202 -196 0
-29 -202 196 0
-29 202 -196 0
-30 -202 196 0
-30 202 -196 0
-77 -202 196 0
-77 202 -196 0
-16 -203 197 0
-16 203 -197 0
-17 -197 203 0
-17 -195 203 0
-17 -203 197 195 0
-18 -203 197 0
-18 203 -197 0
-19 -203 197 0
-19 203 -197 0
-20 -203 197 0
-20 203 -197 0
-21 -197 203 0
-21 -196 203 0
-21 -203 197 196 0
-22 -203 197 0
-22 203 -197 0
-23 -203 197 0
-23 203 -197 0
-24 -203 197 0
-24 203 -197 0
-25 -203 197 0
-25 -203 198 0
-25 203 -197 -198 0
-26 -203 197 0
-26 -203 199 0
-26 203 -197 -199 0
-27 -203 197 0
-27 -203 200 0
-27 203 -197 -200 0
-28 -203 197 0
-28 203 -197 0
-29 -203 197 0
-29 203 -197 0
-30 -203 197 0
-30 203 -197 0
-77 -203 197 0
-77 203 -197 0
-16 -204 198 0
-16 204 -198 0
-17 -204 198 0
-17 204 -198 0
-18 -198 204 0
-18 -195 204 0
-18 -204 198 195 0
-19 -204 198 0
-19 204 -198 0
-20 -204 198 0
-20 204 -198 0
-21 -204 198 0
-21 204 -198 0
-22 -198 204 0
-22 -196 204 0
-22 -204 198 196 0
-23 -204 198 0
-23 204 -198 0
-24 -204 198 0
-24 204 -198 0
-25 -198 204 0
-25 -197 204 0
-25 -204 198 197 0
-26 -204 198 0
-26 204 -198 0
-27 -204 198 0
-27 204 -198 0
-28 -204 198 0
-28 -204 199 0
-28 204 -198 -199 0
-29 -204 198 0
-29 -204 200 0
-29 204 -198 -200 0
-30 -204 198 0
-30 204 -198 0
-77 -204 198 0
-77 204 -198 0
-16 -205 199 0
-16 205 -199 0
-17 -205 199 0
-17 205 -199 0
-18 -205 199 0
-18 205 -199 0
-19 -199 205 0
-19 -195 205 0
-19 -205 199 195 0
-20 -205 199 0
-20 205 -199 0
-21 -205 199 0
-21 205 -199 0
-22 -205 199 0
-22 205 -199 0
-23 -199 205 0
-23 -196 205 0
-23 -205 199 196 0
-24 -205 199 0
-24 205 -199 0
-25 -205 199 0
-25 205 -199 0
-26 -199 205 0
-26 -197 205 0
-26 -205 199 197 0
-27 -205 199 0
-27 205 -199 0
-28 -199 205 0
-28 -198 205 0
-28 -205 199 198 0
-29 -205 199 0
-29 205 -199 0
-30 -205 199 0
-30 -205 200 0
-30 205 -199 -200 0
-77 -205 199 0
-77 205 -199 0
-16 -206 200 0
-16 206 -200 0
-17 -206 200 0
-17 206 -200 0
-18 -206 200 0
-18 206 -200 0
-19 -206 200 0
-19 206 -200 0
-20 -200 206 0
-20 -195 206 0
-20 -206 200 195 0
-21 -206 200 0
-21 206 -200 0
-22 -206 200 0
-22 206 -200 0
-23 -206 200 0
-23 206 -200 0
-24 -200 206 0
-24 -196 206 0
-24 -206 200 196 0
-25 -206 200 0
-25 206 -200 0
-26 -206 200 0
-26 206 -200 0
-27 -200 206 0
-27 -197 206 0
-27 -206 200 197 0
-28 -206 200 0
-28 206 -200 0
-29 -200 206 0
-29 -198 206 0
-29 -206 200 198 0
-30 -200 206 0
-30 -199 206 0
-30 -206 200 199 0
-77 -206 200 0
-77 206 -200 0
-31 -207 201 0
-31 -207 202 0
-31 207 -201 -202 0
-32 -207 201 0
-32 -207 203 0
-32 207 -201 -203 0
-33 -207 201 0
-33 -207 204 0
-33 207 -201 -204 0
-34 -207 201 0
-34 -207 205 0
-34 207 -201 -205 0
-35 -207 201 0
-35 -207 206 0
-35 207 -201 -206 0
-36 -207 201 0
-36 207 -201 0
-37 -207 201 0
-37 207 -201 0
-38 -207 201 0
-38 207 -201 0
-39 -207 201 0
-39 207 -201 0
-40 -207 201 0
-40 207 -201 0
-41 -207 201 0
-41 207 -201 0
-42 -207 201 0
-42 207 -201 0
-43 -207 201 0
-43 207 -201 0
-44 -207 201 0
-44 207 -201 0
-45 -207 201 0
-45 207 -201 0
-78 -207 201 0
-78 207 -201 0
-31 -202 208 0
-31 -201 208 0
-31 -208 202 201 0
-32 -208 202 0
-32 208 -202 0
-33 -208 202 0
-33 208 -202 0
-34 -208 202 0
-34 208 -202 0
-35 -208 202 0
-35 208 -202 0
-36 -208 202 0
-36 -208 203 0
-36 208 -202 -203 0
-37 -208 202 0
-37 -208 204 0
-37 208 -202 -204 0
-38 -208 202 0
-38 -208 205 0
-38 208 -202 -205 0
-39 -208 202 0
-39 -208 206 0
-39 208 -202 -206 0
-40 -208 202 0
-40 208 -202 0
-41 -208 202 0
-41 208 -202 0
-42 -208 202 0
-42 208 -202 0
-43 -208 202 0
-43 208 -202 0
-44 -208 202 0
-44 208 -202 0
-45 -208 202 0
-45 208 -202 0
-78 -208 202 0
-78 208 -202 0
-31 -209 203 0
-31 209 -203 0
-32 -203 209 0
-32 -201 209 0
-32 -209 203 201 0
-33 -209 203 0
-33 209 -203 0
-34 -209 203 0
-34 209 -203 0
-35 -209 203 0
-35 209 -203 0
-36 -203 209 0
-36 -202 209 0
-36 -209 203 202 0
-37 -209 203 0
-37 209 -203 0
-38 -209 203 0
-38 209 -203 0
-39 -209 203 0
-39 209 -203 0
-40 -209 203 0
-40 -209 204 0
-40 209 -203 -204 0
-41 -209 203 0
-41 -209 205 0
-41 209 -203 -205 0
-42 -209 203 0
-42 -209 206 0
-42 209 -203 -206 0
-43 -209 203 0
-43 209 -203 0
-44 -209 203 0
-44 209 -203 0
-45 -209 203 0
-45 209 -203 0
-78 -209 203 0
-78 209 -203 0
-31 -210 204 0
-31 210 -204 0
-32 -210 204 0
-32 210 -204 0
-33 -204 210 0
-33 -201 210 0
-33 -210 204 201 0
-34 -210 204 0
-34 210 -204 0
-35 -210 204 0
-35 210 -204 0
-36 -210 204 0
-36 210 -204 0
-37 -204 210 0
-37 -202 210 0
-37 -210 204 202 0
-38 -210 204 0
-38 210 -204 0
-39 -210 204 0
-39 210 -204 0
-40 -204 210 0
-40 -203 210 0
-40 -210 204 203 0
-41 -210 204 0
-41 210 -204 0
-42 -210 204 0
-42 210 -204 0
-43 -210 204 0
-43 -210 205 0
-43 210 -204 -205 0
-44 -210 204 0
-44 -210 206 0
-44 210 -204 -206 0
-45 -210 204 0
-45 210 -204 0
-78 -210 204 0
-78 210 -204 0
-31 -211 205 0
-31 211 -205 0
-32 -211 205 0
-32 211 -205 0
-33 -211 205 0
-33 211 -205 0
-34 -205 211 0
-34 -201 211 0
-34 -211 205 201 0
-35 -211 205 0
-35 211 -205 0
-36 -211 205 0
-36 211 -205 0
-37 -211 205 0
-37 211 -205 0
-38 -205 211 0
-38 -202 211 0
-38 -211 205 202 0
-39 -211 205 0
-39 211 -205 0
-40 -211 205 0
-40 211 -205 0
-41 -205 211 0
-41 -203 211 0
-41 -211 205 203 0
-42 -211 205 0
-42 211 -205 0
-43 -205 211 0
-43 -204 211 0
-43 -211 205 204 0
-44 -211 205 0
-44 211 -205 0
-45 -211 205 0
-45 -211 206 0
-45 211 -205 -206 0
-78 -211 205 0
-78 211 -205 0
-31 -212 206 0
-31 212 -206 0
-32 -212 206 0
-32 212 -206 0
-33 -212 206 0
-33 212 -206 0
-34 -212 206 0
-34 212 -206 0
-35 -206 212 0
-35 -201 212 0
-35 -212 206 201 0
-36 -212 206 0
-36 212 -206 0
-37 -212 206 0
-37 212 -206 0
-38 -212 206 0
-38 212 -206 0
-39 -206 212 0
-39 -202 212 0
-39 -212 206 202 0
-40 -212 206 0
-40 212 -206 0
-41 -212 206 0
-41 212 -206 0
-42 -206 212 0
-42 -203 212 0
-42 -212 206 203 0
-43 -212 206 0
-43 212 -206 0
-44 -206 212 0
-44 -204 212 0
-44 -212 206 204 0
-45 -206 212 0
-45 -205 212 0
-45 -212 206 205 0
-78 -212 206 0
-78 212 -206 0
-46 -213 207 0
-46 -213 208 0
-46 213 -207 -208 0
-47 -213 207 0
-47 -213 209 0
-47 213 -207 -209 0
-48 -213 207 0
-48 -213 210 0
-48 213 -207 -210 0
-49 -213 207 0
-49 -213 211 0
-49 213 -207 -211 0
-50 -213 207 0
-50 -213 212 0
-50 213 -207 -212 0
-51 -213 207 0
-51 213 -207 0
-52 -213 207 0
-52 213 -207 0
-53 -213 207 0
-53 213 -207 0
-54 -213 207 0
-54 213 -207 0
-55 -213 207 0
-55 213 -207 0
-56 -213 207 0
-56 213 -207 0
-57 -213 207 0
-57 213 -207 0
-58 -213 207 0
-58 213 -207 0
-59 -213 207 0
-59 213 -207 0
-60 -213 207 0
-60 213 -207 0
-79 -213 207 0
-79 213 -207 0
-46 -208 214 0
-46 -207 214 0
-46 -214 208 207 0
-47 -214 208 0
-47 214 -208 0
-48 -214 208 0
-48 214 -208 0
-49 -214 208 0
-49 214 -208 0
-50 -214 208 0
-50 214 -208 0
-51 -214 208 0
-51 -214 209 0
-51 214 -208 -209 0
-52 -214 208 0
-52 -214 210 0
-52 214 -208 -210 0
-53 -214 208 0
-53 -214 211 0
-53 214 -208 -211 0
-54 -214 208 0
-54 -214 212 0
-54 214 -208 -212 0
-55 -214 208 0
-55 214 -208 0
-56 -214 208 0
-56 214 -208 0
-57 -214 208 0
-57 214 -208 0
-58 -214 208 0
-58 214 -208 0
-59 -214 208 0
-59 214 -208 0
-60 -214 208 0
-60 214 -208 0
-79 -214 208 0
-79 214 -208 0
-46 -215 209 0
-46 215 -209 0
-47 -209 215 0
-47 -207 215 0
-47 -215 209 207 0
-48 -215 209 0
-48 215 -209 0
-49 -215 209 0
-49 215 -209 0
-50 -215 209 0
-50 215 -209 0
-51 -209 215 0
-51 -208 215 0
-51 -215 209 208 0
-52 -215 209 0
-52 215 -209 0
-53 -215 209 0
-53 215 -209 0
-54 -215 209 0
-54 215 -209 0
-55 -215 209 0
-55 -215 210 0
-55 215 -209 -210 0
-56 -215 209 0
-56 -215 211 0
-56 215 -209 -211 0
-57 -215 209 0
-57 -215 212 0
-57 215 -209 -212 0
-58 -215 209 0
-58 215 -209 0
-59 -215 209 0
-59 215 -209 0
-60 -215 209 0
-60 215 -209 0
-79 -215 209 0
-79 215 -209 0
-46 -216 210 0
-46 216 -210 0
-47 -216 210 0
-47 216 -210 0
-48 -210 216 0
-48 -207 216 0
-48 -216 210 207 0
-49 -216 210 0
-49 216 -210 0
-50 -216 210 0
-50 216 -210 0
-51 -216 210 0
-51 216 -210 0
-52 -210 216 0
-52 -208 216 0
-52 -216 210 208 0
-53 -216 210 0
-53 216 -210 0
-54 -216 210 0
-54 216 -210 0
-55 -210 216 0
-55 -209 216 0
-55 -216 210 209 0
-56 -216 210 0
-56 216 -210 0
-57 -216 210 0
-57 216 -210 0
-58 -216 210 0
-58 -216 211 0
-58 216 -210 -211 0
-59 -216 210 0
-59 -216 212 0
-59 216 -210 -212 0
-60 -216 210 0
-60 216 -210 0
-79 -216 210 0
-79 216 -210 0
-46 -217 211 0
-46 217 -211 0
-47 -217 211 0
-47 217 -211 0
-48 -217 211 0
-48 217 -211 0
-49 -211 217 0
-49 -207 217 0
-49 -217 211 207 0
-50 -217 211 0
-50 217 -211 0
-51 -217 211 0
-51 217 -211 0
-52 -217 211 0
-52 217 -211 0
-53 -211 217 0
-53 -208 217 0
-53 -217 211 208 0
-54 -217 211 0
-54 217 -211 0
-55 -217 211 0
-55 217 -211 0
-56 -211 217 0
-56 -209 217 0
-56 -217 211 209 0
-57 -217 211 0
-57 217 -211 0
-58 -211 217 0
-58 -210 217 0
-58 -217 211 210 0
-59 -217 211 0
-59 217 -211 0
-60 -217 211 0
-60 -217 212 0
-60 217 -211 -212 0
-79 -217 211 0
-79 217 -211 0
-46 -218 212 0
-46 218 -212 0
-47 -218 212 0
-47 218 -212 0
-48 -218 212 0
-48 218 -212 0
-49 -218 212 0
-49 218 -212 0
-50 -212 218 0
-50 -207 218 0
-50 -218 212 207 0
-51 -218 212 0
-51 218 -212 0
-52 -218 212 0
-52 218 -212 0
-53 -218 212 0
-53 218 -212 0
-54 -212 218 0
-54 -208 218 0
-54 -218 212 208 0
-55 -218 212 0
-55 218 -212 0
-56 -218 212 0
-56 218 -212 0
-57 -212 218 0
-57 -209 218 0
-57 -218 212 209 0
-58 -218 212 0
-58 218 -212 0
-59 -212 218 0
-59 -210 218 0
-59 -218 212 210 0
-60 -212 218 0
-60 -211 218 0
-60 -218 212 211 0
-79 -218 212 0
-79 218 -212 0
-61 -219 213 0
-61 -219 214 0
-61 219 -213 -214 0
-62 -219 213 0
-62 -219 215 0
-62 219 -213 -215 0
-63 -219 213 0
-63 -219 216 0
-63 219 -213 -216 0
-64 -219 213 0
-64 -219 217 0
-64 219 -213 -217 0
-65 -219 213 0
-65 -219 218 0
-65 219 -213 -218 0
-66 -219 213 0
-66 219 -213 0
-67 -219 213 0
-67 219 -213 0
-68 -219 213 0
-68 219 -213 0
-69 -219 213 0
-69 219 -213 0
-70 -219 213 0
-70 219 -213 0
-71 -219 213 0
-71 219 -213 0
-72 -219 213 0
-72 219 -213 0
-73 -219 213 0
-73 219 -213 0
-74 -219 213 0
-74 219 -213 0
-75 -219 213 0
-75 219 -213 0
-80 -219 213 0
-80 219 -213 0
-61 -214 220 0
-61 -213 220 0
-61 -220 214 213 0
-62 -220 214 0
-62 220 -214 0
-63 -220 214 0
-63 220 -214 0
-64 -220 214 0
-64 220 -214 0
-65 -220 214 0
-65 220 -214 0
-66 -220 214 0
-66 -220 215 0
-66 220 -214 -215 0
-67 -220 214 0
-67 -220 216 0
-67 220 -214 -216 0
-68 -220 214 0
-68 -220 217 0
-68 220 -214 -217 0
-69 -220 214 0
-69 -220 218 0
-69 220 -214 -218 0
-70 -220 214 0
-70 220 -214 0
-71 -220 214 0
-71 220 -214 0
-72 -220 214 0
-72 220 -214 0
-73 -220 214 0
-73 220 -214 0
-74 -220 214 0
-74 220 -214 0
-75 -220 214 0
-75 220 -214 0
-80 -220 214 0
-80 220 -214 0
-61 -221 215 0
-61 221 -215 0
-62 -215 221 0
-62 -213 221 0
-62 -221 215 213 0
-63 -221 215 0
-63 221 -215 0
-64 -221 215 0
-64 221 -215 0
-65 -221 215 0
-65 221 -215 0
-66 -215 221 0
-66 -214 221 0
-66 -221 215 214 0
-67 -221 215 0
-67 221 -215 0
-68 -221 215 0
-68 221 -215 0
-69 -221 215 0
-69 221 -215 0
-70 -221 215 0
-70 -221 216 0
-70 221 -215 -216 0
-71 -221 215 0
-71 -221 217 0
-71 221 -215 -217 0
-72 -221 215 0
-72 -221 218 0
-72 221 -215 -218 0
-73 -221 215 0
-73 221 -215 0
-74 -221 215 0
-74 221 -215 0
-75 -221 215 0
-75 221 -215 0
-80 -221 215 0
-80 221 -215 0
-61 -222 216 0
-61 222 -216 0
-62 -222 216 0
-62 222 -216 0
-63 -216 222 0
-63 -213 222 0
-63 -222 216 213 0
-64 -222 216 0
-64 222 -216 0
-65 -222 216 0
-65 222 -216 0
-66 -222 216 0
-66 222 -216 0
-67 -216 222 0
-67 -214 222 0
-67 -222 216 214 0
-68 -222 216 0
-68 222 -216 0
-69 -222 216 0
-69 222 -216 0
-70 -216 222 0
-70 -215 222 0
-70 -222 216 215 0
-71 -222 216 0
-71 222 -216 0
-72 -222 216 0
-72 222 -216 0
-73 -222 216 0
-73 -222 217 0
-73 222 -216 -217 0
-74 -222 216 0
-74 -222 218 0
-74 222 -216 -218 0
-75 -222 216 0
-75 222 -216 0
-80 -222 216 0
-80 222 -216 0
-61 -223 217 0
-61 223 -217 0
-62 -223 217 0
-62 223 -217 0
-63 -223 217 0
-63 223 -217 0
-64 -217 223 0
-64 -213 223 0
-64 -223 217 213 0
-65 -223 217 0
-65 223 -217 0
-66 -223 217 0
-66 223 -217 0
-67 -223 217 0
-67 223 -217 0
-68 -217 223 0
-68 -214 223 0
-68 -223 217 214 0
-69 -223 217 0
-69 223 -217 0
-70 -223 217 0
-70 223 -217 0
-71 -217 223 0
-71 -215 223 0
-71 -223 217 215 0
-72 -223 217 0
-72 223 -217 0
-73 -217 223 0
-73 -216 223 0
-73 -223 217 216 0
-74 -223 217 0
-74 223 -217 0
-75 -223 217 0
-75 -223 218 0
-75 223 -217 -218 0
-80 -223 217 0
-80 223 -217 0
-61 -224 218 0
-61 224 -218 0
-62 -224 218 0
-62 224 -218 0
-63 -224 218 0
-63 224 -218 0
-64 -224 218 0
-64 224 -218 0
-65 -218 224 0
-65 -213 224 0
-65 -224 218 213 0
-66 -224 218 0
-66 224 -218 0
-67 -224 218 0
-67 224 -218 0
-68 -224 218 0
-68 224 -218 0
-69 -218 224 0
-69 -214 224 0
-69 -224 218 214 0
-70 -224 218 0
-70 224 -218 0
-71 -224 218 0
-71 224 -218 0
-72 -218 224 0
-72 -215 224 0
-72 -224 218 215 0
-73 -224 218 0
-73 224 -218 0
-74 -218 224 0
-74 -216 224 0
-74 -224 218 216 0
-75 -218 224 0
-75 -217 224 0
-75 -224 218 217 0
-80 -224 218 0
-80 224 -218 0
-225 0
-1 -231 225 0
-1 -231 226 0
-1 231 -225 -226 0
-2 -231 225 0
-2 -231 227 0
-2 231 -225 -227 0
-3 -231 225 0
-3 -231 228 0
-3 231 -225 -228 0
-4 -231 225 0
-4 -231 229 0
-4 231 -225 -229 0
-5 -231 225 0
-5 -231 230 0
-5 231 -225 -230 0
-6 -231 225 0
-6 231 -225 0
-7 -231 225 0
-7 231 -225 0
-8 -231 225 0
-8 231 -225 0
-9 -231 225 0
-9 231 -225 0
-10 -231 225 0
-10 231 -225 0
-11 -231 225 0
-11 231 -225 0
-12 -231 225 0
-12 231 -225 0
-13 -231 225 0
-13 231 -225 0
-14 -231 225 0
-14 231 -225 0
-15 -231 225 0
-15 231 -225 0
-76 -231 225 0
-76 231 -225 0
-226 0
-1 -226 232 0
-1 -225 232 0
-1 -232 226 225 0
-2 -232 226 0
-2 232 -226 0
-3 -232 226 0
-3 232 -226 0
-4 -232 226 0
-4 232 -226 0
-5 -232 226 0
-5 232 -226 0
-6 -232 226 0
-6 -232 227 0
-6 232 -226 -227 0
-7 -232 226 0
-7 -232 228 0
-7 232 -226 -228 0
-8 -232 226 0
-8 -232 229 0
-8 232 -226 -229 0
-9 -232 226 0
-9 -232 230 0
-9 232 -226 -230 0
-10 -232 226 0
-10 232 -226 0
-11 -232 226 0
-11 232 -226 0
-12 -232 226 0
-12 232 -226 0
-13 -232 226 0
-13 232 -226 0
-14 -232 226 0
-14 232 -226 0
-15 -232 226 0
-15 232 -226 0
-76 -232 226 0
-76 232 -226 0
227 0
-1 -233 227 0
-1 233 -227 0
-2 -227 233 0
-2 -225 233 0
-2 -233 227 225 0
-3 -233 227 0
-3 233 -227 0
-4 -233 227 0
-4 233 -227 0
-5 -233 227 0
-5 233 -227 0
-6 -227 233 0
-6 -226 233 0
-6 -233 227 226 0
-7 -233 227 0
-7 233 -227 0
-8 -233 227 0
-8 233 -227 0
-9 -233 227 0
-9 233 -227 0
-10 -233 227 0
-10 -233 228 0
-10 233 -227 -228 0
-11 -233 227 0
-11 -233 229 0
-11 233 -227 -229 0
-12 -233 227 0
-12 -233 230 0
-12 233 -227 -230 0
-13 -233 227 0
-13 233 -227 0
-14 -233 227 0
-14 233 -227 0
-15 -233 227 0
-15 233 -227 0
-76 -233 227 0
-76 233 -227 0
-228 0
-1 -234 228 0
-1 234 -228 0
-2 -234 228 0
-2 234 -228 0
-3 -228 234 0
-3 -225 234 0
-3 -234 228 225 0
-4 -234 228 0
-4 234 -228 0
-5 -234 228 0
-5 234 -228 0
-6 -234 228 0
-6 234 -228 0
-7 -228 234 0
-7 -226 234 0
-7 -234 228 226 0
-8 -234 228 0
-8 234 -228 0
-9 -234 228 0
-9 234 -228 0
-10 -228 234 0
-10 -227 234 0
-10 -234 228 227 0
-11 -234 228 0
-11 234 -228 0
-12 -234 228 0
-12 234 -228 0
-13 -234 228 0
-13 -234 229 0
-13 234 -228 -229 0
-14 -234 228 0
-14 -234 230 0
-14 234 -228 -230 0
-15 -234 228 0
-15 234 -228 0
-76 -234 228 0
-76 234 -228 0
-229 0
-1 -235 229 0
-1 235 -229 0
-2 -235 229 0
-2 235 -229 0
-3 -235 229 0
-3 235 -229 0
-4 -229 235 0
-4 -225 235 0
-4 -235 229 225 0
-5 -235 229 0
-5 235 -229 0
-6 -235 229 0
-6 235 -229 0
-7 -235 229 0
-7 235 -229 0
-8 -229 235 0
-8 -226 235 0
-8 -235 229 226 0
-9 -235 229 0
-9 235 -229 0
-10 -235 229 0
-10 235 -229 0
-11 -229 235 0
-11 -227 235 0
-11 -235 229 227 0
-12 -235 229 0
-12 235 -229 0
-13 -229 235 0
-13 -228 235 0
-13 -235 229 228 0
-14 -235 229 0
-14 235 -229 0
-15 -235 229 0
-15 -235 230 0
-15 235 -229 -230 0
-76 -235 229 0
-76 235 -229 0
-230 0
-1 -236 230 0
-1 236 -230 0
-2 -236 230 0
-2 236 -230 0
-3 -236 230 0
-3 236 -230 0
-4 -236 230 0
-4 236 -230 0
-5 -230 236 0
-5 -225 236 0
-5 -236 230 225 0
-6 -236 230 0
-6 236 -230 0
-7 -236 230 0
-7 236 -230 0
-8 -236 230 0
-8 236 -230 0
-9 -230 236 0
-9 -226 236 0
-9 -236 230 226 0
-10 -236 230 0
-10 236 -230 0
-11 -236 230 0
-11 236 -230 0
-12 -230 236 0
-12 -227 236 0
-12 -236 230 227 0
-13 -236 230 0
-13 236 -230 0
-14 -230 236 0
-14 -228 236 0
-14 -236 230 228 0
-15 -230 236 0
-15 -229 236 0
-15 -236 230 229 0
-76 -236 230 0
-76 236 -230 0
-16 -237 231 0
-16 -237 232 0
-16 237 -231 -232 0
-17 -237 231 0
-17 -237 233 0
-17 237 -231 -233 0
-18 -237 231 0
-18 -237 234 0
-18 237 -231 -234 0
-19 -237 231 0
-19 -237 235 0
-19 237 -231 -235 0
-20 -237 231 0
-20 -237 236 0
-20 237 -231 -236 0
-21 -237 231 0
-21 237 -231 0
-22 -237 231 0
-22 237 -231 0
-23 -237 231 0
-23 237 -231 0
-24 -237 231 0
-24 237 -231 0
-25 -237 231 0
-25 237 -231 0
-26 -237 231 0
-26 237 -231 0
-27 -237 231 0
-27 237 -231 0
-28 -237 231 0
-28 237 -231 0
-29 -237 231 0
-29 237 -231 0
-30 -237 231 0
-30 237 -231 0
-77 -237 231 0
-77 237 -231 0
-16 -232 238 0
-16 -231 238 0
-16 -238 232 231 0
-17 -238 232 0
-17 238 -232 0
-18 -238 232 0
-18 238 -232 0
-19 -238 232 0
-19 238 -232 0
-20 -238 232 0
-20 238 -232 0
-21 -238 232 0
-21 -238 233 0
-21 238 -232 -233 0
-22 -238 232 0
-22 -238 234 0
-22 238 -232 -234 0
-23 -238 232 0
-23 -238 235 0
-23 238 -232 -235 0
-24 -238 232 0
-24 -238 236 0
-24 238 -232 -236 0
-25 -238 232 0
-25 238 -232 0
-26 -238 232 0
-26 238 -232 0
-27 -238 232 0
-27 238 -232 0
-28 -238 232 0
-28 238 -232 0
-29 -238 232 0
-29 238 -232 0
-30 -238 232 0
-30 238 -232 0
-77 -238 232 0
-77 238 -232 0
-16 -239 233 0
-16 239 -233 0
-17 -233 239 0
-17 -231 239 0
-17 -239 233 231 0
-18 -239 233 0
-18 239 -233 0
-19 -239 233 0
-19 239 -233 0
-20 -239 233 0
-20 239 -233 0
-21 -233 239 0
-21 -232 239 0
-21 -239 233 232 0
-22 -239 233 0
-22 239 -233 0
-23 -239 233 0
-23 239 -233 0
-24 -239 233 0
-24 239 -233 0
-25 -239 233 0
-25 -239 234 0
-25 239 -233 -234 0
-26 -239 233 0
-26 -239 235 0
-26 239 -233 -235 0
-27 -239 233 0
-27 -239 236 0
-27 239 -233 -236 0
-28 -239 233 0
-28 239 -233 0
-29 -239 233 0
-29 239 -233 0
-30 -239 233 0
-30 239 -233 0
-77 -239 233 0
-77 239 -233 0
-16 -240 234 0
-16 240 -234 0
-17 -240 234 0
-17 240 -234 0
-18 -234 240 0
-18 -231 240 0
-18 -240 234 231 0
-19 -240 234 0
-19 240 -234 0
-20 -240 234 0
-20 240 -234 0
-21 -240 234 0
-21 240 -234 0
-22 -234 240 0
-22 -232 240 0
-22 -240 234 232 0
-23 -240 234 0
-23 240 -234 0
-24 -240 234 0
-24 240 -234 0
-25 -234 240 0
-25 -233 240 0
-25 -240 234 233 0
-26 -240 234 0
-26 240 -234 0
-27 -240 234 0
-27 240 -234 0
-28 -240 234 0
-28 -240 235 0
-28 240 -234 -235 0
-29 -240 234 0
-29 -240 236 0
-29 240 -234 -236 0
-30 -240 234 0
-30 240 -234 0
-77 -240 234 0
-77 240 -234 0
-16 -241 235 0
-16 241 -235 0
-17 -241 235 0
-17 241 -235 0
-18 -241 235 0
-18 241 -235 0
-19 -235 241 0
-19 -231 241 0
-19 -241 235 231 0
-20 -241 235 0
-20 241 -235 0
-21 -241 235 0
-21 241 -235 0
-22 -241 235 0
-22 241 -235 0
-23 -235 241 0
-23 -232 241 0
-23 -241 235 232 0
-24 -241 235 0
-24 241 -235 0
-25 -241 235 0
-25 241 -235 0
-26 -235 241 0
-26 -233 241 0
-26 -241 235 233 0
-27 -241 235 0
-27 241 -235 0
-28 -235 241 0
-28 -234 241 0
-28 -241 235 234 0
-29 -241 235 0
-29 241 -235 0
-30 -241 235 0
-30 -241 236 0
-30 241 -235 -236 0
-77 -241 235 0
-77 241 -235 0
-16 -242 236 0
-16 242 -236 0
-17 -242 236 0
-17 242 -236 0
-18 -242 236 0
-18 242 -236 0
-19 -242 236 0
-19 242 -236 0
-20 -236 242 0
-20 -231 242 0
-20 -242 236 231 0
-21 -242 236 0
-21 242 -236 0
-22 -242 236 0
-22 242 -236 0
-23 -242 236 0
-23 242 -236 0
-24 -236 242 0
-24 -232 242 0
-24 -242 236 232 0
-25 -242 236 0
-25 242 -236 0
-26 -242 236 0
-26 242 -236 0
-27 -236 242 0
-27 -233 242 0
-27 -242 236 233 0
-28 -242 236 0
-28 242 -236 0
-29 -236 242 0
-29 -234 242 0
-29 -242 236 234 0
-30 -236 242 0
-30 -235 242 0
-30 -242 236 235 0
-77 -242 236 0
-77 242 -236 0
-31 -243 237 0
-31 -243 238 0
-31 243 -237 -238 0
-32 -243 237 0
-32 -243 239 0
-32 243 -237 -239 0
-33 -243 237 0
-33 -243 240 0
-33 243 -237 -240 0
-34 -243 237 0
-34 -243 241 0
-34 243 -237 -241 0
-35 -243 237 0
-35 -243 242 0
-35 243 -237 -242 0
-36 -243 237 0
-36 243 -237 0
-37 -243 237 0
-37 243 -237 0
-38 -243 237 0
-38 243 -237 0
-39 -243 237 0
-39 243 -237 0
-40 -243 237 0
-40 243 -237 0
-41 -243 237 0
-41 243 -237 0
-42 -243 237 0
-42 243 -237 0
-43 -243 237 0
-43 243 -237 0
-44 -243 237 0
-44 243 -237 0
-45 -243 237 0
-45 243 -237 0
-78 -243 237 0
-78 243 -237 0
-31 -238 244 0
-31 -237 244 0
-31 -244 238 237 0
-32 -244 238 0
-32 244 -238 0
-33 -244 238 0
-33 244 -238 0
-34 -244 238 0
-34 244 -238 0
-35 -244 238 0
-35 244 -238 0
-36 -244 238 0
-36 -244 239 0
-36 244 -238 -239 0
-37 -244 238 0
-37 -244 240 0
-37 244 -238 -240 0
-38 -244 238 0
-38 -244 241 0
-38 244 -238 -241 0
-39 -244 238 0
-39 -244 242 0
-39 244 -238 -242 0
-40 -244 238 0
-40 244 -238 0
-41 -244 238 0
-41 244 -238 0
-42 -244 238 0
-42 244 -238 0
-43 -244 238 0
-43 244 -238 0
-44 -244 238 0
-44 244 -238 0
-45 -244 238 0
-45 244 -238 0
-78 -244 238 0
-78 244 -238 0
-31 -245 239 0
-31 245 -239 0
-32 -239 245 0
-32 -237 245 0
-32 -245 239 237 0
-33 -245 239 0
-33 245 -239 0
-34 -245 239 0
-34 245 -239 0
-35 -245 239 0
-35 245 -239 0
-36 -239 245 0
-36 -238 245 0
-36 -245 239 238 0
-37 -245 239 0
-37 245 -239 0
-38 -245 239 0
-38 245 -239 0
-39 -245 239 0
-39 245 -239 0
-40 -245 239 0
-40 -245 240 0
-40 245 -239 -240 0
-41 -245 239 0
-41 -245 241 0
-41 245 -239 -241 0
-42 -245 239 0
-42 -245 242 0
-42 245 -239 -242 0
-43 -245 239 0
-43 245 -239 0
-44 -245 239 0
-44 245 -239 0
-45 -245 239 0
-45 245 -239 0
-78 -245 239 0
-78 245 -239 0
-31 -246 240 0
-31 246 -240 0
-32 -246 240 0
-32 246 -240 0
-33 -240 246 0
-33 -237 246 0
-33 -246 240 237 0
-34 -246 240 0
-34 246 -240 0
-35 -246 240 0
-35 246 -240 0
-36 -246 240 0
-36 246 -240 0
-37 -240 246 0
-37 -238 246 0
-37 -246 240 238 0
-38 -246 240 0
-38 246 -240 0
-39 -246 240 0
-39 246 -240 0
-40 -240 246 0
-40 -239 246 0
-40 -246 240 239 0
-41 -246 240 0
-41 246 -240 0
-42 -246 240 0
-42 246 -240 0
-43 -246 240 0
-43 -246 241 0
-43 246 -240 -241 0
-44 -246 240 0
-44 -246 242 0
-44 246 -240 -242 0
-45 -246 240 0
-45 246 -240 0
-78 -246 240 0
-78 246 -240 0
-31 -247 241 0
-31 247 -241 0
-32 -247 241 0
-32 247 -241 0
-33 -247 241 0
-33 247 -241 0
-34 -241 247 0
-34 -237 247 0
-34 -247 241 237 0
-35 -247 241 0
-35 247 -241 0
-36 -247 241 0
-36 247 -241 0
-37 -247 241 0
-37 247 -241 0
-38 -241 247 0
-38 -238 247 0
-38 -247 241 238 0
-39 -247 241 0
-39 247 -241 0
-40 -247 241 0
-40 247 -241 0
-41 -241 247 0
-41 -239 247 0
-41 -247 241 239 0
-42 -247 241 0
-42 247 -241 0
-43 -241 247 0
-43 -240 247 0
-43 -247 241 240 0
-44 -247 241 0
-44 247 -241 0
-45 -247 241 0
-45 -247 242 0
-45 247 -241 -242 0
-78 -247 241 0
-78 247 -241 0
-31 -248 242 0
-31 248 -242 0
-32 -248 242 0
-32 248 -242 0
-33 -248 242 0
-33 248 -242 0
-34 -248 242 0
-34 248 -242 0
-35 -242 248 0
-35 -237 248 0
-35 -248 242 237 0
-36 -248 242 0
-36 248 -242 0
-37 -248 242 0
-37 248 -242 0
-38 -248 242 0
-38 248 -242 0
-39 -242 248 0
-39 -238 248 0
-39 -248 242 238 0
-40 -248 242 0
-40 248 -242 0
-41 -248 242 0
-41 248 -242 0
-42 -242 248 0
-42 -239 248 0
-42 -248 242 239 0
-43 -248 242 0
-43 248 -242 0
-44 -242 248 0
-44 -240 248 0
-44 -248 242 240 0
-45 -242 248 0
-45 -241 248 0
-45 -248 242 241 0
-78 -248 242 0
-78 248 -242 0
-46 -249 243 0
-46 -249 244 0
-46 249 -243 -244 0
-47 -249 243 0
-47 -249 245 0
-47 249 -243 -245 0
-48 -249 243 0
-48 -249 246 0
-48 249 -243 -246 0
-49 -249 243 0
-49 -249 247 0
-49 249 -243 -247 0
-50 -249 243 0
-50 -249 248 0
-50 249 -243 -248 0
-51 -249 243 0
-51 249 -243 0
-52 -249 243 0
-52 249 -243 0
-53 -249 243 0
-53 249 -243 0
-54 -249 243 0
-54 249 -243 0
-55 -249 243 0
-55 249 -243 0
-56 -249 243 0
-56 249 -243 0
-57 -249 243 0
-57 249 -243 0
-58 -249 243 0
-58 249 -243 0
-59 -249 243 0
-59 249 -243 0
-60 -249 243 0
-60 249 -243 0
-79 -249 243 0
-79 249 -243 0
-46 -244 250 0
-46 -243 250 0
-46 -250 244 243 0
-47 -250 244 0
-47 250 -244 0
-48 -250 244 0
-48 250 -244 0
-49 -250 244 0
-49 250 -244 0
-50 -250 244 0
-50 250 -244 0
-51 -250 244 0
-51 -250 245 0
-51 250 -244 -245 0
-52 -250 244 0
-52 -250 246 0
-52 250 -244 -246 0
-53 -250 244 0
-53 -250 247 0
-53 250 -244 -247 0
-54 -250 244 0
-54 -250 248 0
-54 250 -244 -248 0
-55 -250 244 0
-55 250 -244 0
-56 -250 244 0
-56 250 -244 0
-57 -250 244 0
-57 250 -244 0
-58 -250 244 0
-58 250 -244 0
-59 -250 244 0
-59 250 -244 0
-60 -250 244 0
-60 250 -244 0
-79 -250 244 0
-79 250 -244 0
-46 -251 245 0
-46 251 -245 0
-47 -245 251 0
-47 -243 251 0
-47 -251 245 243 0
-48 -251 245 0
-48 251 -245 0
-49 -251 245 0
-49 251 -245 0
-50 -251 245 0
-50 251 -245 0
-51 -245 251 0
-51 -244 251 0
-51 -251 245 244 0
-52 -251 245 0
-52 251 -245 0
-53 -251 245 0
-53 251 -245 0
-54 -251 245 0
-54 251 -245 0
-55 -251 245 0
-55 -251 246 0
-55 251 -245 -246 0
-56 -251 245 0
-56 -251 247 0
-56 251 -245 -247 0
-57 -251 245 0
-57 -251 248 0
-57 251 -245 -248 0
-58 -251 245 0
-58 251 -245 0
-59 -251 245 0
-59 251 -245 0
-60 -251 245 0
-60 251 -245 0
-79 -251 245 0
-79 251 -245 0
-46 -252 246 0
-46 252 -246 0
-47 -252 246 0
-47 252 -246 0
-48 -246 252 0
-48 -243 252 0
-48 -252 246 243 0
-49 -252 246 0
-49 252 -246 0
-50 -252 246 0
-50 252 -246 0
-51 -252 246 0
-51 252 -246 0
-52 -246 252 0
-52 -244 252 0
-52 -252 246 244 0
-53 -252 246 0
-53 252 -246 0
-54 -252 246 0
-54 252 -246 0
-55 -246 252 0
-55 -245 252 0
-55 -252 246 245 0
-56 -252 246 0
-56 252 -246 0
-57 -252 246 0
-57 252 -246 0
-58 -252 246 0
-58 -252 247 0
-58 252 -246 -247 0
-59 -252 246 0
-59 -252 248 0
-59 252 -246 -248 0
-60 -252 246 0
-60 252 -246 0
-79 -252 246 0
-79 252 -246 0
-46 -253 247 0
-46 253 -247 0
-47 -253 247 0
-47 253 -247 0
-48 -253 247 0
-48 253 -247 0
-49 -247 253 0
-49 -243 253 0
-49 -253 247 243 0
-50 -253 247 0
-50 253 -247 0
-51 -253 247 0
-51 253 -247 0
-52 -253 247 0
-52 253 -247 0
-53 -247 253 0
-53 -244 253 0
-53 -253 247 244 0
-54 -253 247 0
-54 253 -247 0
-55 -253 247 0
-55 253 -247 0
-56 -247 253 0
-56 -245 253 0
-56 -253 247 245 0
-57 -253 247 0
-57 253 -247 0
-58 -247 253 0
-58 -246 253 0
-58 -253 247 246 0
-59 -253 247 0
-59 253 -247 0
-60 -253 247 0
-60 -253 248 0
-60 253 -247 -248 0
-79 -253 247 0
-79 253 -247 0
-46 -254 248 0
-46 254 -248 0
-47 -254 248 0
-47 254 -248 0
-48 -254 248 0
-48 254 -248 0
-49 -254 248 0
-49 254 -248 0
-50 -248 254 0
-50 -243 254 0
-50 -254 248 243 0
-51 -254 248 0
-51 254 -248 0
-52 -254 248 0
-52 254 -248 0
-53 -254 248 0
-53 254 -248 0
-54 -248 254 0
-54 -244 254 0
-54 -254 248 244 0
-55 -254 248 0
-55 254 -248 0
-56 -254 248 0
-56 254 -248 0
-57 -248 254 0
-57 -245 254 0
-57 -254 248 245 0
-58 -254 248 0
-58 254 -248 0
-59 -248 254 0
-59 -246 254 0
-59 -254 248 246 0
-60 -248 254 0
-60 -247 254 0
-60 -254 248 247 0
-79 -254 248 0
-79 254 -248 0
-61 -255 249 0
-61 -255 250 0
-61 255 -249 -250 0
-62 -255 249 0
-62 -255 251 0
-62 255 -249 -251 0
-63 -255 249 0
-63 -255 252 0
-63 255 -249 -252 0
-64 -255 249 0
-64 -255 253 0
-64 255 -249 -253 0
-65 -255 249 0
-65 -255 254 0
-65 255 -249 -254 0
-66 -255 249 0
-66 255 -249 0
-67 -255 249 0
-67 255 -249 0
-68 -255 249 0
-68 255 -249 0
-69 -255 249 0
-69 255 -249 0
-70 -255 249 0
-70 255 -249 0
-71 -255 249 0
-71 255 -249 0
-72 -255 249 0
-72 255 -249 0
-73 -255 249 0
-73 255 -249 0
-74 -255 249 0
-74 255 -249 0
-75 -255 249 0
-75 255 -249 0
-80 -255 249 0
-80 255 -249 0
-61 -250 256 0
-61 -249 256 0
-61 -256 250 249 0
-62 -256 250 0
-62 256 -250 0
-63 -256 250 0
-63 256 -250 0
-64 -256 250 0
-64 256 -250 0
-65 -256 250 0
-65 256 -250 0
-66 -256 250 0
-66 -256 251 0
-66 256 -250 -251 0
-67 -256 250 0
-67 -256 252 0
-67 256 -250 -252 0
-68 -256 250 0
-68 -256 253 0
-68 256 -250 -253 0
-69 -256 250 0
-69 -256 254 0
-69 256 -250 -254 0
-70 -256 250 0
-70 256 -250 0
-71 -256 250 0
-71 256 -250 0
-72 -256 250 0
-72 256 -250 0
-73 -256 250 0
-73 256 -250 0
-74 -256 250 0
-74 256 -250 0
-75 -256 250 0
-75 256 -250 0
-80 -256 250 0
-80 256 -250 0
-61 -257 251 0
-61 257 -251 0
-62 -251 257 0
-62 -249 257 0
-62 -257 251 249 0
-63 -257 251 0
-63 257 -251 0
-64 -257 251 0
-64 257 -251 0
-65 -257 251 0
-65 257 -251 0
-66 -251 257 0
-66 -250 257 0
-66 -257 251 250 0
-67 -257 251 0
-67 257 -251 0
-68 -257 251 0
-68 257 -251 0
-69 -257 251 0
-69 257 -251 0
-70 -257 251 0
-70 -257 252 0
-70 257 -251 -252 0
-71 -257 251 0
-71 -257 253 0
-71 257 -251 -253 0
-72 -257 251 0
-72 -257 254 0
-72 257 -251 -254 0
-73 -257 251 0
-73 257 -251 0
-74 -257 251 0
-74 257 -251 0
-75 -257 251 0
-75 257 -251 0
-80 -257 251 0
-80 257 -251 0
-61 -258 252 0
-61 258 -252 0
-62 -258 252 0
-62 258 -252 0
-63 -252 258 0
-63 -249 258 0
-63 -258 252 249 0
-64 -258 252 0
-64 258 -252 0
-65 -258 252 0
-65 258 -252 0
-66 -258 252 0
-66 258 -252 0
-67 -252 258 0
-67 -250 258 0
-67 -258 252 250 0
-68 -258 252 0
-68 258 -252 0
-69 -258 252 0
-69 258 -252 0
-70 -252 258 0
-70 -251 258 0
-70 -258 252 251 0
-71 -258 252 0
-71 258 -252 0
-72 -258 252 0
-72 258 -252 0
-73 -258 252 0
-73 -258 253 0
-73 258 -252 -253 0
-74 -258 252 0
-74 -258 254 0
-74 258 -252 -254 0
-75 -258 252 0
-75 258 -252 0
-80 -258 252 0
-80 258 -252 0
-61 -259 253 0
-61 259 -253 0
-62 -259 253 0
-62 259 -253 0
-63 -259 253 0
-63 259 -253 0
-64 -253 259 0
-64 -249 259 0
-64 -259 253 249 0
-65 -259 253 0
-65 259 -253 0
-66 -259 253 0
-66 259 -253 0
-67 -259 253 0
-67 259 -253 0
-68 -253 259 0
-68 -250 259 0
-68 -259 253 250 0
-69 -259 253 0
-69 259 -253 0
-70 -259 253 0
-70 259 -253 0
-71 -253 259 0
-71 -251 259 0
-71 -259 253 251 0
-72 -259 253 0
-72 259 -253 0
-73 -253 259 0
-73 -252 259 0
-73 -259 253 252 0
-74 -259 253 0
-74 259 -253 0
-75 -259 253 0
-75 -259 254 0
-75 259 -253 -254 0
-80 -259 253 0
-80 259 -253 0
-61 -260 254 0
-61 260 -254 0
-62 -260 254 0
-62 260 -254 0
-63 -260 254 0
-63 260 -254 0
-64 -260 254 0
-64 260 -254 0
-65 -254 260 0
-65 -249 260 0
-65 -260 254 249 0
-66 -260 254 0
-66 260 -254 0
-67 -260 254 0
-67 260 -254 0
-68 -260 254 0
-68 260 -254 0
-69 -254 260 0
-69 -250 260 0
-69 -260 254 250 0
-70 -260 254 0
-70 260 -254 0
-71 -260 254 0
-71 260 -254 0
-72 -254 260 0
-72 -251 260 0
-72 -260 254 251 0
-73 -260 254 0
-73 260 -254 0
-74 -254 260 0
-74 -252 260 0
-74 -260 254 252 0
-75 -254 260 0
-75 -253 260 0
-75 -260 254 253 0
-80 -260 254 0
-80 260 -254 0
-261 0
-1 -267 261 0
-1 -267 262 0
-1 267 -261 -262 0
-2 -267 261 0
-2 -267 263 0
-2 267 -261 -263 0
-3 -267 261 0
-3 -267 264 0
-3 267 -261 -264 0
-4 -267 261 0
-4 -267 265 0
-4 267 -261 -265 0
-5 -267 261 0
-5 -267 266 0
-5 267 -261 -266 0
-6 -267 261 0
-6 267 -261 0
-7 -267 261 0
-7 267 -261 0
-8 -267 261 0
-8 267 -261 0
-9 -267 261 0
-9 267 -261 0
-10 -267 261 0
-10 267 -261 0
-11 -267 261 0
-11 267 -261 0
-12 -267 261 0
-12 267 -261 0
-13 -267 261 0
-13 267 -261 0
-14 -267 261 0
-14 267 -261 0
-15 -267 261 0
-15 267 -261 0
-76 -267 261 0
-76 267 -261 0
-262 0
-1 -262 268 0
-1 -261 268 0
-1 -268 262 261 0
-2 -268 262 0
-2 268 -262 0
-3 -268 262 0
-3 268 -262 0
-4 -268 262 0
-4 268 -262 0
-5 -268 262 0
-5 268 -262 0
-6 -268 262 0
-6 -268 263 0
-6 268 -262 -263 0
-7 -268 262 0
-7 -268 264 0
-7 268 -262 -264 0
-8 -268 262 0
-8 -268 265 0
-8 268 -262 -265 0
-9 -268 262 0
-9 -268 266 0
-9 268 -262 -266 0
-10 -268 262 0
-10 268 -262 0
-11 -268 262 0
-11 268 -262 0
-12 -268 262 0
-12 268 -262 0
-13 -268 262 0
-13 268 -262 0
-14 -268 262 0
-14 268 -262 0
-15 -268 262 0
-15 268 -262 0
-76 -268 262 0
-76 268 -262 0
263 0
-1 -269 263 0
-1 269 -263 0
-2 -263 269 0
-2 -261 269 0
-2 -269 263 261 0
-3 -269 263 0
-3 269 -263 0
-4 -269 263 0
-4 269 -263 0
-5 -269 263 0
-5 269 -263 0
-6 -263 269 0
-6 -262 269 0
-6 -269 263 262 0
-7 -269 263 0
-7 269 -263 0
-8 -269 263 0
-8 269 -263 0
-9 -269 263 0
-9 269 -263 0
-10 -269 263 0
-10 -269 264 0
-10 269 -263 -264 0
-11 -269 263 0
-11 -269 265 0
-11 269 -263 -265 0
-12 -269 263 0
-12 -269 266 0
-12 269 -263 -266 0
-13 -269 263 0
-13 269 -263 0
-14 -269 263 0
-14 269 -263 0
-15 -269 263 0
-15 269 -263 0
-76 -269 263 0
-76 269 -263 0
-264 0
-1 -270 264 0
-1 270 -264 0
-2 -270 264 0
-2 270 -264 0
-3 -264 270 0
-3 -261 270 0
-3 -270 264 261 0
-4 -270 264 0
-4 270 -264 0
-5 -270 264 0
-5 270 -264 0
-6 -270 264 0
-6 270 -264 0
-7 -264 270 0
-7 -262 270 0
-7 -270 264 262 0
-8 -270 264 0
-8 270 -264 0
-9 -270 264 0
-9 270 -264 0
-10 -264 270 0
-10 -263 270 0
-10 -270 264 263 0
-11 -270 264 0
-11 270 -264 0
-12 -270 264 0
-12 270 -264 0
-13 -270 264 0
-13 -270 265 0
-13 270 -264 -265 0
-14 -270 264 0
-14 -270 266 0
-14 270 -264 -266 0
-15 -270 264 0
-15 270 -264 0
-76 -270 264 0
-76 270 -264 0
-265 0
-1 -271 265 0
-1 271 -265 0
-2 -271 265 0
-2 271 -265 0
-3 -271 265 0
-3 271 -265 0
-4 -265 271 0
-4 -261 271 0
-4 -271 265 261 0
-5 -271 265 0
-5 271 -265 0
-6 -271 265 0
-6 271 -265 0
-7 -271 265 0
-7 271 -265 0
-8 -265 271 0
-8 -262 271 0
-8 -271 265 262 0
-9 -271 265 0
-9 271 -265 0
-10 -271 265 0
-10 271 -265 0
-11 -265 271 0
-11 -263 271 0
-11 -271 265 263 0
-12 -271 265 0
-12 271 -265 0
-13 -265 271 0
-13 -264 271 0
-13 -271 265 264 0
-14 -271 265 0
-14 271 -265 0
-15 -271 265 0
-15 -271 266 0
-15 271 -265 -266 0
-76 -271 265 0
-76 271 -265 0
266 0
-1 -272 266 0
-1 272 -266 0
-2 -272 266 0
-2 272 -266 0
-3 -272 266 0
-3 272 -266 0
-4 -272 266 0
-4 272 -266 0
-5 -266 272 0
-5 -261 272 0
-5 -272 266 261 0
-6 -272 266 0
-6 272 -266 0
-7 -272 266 0
-7 272 -266 0
-8 -272 266 0
-8 272 -266 0
-9 -266 272 0
-9 -262 272 0
-9 -272 266 262 0
-10 -272 266 0
-10 272 -266 0
-11 -272 266 0
-11 272 -266 0
-12 -266 272 0
-12 -263 272 0
-12 -272 266 263 0
-13 -272 266 0
-13 272 -266 0
-14 -266 272 0
-14 -264 272 0
-14 -272 266 264 0
-15 -266 272 0
-15 -265 272 0
-15 -272 266 265 0
-76 -272 266 0
-76 272 -266 0
-16 -273 267 0
-16 -273 268 0
-16 273 -267 -268 0
-17 -273 267 0
-17 -273 269 0
-17 273 -267 -269 0
-18 -273 267 0
-18 -273 270 0
-18 273 -267 -270 0
-19 -273 267 0
-19 -273 271 0
-19 273 -267 -271 0
-20 -273 267 0
-20 -273 272 0
-20 273 -267 -272 0
-21 -273 267 0
-21 273 -267 0
-22 -273 267 0
-22 273 -267 0
-23 -273 267 0
-23 273 -267 0
-24 -273 267 0
-24 273 -267 0
-25 -273 267 0
-25 273 -267 0
-26 -273 267 0
-26 273 -267 0
-27 -273 267 0
-27 273 -267 0
-28 -273 267 0
-28 273 -267 0
-29 -273 267 0
-29 273 -267 0
-30 -273 267 0
-30 273 -267 0
-77 -273 267 0
-77 273 -267 0
-16 -268 274 0
-16 -267 274 0
-16 -274 268 267 0
-17 -274 268 0
-17 274 -268 0
-18 -274 268 0
-18 274 -268 0
-19 -274 268 0
-19 274 -268 0
-20 -274 268 0
-20 274 -268 0
-21 -274 268 0
-21 -274 269 0
-21 274 -268 -269 0
-22 -274 268 0
-22 -274 270 0
-22 274 -268 -270 0
-23 -274 268 0
-23 -274 271 0
-23 274 -268 -271 0
-24 -274 268 0
-24 -274 272 0
-24 274 -268 -272 0
-25 -274 268 0
-25 274 -268 0
-26 -274 268 0
-26 274 -268 0
-27 -274 268 0
-27 274 -268 0
-28 -274 268 0
-28 274 -268 0
-29 -274 268 0
-29 274 -268 0
-30 -274 268 0
-30 274 -268 0
-77 -274 268 0
-77 274 -268 0
-16 -275 269 0
-16 275 -269 0
-17 -269 275 0
-17 -267 275 0
-17 -275 269 267 0
-18 -275 269 0
-18 275 -269 0
-19 -275 269 0
-19 275 -269 0
-20 -275 269 0
-20 275 -269 0
-21 -269 275 0
-21 -268 275 0
-21 -275 269 268 0
-22 -275 269 0
-22 275 -269 0
-23 -275 269 0
-23 275 -269 0
-24 -275 269 0
-24 275 -269 0
-25 -275 269 0
-25 -275 270 0
-25 275 -269 -270 0
-26 -275 269 0
-26 -275 271 0
-26 275 -269 -271 0
-27 -275 269 0
-27 -275 272 0
-27 275 -269 -272 0
-28 -275 269 0
-28 275 -269 0
-29 -275 269 0
-29 275 -269 0
-30 -275 269 0
-30 275 -269 0
-77 -275 269 0
-77 275 -269 0
-16 -276 270 0
-16 276 -270 0
-17 -276 270 0
-17 276 -270 0
-18 -270 276 0
-18 -267 276 0
-18 -276 270 267 0
-19 -276 270 0
-19 276 -270 0
-20 -276 270 0
-20 276 -270 0
-21 -276 270 0
-21 276 -270 0
-22 -270 276 0
-22 -268 276 0
-22 -276 270 268 0
-23 -276 270 0
-23 276 -270 0
-24 -276 270 0
-24 276 -270 0
-25 -270 276 0
-25 -269 276 0
-25 -276 270 269 0
-26 -276 270 0
-26 276 -270 0
-27 -276 270 0
-27 276 -270 0
-28 -276 270 0
-28 -276 271 0
-28 276 -270 -271 0
-29 -276 270 0
-29 -276 272 0
-29 276 -270 -272 0
-30 -276 270 0
-30 276 -270 0
-77 -276 270 0
-77 276 -270 0
-16 -277 271 0
-16 277 -271 0
-17 -277 271 0
-17 277 -271 0
-18 -277 271 0
-18 277 -271 0
-19 -271 277 0
-19 -267 277 0
-19 -277 271 267 0
-20 -277 271 0
-20 277 -271 0
-21 -277 271 0
-21 277 -271 0
-22 -277 271 0
-22 277 -271 0
-23 -271 277 0
-23 -268 277 0
-23 -277 271 268 0
-24 -277 271 0
-24 277 -271 0
-25 -277 271 0
-25 277 -271 0
-26 -271 277 0
-26 -269 277 0
-26 -277 271 269 0
-27 -277 271 0
-27 277 -271 0
-28 -271 277 0
-28 -270 277 0
-28 -277 271 270 0
-29 -277 271 0
-29 277 -271 0
-30 -277 271 0
-30 -277 272 0
-30 277 -271 -272 0
-77 -277 271 0
-77 277 -271 0
-16 -278 272 0
-16 278 -272 0
-17 -278 272 0
-17 278 -272 0
-18 -278 272 0
-18 278 -272 0
-19 -278 272 0
-19 278 -272 0
-20 -272 278 0
-20 -267 278 0
-20 -278 272 267 0
-21 -278 272 0
-21 278 -272 0
-22 -278 272 0
-22 278 -272 0
-23 -278 272 0
-23 278 -272 0
-24 -272 278 0
-24 -268 278 0
-24 -278 272 268 0
-25 -278 272 0
-25 278 -272 0
-26 -278 272 0
-26 278 -272 0
-27 -272 278 0
-27 -269 278 0
-27 -278 272 269 0
-28 -278 272 0
-28 278 -272 0
-29 -272 278 0
-29 -270 278 0
-29 -278 272 270 0
-30 -272 278 0
-30 -271 278 0
-30 -278 272 271 0
-77 -278 272 0
-77 278 -272 0
-31 -279 273 0
-31 -279 274 0
-31 279 -273 -274 0
-32 -279 273 0
-32 -279 275 0
-32 279 -273 -275 0
-33 -279 273 0
-33 -279 276 0
-33 279 -273 -276 0
-34 -279 273 0
-34 -279 277 0
-34 279 -273 -277 0
-35 -279 273 0
-35 -279 278 0
-35 279 -273 -278 0
-36 -279 273 0
-36 279 -273 0
-37 -279 273 0
-37 279 -273 0
-38 -279 273 0
-38 279 -273 0
-39 -279 273 0
-39 279 -273 0
-40 -279 273 0
-40 279 -273 0
-41 -279 273 0
-41 279 -273 0
-42 -279 273 0
-42 279 -273 0
-43 -279 273 0
-43 279 -273 0
-44 -279 273 0
-44 279 -273 0
-45 -279 273 0
-45 279 -273 0
-78 -279 273 0
-78 279 -273 0
-31 -274 280 0
-31 -273 280 0
-31 -280 274 273 0
-32 -280 274 0
-32 280 -274 0
-33 -280 274 0
-33 280 -274 0
-34 -280 274 0
-34 280 -274 0
-35 -280 274 0
-35 280 -274 0
-36 -280 274 0
-36 -280 275 0
-36 280 -274 -275 0
-37 -280 274 0
-37 -280 276 0
-37 280 -274 -276 0
-38 -280 274 0
-38 -280 277 0
-38 280 -274 -277 0
-39 -280 274 0
-39 -280 278 0
-39 280 -274 -278 0
-40 -280 274 0
-40 280 -274 0
-41 -280 274 0
-41 280 -274 0
-42 -280 274 0
-42 280 -274 0
-43 -280 274 0
-43 280 -274 0
-44 -280 274 0
-44 280 -274 0
-45 -280 274 0
-45 280 -274 0
-78 -280 274 0
-78 280 -274 0
-31 -281 275 0
-31 281 -275 0
-32 -275 281 0
-32 -273 281 0
-32 -281 275 273 0
-33 -281 275 0
-33 281 -275 0
-34 -281 275 0
-34 281 -275 0
-35 -281 275 0
-35 281 -275 0
-36 -275 281 0
-36 -274 281 0
-36 -281 275 274 0
-37 -281 275 0
-37 281 -275 0
-38 -281 275 0
-38 281 -275 0
-39 -281 275 0
-39 281 -275 0
-40 -281 275 0
-40 -281 276 0
-40 281 -275 -276 0
-41 -281 275 0
-41 -281 277 0
-41 281 -275 -277 0
-42 -281 275 0
-42 -281 278 0
-42 281 -275 -278 0
-43 -281 275 0
-43 281 -275 0
-44 -281 275 0
-44 281 -275 0
-45 -281 275 0
-45 281 -275 0
-78 -281 275 0
-78 281 -275 0
-31 -282 276 0
-31 282 -276 0
-32 -282 276 0
-32 282 -276 0
-33 -276 282 0
-33 -273 282 0
-33 -282 276 273 0
-34 -282 276 0
-34 282 -276 0
-35 -282 276 0
-35 282 -276 0
-36 -282 276 0
-36 282 -276 0
-37 -276 282 0
-37 -274 282 0
-37 -282 276 274 0
-38 -282 276 0
-38 282 -276 0
-39 -282 276 0
-39 282 -276 0
-40 -276 282 0
-40 -275 282 0
-40 -282 276 275 0
-41 -282 276 0
-41 282 -276 0
-42 -282 276 0
-42 282 -276 0
-43 -282 276 0
-43 -282 277 0
-43 282 -276 -277 0
-44 -282 276 0
-44 -282 278 0
-44 282 -276 -278 0
-45 -282 276 0
-45 282 -276 0
-78 -282 276 0
-78 282 -276 0
-31 -283 277 0
-31 283 -277 0
-32 -283 277 0
-32 283 -277 0
-33 -283 277 0
-33 283 -277 0
-34 -277 283 0
-34 -273 283 0
-34 -283 277 273 0
-35 -283 277 0
-35 283 -277 0
-36 -283 277 0
-36 283 -277 0
-37 -283 277 0
-37 283 -277 0
-38 -277 283 0
-38 -274 283 0
-38 -283 277 274 0
-39 -283 277 0
-39 283 -277 0
-40 -283 277 0
-40 283 -277 0
-41 -277 283 0
-41 -275 283 0
-41 -283 277 275 0
-42 -283 277 0
-42 283 -277 0
-43 -277 283 0
-43 -276 283 0
-43 -283 277 276 0
-44 -283 277 0
-44 283 -277 0
-45 -283 277 0
-45 -283 278 0
-45 283 -277 -278 0
-78 -283 277 0
-78 283 -277 0
-31 -284 278 0
-31 284 -278 0
-32 -284 278 0
-32 284 -278 0
-33 -284 278 0
-33 284 -278 0
-34 -284 278 0
-34 284 -278 0
-35 -278 284 0
-35 -273 284 0
-35 -284 278 273 0
-36 -284 278 0
-36 284 -278 0
-37 -284 278 0
-37 284 -278 0
-38 -284 278 0
-38 284 -278 0
-39 -278 284 0
-39 -274 284 0
-39 -284 278 274 0
-40 -284 278 0
-40 284 -278 0
-41 -284 278 0
-41 284 -278 0
-42 -278 284 0
-42 -275 284 0
-42 -284 278 275 0
-43 -284 278 0
-43 284 -278 0
-44 -278 284 0
-44 -276 284 0
-44 -284 278 276 0
-45 -278 284 0
-45 -277 284 0
-45 -284 278 277 0
-78 -284 278 0
-78 284 -278 0
-46 -285 279 0
-46 -285 280 0
-46 285 -279 -280 0
-47 -285 279 0
-47 -285 281 0
-47 285 -279 -281 0
-48 -285 279 0
-48 -285 282 0
-48 285 -279 -282 0
-49 -285 279 0
-49 -285 283 0
-49 285 -279 -283 0
-50 -285 279 0
-50 -285 284 0
-50 285 -279 -284 0
-51 -285 279 0
-51 285 -279 0
-52 -285 279 0
-52 285 -279 0
-53 -285 279 0
-53 285 -279 0
-54 -285 279 0
-54 285 -279 0
-55 -285 279 0
-55 285 -279 0
-56 -285 279 0
-56 285 -279 0
-57 -285 279 0
-57 285 -279 0
-58 -285 279 0
-58 285 -279 0
-59 -285 279 0
-59 285 -279 0
-60 -285 279 0
-60 285 -279 0
-79 -285 279 0
-79 285 -279 0
-46 -280 286 0
-46 -279 286 0
-46 -286 280 279 0
-47 -286 280 0
-47 286 -280 0
-48 -286 280 0
-48 286 -280 0
-49 -286 280 0
-49 286 -280 0
-50 -286 280 0
-50 286 -280 0
-51 -286 280 0
-51 -286 281 0
-51 286 -280 -281 0
-52 -286 280 0
-52 -286 282 0
-52 286 -280 -282 0
-53 -286 280 0
-53 -286 283 0
-53 286 -280 -283 0
-54 -286 280 0
-54 -286 284 0
-54 286 -280 -284 0
-55 -286 280 0
-55 286 -280 0
-56 -286 280 0
-56 286 -280 0
-57 -286 280 0
-57 286 -280 0
-58 -286 280 0
-58 286 -280 0
-59 -286 280 0
-59 286 -280 0
-60 -286 280 0
-60 286 -280 0
-79 -286 280 0
-79 286 -280 0
-46 -287 281 0
-46 287 -281 0
-47 -281 287 0
-47 -279 287 0
-47 -287 281 279 0
-48 -287 281 0
-48 287 -281 0
-49 -287 281 0
-49 287 -281 0
-50 -287 281 0
-50 287 -281 0
-51 -281 287 0
-51 -280 287 0
-51 -287 281 280 0
-52 -287 281 0
-52 287 -281 0
-53 -287 281 0
-53 287 -281 0
-54 -287 281 0
-54 287 -281 0
-55 -287 281 0
-55 -287 282 0
-55 287 -281 -282 0
-56 -287 281 0
-56 -287 283 0
-56 287 -281 -283 0
-57 -287 281 0
-57 -287 284 0
-57 287 -281 -284 0
-58 -287 281 0
-58 287 -281 0
-59 -287 281 0
-59 287 -281 0
-60 -287 281 0
-60 287 -281 0
-79 -287 281 0
-79 287 -281 0
-46 -288 282 0
-46 288 -282 0
-47 -288 282 0
-47 288 -282 0
-48 -282 288 0
-48 -279 288 0
-48 -288 282 279 0
-49 -288 282 0
-49 288 -282 0
-50 -288 282 0
-50 288 -282 0
-51 -288 282 0
-51 288 -282 0
-52 -282 288 0
-52 -280 288 0
-52 -288 282 280 0
-53 -288 282 0
-53 288 -282 0
-54 -288 282 0
-54 288 -282 0
-55 -282 288 0
-55 -281 288 0
-55 -288 282 281 0
-56 -288 282 0
-56 288 -282 0
-57 -288 282 0
-57 288 -282 0
-58 -288 282 0
-58 -288 283 0
-58 288 -282 -283 0
-59 -288 282 0
-59 -288 284 0
-59 288 -282 -284 0
-60 -288 282 0
-60 288 -282 0
-79 -288 282 0
-79 288 -282 0
-46 -289 283 0
-46 289 -283 0
-47 -289 283 0
-47 289 -283 0
-48 -289 283 0
-48 289 -283 0
-49 -283 289 0
-49 -279 289 0
-49 -289 283 279 0
-50 -289 283 0
-50 289 -283 0
-51 -289 283 0
-51 289 -283 0
-52 -289 283 0
-52 289 -283 0
-53 -283 289 0
-53 -280 289 0
-53 -289 283 280 0
-54 -289 283 0
-54 289 -283 0
-55 -289 283 0
-55 289 -283 0
-56 -283 289 0
-56 -281 289 0
-56 -289 283 281 0
-57 -289 283 0
-57 289 -283 0
-58 -283 289 0
-58 -282 289 0
-58 -289 283 282 0
-59 -289 283 0
-59 289 -283 0
-60 -289 283 0
-60 -289 284 0
-60 289 -283 -284 0
-79 -289 283 0
-79 289 -283 0
-46 -290 284 0
-46 290 -284 0
-47 -290 284 0
-47 290 -284 0
-48 -290 284 0
-48 290 -284 0
-49 -290 284 0
-49 290 -284 0
-50 -284 290 0
-50 -279 290 0
-50 -290 284 279 0
-51 -290 284 0
-51 290 -284 0
-52 -290 284 0
-52 290 -284 0
-53 -290 284 0
-53 290 -284 0
-54 -284 290 0
-54 -280 290 0
-54 -290 284 280 0
-55 -290 284 0
-55 290 -284 0
-56 -290 284 0
-56 290 -284 0
-57 -284 290 0
-57 -281 290 0
-57 -290 284 281 0
-58 -290 284 0
-58 290 -284 0
-59 -284 290 0
-59 -282 290 0
-59 -290 284 282 0
-60 -284 290 0
-60 -283 290 0
-60 -290 284 283 0
-79 -290 284 0
-79 290 -284 0
-61 -291 285 0
-61 -291 286 0
-61 291 -285 -286 0
-62 -291 285 0
-62 -291 287 0
-62 291 -285 -287 0
-63 -291 285 0
-63 -291 288 0
-63 291 -285 -288 0
-64 -291 285 0
-64 -291 289 0
-64 291 -285 -289 0
-65 -291 285 0
-65 -291 290 0
-65 291 -285 -290 0
-66 -291 285 0
-66 291 -285 0
-67 -291 285 0
-67 291 -285 0
-68 -291 285 0
-68 291 -285 0
-69 -291 285 0
-69 291 -285 0
-70 -291 285 0
-70 291 -285 0
-71 -291 285 0
-71 291 -285 0
-72 -291 285 0
-72 291 -285 0
-73 -291 285 0
-73 291 -285 0
-74 -291 285 0
-74 291 -285 0
-75 -291 285 0
-75 291 -285 0
-80 -291 285 0
-80 291 -285 0
-61 -286 292 0
-61 -285 292 0
-61 -292 286 285 0
-62 -292 286 0
-62 292 -286 0
-63 -292 286 0
-63 292 -286 0
-64 -292 286 0
-64 292 -286 0
-65 -292 286 0
-65 292 -286 0
-66 -292 286 0
-66 -292 287 0
-66 292 -286 -287 0
-67 -292 286 0
-67 -292 288 0
-67 292 -286 -288 0
-68 -292 286 0
-68 -292 289 0
-68 292 -286 -289 0
-69 -292 286 0
-69 -292 290 0
-69 292 -286 -290 0
-70 -292 286 0
-70 292 -286 0
-71 -292 286 0
-71 292 -286 0
-72 -292 286 0
-72 292 -286 0
-73 -292 286 0
-73 292 -286 0
-74 -292 286 0
-74 292 -286 0
-75 -292 286 0
-75 292 -286 0
-80 -292 286 0
-80 292 -286 0
-61 -293 287 0
-61 293 -287 0
-62 -287 293 0
-62 -285 293 0
-62 -293 287 285 0
-63 -293 287 0
-63 293 -287 0
-64 -293 287 0
-64 293 -287 0
-65 -293 287 0
-65 293 -287 0
-66 -287 293 0
-66 -286 293 0
-66 -293 287 286 0
-67 -293 287 0
-67 293 -287 0
-68 -293 287 0
-68 293 -287 0
-69 -293 287 0
-69 293 -287 0
-70 -293 287 0
-70 -293 288 0
-70 293 -287 -288 0
-71 -293 287 0
-71 -293 289 0
-71 293 -287 -289 0
-72 -293 287 0
-72 -293 290 0
-72 293 -287 -290 0
-73 -293 287 0
-73 293 -287 0
-74 -293 287 0
-74 293 -287 0
-75 -293 287 0
-75 293 -287 0
-80 -293 287 0
-80 293 -287 0
-61 -294 288 0
-61 294 -288 0
-62 -294 288 0
-62 294 -288 0
-63 -288 294 0
-63 -285 294 0
-63 -294 288 285 0
-64 -294 288 0
-64 294 -288 0
-65 -294 288 0
-65 294 -288 0
-66 -294 288 0
-66 294 -288 0
-67 -288 294 0
-67 -286 294 0
-67 -294 288 286 0
-68 -294 288 0
-68 294 -288 0
-69 -294 288 0
-69 294 -288 0
-70 -288 294 0
-70 -287 294 0
-70 -294 288 287 0
-71 -294 288 0
-71 294 -288 0
-72 -294 288 0
-72 294 -288 0
-73 -294 288 0
-73 -294 289 0
-73 294 -288 -289 0
-74 -294 288 0
-74 -294 290 0
-74 294 -288 -290 0
-75 -294 288 0
-75 294 -288 0
-80 -294 288 0
-80 294 -288 0
-61 -295 289 0
-61 295 -289 0
-62 -295 289 0
-62 295 -289 0
-63 -295 289 0
-63 295 -289 0
-64 -289 295 0
-64 -285 295 0
-64 -295 289 285 0
-65 -295 289 0
-65 295 -289 0
-66 -295 289 0
-66 295 -289 0
-67 -295 289 0
-67 295 -289 0
-68 -289 295 0
-68 -286 295 0
-68 -295 289 286 0
-69 -295 289 0
-69 295 -289 0
-70 -295 289 0
-70 295 -289 0
-71 -289 295 0
-71 -287 295 0
-71 -295 289 287 0
-72 -295 289 0
-72 295 -289 0
-73 -289 295 0
-73 -288 295 0
-73 -295 289 288 0
-74 -295 289 0
-74 295 -289 0
-75 -295 289 0
-75 -295 290 0
-75 295 -289 -290 0
-80 -295 289 0
-80 295 -289 0
-61 -296 290 0
-61 296 -290 0
-62 -296 290 0
-62 296 -290 0
-63 -296 290 0
-63 296 -290 0
-64 -296 290 0
-64 296 -290 0
-65 -290 296 0
-65 -285 296 0
-65 -296 290 285 0
-66 -296 290 0
-66 296 -290 0
-67 -296 290 0
-67 296 -290 0
-68 -296 290 0
-68 296 -290 0
-69 -290 296 0
-69 -286 296 0
-69 -296 290 286 0
-70 -296 290 0
-70 296 -290 0
-71 -296 290 0
-71 296 -290 0
-72 -290 296 0
-72 -287 296 0
-72 -296 290 287 0
-73 -296 290 0
-73 296 -290 0
-74 -290 296 0
-74 -288 296 0
-74 -296 290 288 0
-75 -290 296 0
-75 -289 296 0
-75 -296 290 289 0
-80 -296 290 0
-80 296 -290 0
-297 0
-1 -303 297 0
-1 -303 298 0
-1 303 -297 -298 0
-2 -303 297 0
-2 -303 299 0
-2 303 -297 -299 0
-3 -303 297 0
-3 -303 300 0
-3 303 -297 -300 0
-4 -303 297 0
-4 -303 301 0
-4 303 -297 -301 0
-5 -303 297 0
-5 -303 302 0
-5 303 -297 -302 0
-6 -303 297 0
-6 303 -297 0
-7 -303 297 0
-7 303 -297 0
-8 -303 297 0
-8 303 -297 0
-9 -303 297 0
-9 303 -297 0
-10 -303 297 0
-10 303 -297 0
-11 -303 297 0
-11 303 -297 0
-12 -303 297 0
-12 303 -297 0
-13 -303 297 0
-13 303 -297 0
-14 -303 297 0
-14 303 -297 0
-15 -303 297 0
-15 303 -297 0
-76 -303 297 0
-76 303 -297 0
-298 0
-1 -298 304 0
-1 -297 304 0
-1 -304 298 297 0
-2 -304 298 0
-2 304 -298 0
-3 -304 298 0
-3 304 -298 0
-4 -304 298 0
-4 304 -298 0
-5 -304 298 0
-5 304 -298 0
-6 -304 298 0
-6 -304 299 0
-6 304 -298 -299 0
-7 -304 298 0
-7 -304 300 0
-7 304 -298 -300 0
-8 -304 298 0
-8 -304 301 0
-8 304 -298 -301 0
-9 -304 298 0
-9 -304 302 0
-9 304 -298 -302 0
-10 -304 298 0
-10 304 -298 0
-11 -304 298 0
-11 304 -298 0
-12 -304 298 0
-12 304 -298 0
-13 -304 298 0
-13 304 -298 0
-14 -304 298 0
-14 304 -298 0
-15 -304 298 0
-15 304 -298 0
-76 -304 298 0
-76 304 -298 0
299 0
-1 -305 299 0
-1 305 -299 0
-2 -299 305 0
-2 -297 305 0
-2 -305 299 297 0
-3 -305 299 0
-3 305 -299 0
-4 -305 299 0
-4 305 -299 0
-5 -305 299 0
-5 305 -299 0
-6 -299 305 0
-6 -298 305 0
-6 -305 299 298 0
-7 -305 299 0
-7 305 -299 0
-8 -305 299 0
-8 305 -299 0
-9 -305 299 0
-9 305 -299 0
-10 -305 299 0
-10 -305 300 0
-10 305 -299 -300 0
-11 -305 299 0
-11 -305 301 0
-11 305 -299 -301 0
-12 -305 299 0
-12 -305 302 0
-12 305 -299 -302 0
-13 -305 299 0
-13 305 -299 0
-14 -305 299 0
-14 305 -299 0
-15 -305 299 0
-15 305 -299 0
-76 -305 299 0
-76 305 -299 0
-300 0
-1 -306 300 0
-1 306 -300 0
-2 -306 300 0
-2 306 -300 0
-3 -300 306 0
-3 -297 306 0
-3 -306 300 297 0
-4 -306 300 0
-4 306 -300 0
-5 -306 300 0
-5 306 -300 0
-6 -306 300 0
-6 306 -300 0
-7 -300 306 0
-7 -298 306 0
-7 -306 300 298 0
-8 -306 300 0
-8 306 -300 0
-9 -306 300 0
-9 306 -300 0
-10 -300 306 0
-10 -299 306 0
-10 -306 300 299 0
-11 -306 300 0
-11 306 -300 0
-12 -306 300 0
-12 306 -300 0
-13 -306 300 0
-13 -306 301 0
-13 306 -300 -301 0
-14 -306 300 0
-14 -306 302 0
-14 306 -300 -302 0
-15 -306 300 0
-15 306 -300 0
-76 -306 300 0
-76 306 -300 0
301 0
-1 -307 301 0
-1 307 -301 0
-2 -307 301 0
-2 307 -301 0
-3 -307 301 0
-3 307 -301 0
-4 -301 307 0
-4 -297 307 0
-4 -307 301 297 0
-5 -307 301 0
-5 307 -301 0
-6 -307 301 0
-6 307 -301 0
-7 -307 301 0
-7 307 -301 0
-8 -301 307 0
-8 -298 307 0
-8 -307 301 298 0
-9 -307 301 0
-9 307 -301 0
-10 -307 301 0
-10 307 -301 0
-11 -301 307 0
-11 -299 307 0
-11 -307 301 299 0
-12 -307 301 0
-12 307 -301 0
-13 -301 307 0
-13 -300 307 0
-13 -307 301 300 0
-14 -307 301 0
-14 307 -301 0
-15 -307 301 0
-15 -307 302 0
-15 307 -301 -302 0
-76 -307 301 0
-76 307 -301 0
302 0
-1 -308 302 0
-1 308 -302 0
-2 -308 302 0
-2 308 -302 0
-3 -308 302 0
-3 308 -302 0
-4 -308 302 0
-4 308 -302 0
-5 -302 308 0
-5 -297 308 0
-5 -308 302 297 0
-6 -308 302 0
-6 308 -302 0
-7 -308 302 0
-7 308 -302 0
-8 -308 302 0
-8 308 -302 0
-9 -302 308 0
-9 -298 308 0
-9 -308 302 298 0
-10 -308 302 0
-10 308 -302 0
-11 -308 302 0
-11 308 -302 0
-12 -302 308 0
-12 -299 308 0
-12 -308 302 299 0
-13 -308 302 0
-13 308 -302 0
-14 -302 308 0
-14 -300 308 0
-14 -308 302 300 0
-15 -302 308 0
-15 -301 308 0
-15 -308 302 301 0
-76 -308 302 0
-76 308 -302 0
-16 -309 303 0
-16 -309 304 0
-16 309 -303 -304 0
-17 -309 303 0
-17 -309 305 0
-17 309 -303 -305 0
-18 -309 303 0
-18 -309 306 0
-18 309 -303 -306 0
-19 -309 303 0
-19 -309 307 0
-19 309 -303 -307 0
-20 -309 303 0
-20 -309 308 0
-20 309 -303 -308 0
-21 -309 303 0
-21 309 -303 0
-22 -309 303 0
-22 309 -303 0
-23 -309 303 0
-23 309 -303 0
-24 -309 303 0
-24 309 -303 0
-25 -309 303 0
-25 309 -303 0
-26 -309 303 0
-26 309 -303 0
-27 -309 303 0
-27 309 -303 0
-28 -309 303 0
-28 309 -303 0
-29 -309 303 0
-29 309 -303 0
-30 -309 303 0
-30 309 -303 0
-77 -309 303 0
-77 309 -303 0
-16 -304 310 0
-16 -303 310 0
-16 -310 304 303 0
-17 -310 304 0
-17 310 -304 0
-18 -310 304 0
-18 310 -304 0
-19 -310 304 0
-19 310 -304 0
-20 -310 304 0
-20 310 -304 0
-21 -310 304 0
-21 -310 305 0
-21 310 -304 -305 0
-22 -310 304 0
-22 -310 306 0
-22 310 -304 -306 0
-23 -310 304 0
-23 -310 307 0
-23 310 -304 -307 0
-24 -310 304 0
-24 -310 308 0
-24 310 -304 -308 0
-25 -310 304 0
-25 310 -304 0
-26 -310 304 0
-26 310 -304 0
-27 -310 304 0
-27 310 -304 0
-28 -310 304 0
-28 310 -304 0
-29 -310 304 0
-29 310 -304 0
-30 -310 304 0
-30 310 -304 0
-77 -310 304 0
-77 310 -304 0
-16 -311 305 0
-16 311 -305 0
-17 -305 311 0
-17 -303 311 0
-17 -311 305 303 0
-18 -311 305 0
-18 311 -305 0
-19 -311 305 0
-19 311 -305 0
-20 -311 305 0
-20 311 -305 0
-21 -305 311 0
-21 -304 311 0
-21 -311 305 304 0
-22 -311 305 0
-22 311 -305 0
-23 -311 305 0
-23 311 -305 0
-24 -311 305 0
-24 311 -305 0
-25 -311 305 0
-25 -311 306 0
-25 311 -305 -306 0
-26 -311 305 0
-26 -311 307 0
-26 311 -305 -307 0
-27 -311 305 0
-27 -311 308 0
-27 311 -305 -308 0
-28 -311 305 0
-28 311 -305 0
-29 -311 305 0
-29 311 -305 0
-30 -311 305 0
-30 311 -305 0
-77 -311 305 0
-77 311 -305 0
-16 -312 306 0
-16 312 -306 0
-17 -312 306 0
-17 312 -306 0
-18 -306 312 0
-18 -303 312 0
-18 -312 306 303 0
-19 -312 306 0
-19 312 -306 0
-20 -312 306 0
-20 312 -306 0
-21 -312 306 0
-21 312 -306 0
-22 -306 312 0
-22 -304 312 0
-22 -312 306 304 0
-23 -312 306 0
-23 312 -306 0
-24 -312 306 0
-24 312 -306 0
-25 -306 312 0
-25 -305 312 0
-25 -312 306 305 0
-26 -312 306 0
-26 312 -306 0
-27 -312 306 0
-27 312 -306 0
-28 -312 306 0
-28 -312 307 0
-28 312 -306 -307 0
-29 -312 306 0
-29 -312 308 0
-29 312 -306 -308 0
-30 -312 306 0
-30 312 -306 0
-77 -312 306 0
-77 312 -306 0
-16 -313 307 0
-16 313 -307 0
-17 -313 307 0
-17 313 -307 0
-18 -313 307 0
-18 313 -307 0
-19 -307 313 0
-19 -303 313 0
-19 -313 307 303 0
-20 -313 307 0
-20 313 -307 0
-21 -313 307 0
-21 313 -307 0
-22 -313 307 0
-22 313 -307 0
-23 -307 313 0
-23 -304 313 0
-23 -313 307 304 0
-24 -313 307 0
-24 313 -307 0
-25 -313 307 0
-25 313 -307 0
-26 -307 313 0
-26 -305 313 0
-26 -313 307 305 0
-27 -313 307 0
-27 313 -307 0
-28 -307 313 0
-28 -306 313 0
-28 -313 307 306 0
-29 -313 307 0
-29 313 -307 0
-30 -313 307 0
-30 -313 308 0
-30 313 -307 -308 0
-77 -313 307 0
-77 313 -307 0
-16 -314 308 0
-16 314 -308 0
-17 -314 308 0
-17 314 -308 0
-18 -314 308 0
-18 314 -308 0
-19 -314 308 0
-19 314 -308 0
-20 -308 314 0
-20 -303 314 0
-20 -314 308 303 0
-21 -314 308 0
-21 314 -308 0
-22 -314 308 0
-22 314 -308 0
-23 -314 308 0
-23 314 -308 0
-24 -308 314 0
-24 -304 314 0
-24 -314 308 304 0
-25 -314 308 0
-25 314 -308 0
-26 -314 308 0
-26 314 -308 0
-27 -308 314 0
-27 -305 314 0
-27 -314 308 305 0
-28 -314 308 0
-28 314 -308 0
-29 -308 314 0
-29 -306 314 0
-29 -314 308 306 0
-30 -308 314 0
-30 -307 314 0
-30 -314 308 307 0
-77 -314 308 0
-77 314 -308 0
-31 -315 309 0
-31 -315 310 0
-31 315 -309 -310 0
-32 -315 309 0
-32 -315 311 0
-32 315 -309 -311 0
-33 -315 309 0
-33 -315 312 0
-33 315 -309 -312 0
-34 -315 309 0
-34 -315 313 0
-34 315 -309 -313 0
-35 -315 309 0
-35 -315 314 0
-35 315 -309 -314 0
-36 -315 309 0
-36 315 -309 0
-37 -315 309 0
-37 315 -309 0
-38 -315 309 0
-38 315 -309 0
-39 -315 309 0
-39 315 -309 0
-40 -315 309 0
-40 315 -309 0
-41 -315 309 0
-41 315 -309 0
-42 -315 309 0
-42 315 -309 0
-43 -315 309 0
-43 315 -309 0
-44 -315 309 0
-44 315 -309 0
-45 -315 309 0
-45 315 -309 0
-78 -315 309 0
-78 315 -309 0
-31 -310 316 0
-31 -309 316 0
-31 -316 310 309 0
-32 -316 310 0
-32 316 -310 0
-33 -316 310 0
-33 316 -310 0
-34 -316 310 0
-34 316 -310 0
-35 -316 310 0
-35 316 -310 0
-36 -316 310 0
-36 -316 311 0
-36 316 -310 -311 0
-37 -316 310 0
-37 -316 312 0
-37 316 -310 -312 0
-38 -316 310 0
-38 -316 313 0
-38 316 -310 -313 0
-39 -316 310 0
-39 -316 314 0
-39 316 -310 -314 0
-40 -316 310 0
-40 316 -310 0
-41 -316 310 0
-41 316 -310 0
-42 -316 310 0
-42 316 -310 0
-43 -316 310 0
-43 316 -310 0
-44 -316 310 0
-44 316 -310 0
-45 -316 310 0
-45 316 -310 0
-78 -316 310 0
-78 316 -310 0
-31 -317 311 0
-31 317 -311 0
-32 -311 317 0
-32 -309 317 0
-32 -317 311 309 0
-33 -317 311 0
-33 317 -311 0
-34 -317 311 0
-34 317 -311 0
-35 -317 311 0
-35 317 -311 0
-36 -311 317 0
-36 -310 317 0
-36 -317 311 310 0
-37 -317 311 0
-37 317 -311 0
-38 -317 311 0
-38 317 -311 0
-39 -317 311 0
-39 317 -311 0
-40 -317 311 0
-40 -317 312 0
-40 317 -311 -312 0
-41 -317 311 0
-41 -317 313 0
-41 317 -311 -313 0
-42 -317 311 0
-42 -317 314 0
-42 317 -311 -314 0
-43 -317 311 0
-43 317 -311 0
-44 -317 311 0
-44 317 -311 0
-45 -317 311 0
-45 317 -311 0
-78 -317 311 0
-78 317 -311 0
-31 -318 312 0
-31 318 -312 0
-32 -318 312 0
-32 318 -312 0
-33 -312 318 0
-33 -309 318 0
-33 -318 312 309 0
-34 -318 312 0
-34 318 -312 0
-35 -318 312 0
-35 318 -312 0
-36 -318 312 0
-36 318 -312 0
-37 -312 318 0
-37 -310 318 0
-37 -318 312 310 0
-38 -318 312 0
-38 318 -312 0
-39 -318 312 0
-39 318 -312 0
-40 -312 318 0
-40 -311 318 0
-40 -318 312 311 0
-41 -318 312 0
-41 318 -312 0
-42 -318 312 0
-42 318 -312 0
-43 -318 312 0
-43 -318 313 0
-43 318 -312 -313 0
-44 -318 312 0
-44 -318 314 0
-44 318 -312 -314 0
-45 -318 312 0
-45 318 -312 0
-78 -318 312 0
-78 318 -312 0
-31 -319 313 0
-31 319 -313 0
-32 -319 313 0
-32 319 -313 0
-33 -319 313 0
-33 319 -313 0
-34 -313 319 0
-34 -309 319 0
-34 -319 313 309 0
-35 -319 313 0
-35 319 -313 0
-36 -319 313 0
-36 319 -313 0
-37 -319 313 0
-37 319 -313 0
-38 -313 319 0
-38 -310 319 0
-38 -319 313 310 0
-39 -319 313 0
-39 319 -313 0
-40 -319 313 0
-40 319 -313 0
-41 -313 319 0
-41 -311 319 0
-41 -319 313 311 0
-42 -319 313 0
-42 319 -313 0
-43 -313 319 0
-43 -312 319 0
-43 -319 313 312 0
-44 -319 313 0
-44 319 -313 0
-45 -319 313 0
-45 -319 314 0
-45 319 -313 -314 0
-78 -319 313 0
-78 319 -313 0
-31 -320 314 0
-31 320 -314 0
-32 -320 314 0
-32 320 -314 0
-33 -320 314 0
-33 320 -314 0
-34 -320 314 0
-34 320 -314 0
-35 -314 320 0
-35 -309 320 0
-35 -320 314 309 0
-36 -320 314 0
-36 320 -314 0
-37 -320 314 0
-37 320 -314 0
-38 -320 314 0
-38 320 -314 0
-39 -314 320 0
-39 -310 320 0
-39 -320 314 310 0
-40 -320 314 0
-40 320 -314 0
-41 -320 314 0
-41 320 -314 0
-42 -314 320 0
-42 -311 320 0
-42 -320 314 311 0
-43 -320 314 0
-43 320 -314 0
-44 -314 320 0
-44 -312 320 0
-44 -320 314 312 0
-45 -314 320 0
-45 -313 320 0
-45 -320 314 313 0
-78 -320 314 0
-78 320 -314 0
-46 -321 315 0
-46 -321 316 0
-46 321 -315 -316 0
-47 -321 315 0
-47 -321 317 0
-47 321 -315 -317 0
-48 -321 315 0
-48 -321 318 0
-48 321 -315 -318 0
-49 -321 315 0
-49 -321 319 0
-49 321 -315 -319 0
-50 -321 315 0
-50 -321 320 0
-50 321 -315 -320 0
-51 -321 315 0
-51 321 -315 0
-52 -321 315 0
-52 321 -315 0
-53 -321 315 0
-53 321 -315 0
-54 -321 315 0
-54 321 -315 0
-55 -321 315 0
-55 321 -315 0
-56 -321 315 0
-56 321 -315 0
-57 -321 315 0
-57 321 -315 0
-58 -321 315 0
-58 321 -315 0
-59 -321 315 0
-59 321 -315 0
-60 -321 315 0
-60 321 -315 0
-79 -321 315 0
-79 321 -315 0
-46 -316 322 0
-46 -315 322 0
-46 -322 316 315 0
-47 -322 316 0
-47 322 -316 0
-48 -322 316 0
-48 322 -316 0
-49 -322 316 0
-49 322 -316 0
-50 -322 316 0
-50 322 -316 0
-51 -322 316 0
-51 -322 317 0
-51 322 -316 -317 0
-52 -322 316 0
-52 -322 318 0
-52 322 -316 -318 0
-53 -322 316 0
-53 -322 319 0
-53 322 -316 -319 0
-54 -322 316 0
-54 -322 320 0
-54 322 -316 -320 0
-55 -322 316 0
-55 322 -316 0
-56 -322 316 0
-56 322 -316 0
-57 -322 316 0
-57 322 -316 0
-58 -322 316 0
-58 322 -316 0
-59 -322 316 0
-59 322 -316 0
-60 -322 316 0
-60 322 -316 0
-79 -322 316 0
-79 322 -316 0
-46 -323 317 0
-46 323 -317 0
-47 -317 323 0
-47 -315 323 0
-47 -323 317 315 0
-48 -323 317 0
-48 323 -317 0
-49 -323 317 0
-49 323 -317 0
-50 -323 317 0
-50 323 -317 0
-51 -317 323 0
-51 -316 323 0
-51 -323 317 316 0
-52 -323 317 0
-52 323 -317 0
-53 -323 317 0
-53 323 -317 0
-54 -323 317 0
-54 323 -317 0
-55 -323 317 0
-55 -323 318 0
-55 323 -317 -318 0
-56 -323 317 0
-56 -323 319 0
-56 323 -317 -319 0
-57 -323 317 0
-57 -323 320 0
-57 323 -317 -320 0
-58 -323 317 0
-58 323 -317 0
-59 -323 317 0
-59 323 -317 0
-60 -323 317 0
-60 323 -317 0
-79 -323 317 0
-79 323 -317 0
-46 -324 318 0
-46 324 -318 0
-47 -324 318 0
-47 324 -318 0
-48 -318 324 0
-48 -315 324 0
-48 -324 318 315 0
-49 -324 318 0
-49 324 -318 0
-50 -324 318 0
-50 324 -318 0
-51 -324 318 0
-51 324 -318 0
-52 -318 324 0
-52 -316 324 0
-52 -324 318 316 0
-53 -324 318 0
-53 324 -318 0
-54 -324 318 0
-54 324 -318 0
-55 -318 324 0
-55 -317 324 0
-55 -324 318 317 0
-56 -324 318 0
-56 324 -318 0
-57 -324 318 0
-57 324 -318 0
-58 -324 318 0
-58 -324 319 0
-58 324 -318 -319 0
-59 -324 318 0
-59 -324 320 0
-59 324 -318 -320 0
-60 -324 318 0
-60 324 -318 0
-79 -324 318 0
-79 324 -318 0
-46 -325 319 0
-46 325 -319 0
-47 -325 319 0
-47 325 -319 0
-48 -325 319 0
-48 325 -319 0
-49 -319 325 0
-49 -315 325 0
-49 -325 319 315 0
-50 -325 319 0
-50 325 -319 0
-51 -325 319 0
-51 325 -319 0
-52 -325 319 0
-52 325 -319 0
-53 -319 325 0
-53 -316 325 0
-53 -325 319 316 0
-54 -325 319 0
-54 325 -319 0
-55 -325 319 0
-55 325 -319 0
-56 -319 325 0
-56 -317 325 0
-56 -325 319 317 0
-57 -325 319 0
-57 325 -319 0
-58 -319 325 0
-58 -318 325 0
-58 -325 319 318 0
-59 -325 319 0
-59 325 -319 0
-60 -325 319 0
-60 -325 320 0
-60 325 -319 -320 0
-79 -325 319 0
-79 325 -319 0
-46 -326 320 0
-46 326 -320 0
-47 -326 320 0
-47 326 -320 0
-48 -326 320 0
-48 326 -320 0
-49 -326 320 0
-49 326 -320 0
-50 -320 326 0
-50 -315 326 0
-50 -326 320 315 0
-51 -326 320 0
-51 326 -320 0
-52 -326 320 0
-52 326 -320 0
-53 -326 320 0
-53 326 -320 0
-54 -320 326 0
-54 -316 326 0
-54 -326 320 316 0
-55 -326 320 0
-55 326 -320 0
-56 -326 320 0
-56 326 -320 0
-57 -320 326 0
-57 -317 326 0
-57 -326 320 317 0
-58 -326 320 0
-58 326 -320 0
-59 -320 326 0
-59 -318 326 0
-59 -326 320 318 0
-60 -320 326 0
-60 -319 326 0
-60 -326 320 319 0
-79 -326 320 0
-79 326 -320 0
-61 -327 321 0
-61 -327 322 0
-61 327 -321 -322 0
-62 -327 321 0
-62 -327 323 0
-62 327 -321 -323 0
-63 -327 321 0
-63 -327 324 0
-63 327 -321 -324 0
-64 -327 321 0
-64 -327 325 0
-64 327 -321 -325 0
-65 -327 321 0
-65 -327 326 0
-65 327 -321 -326 0
-66 -327 321 0
-66 327 -321 0
-67 -327 321 0
-67 327 -321 0
-68 -327 321 0
-68 327 -321 0
-69 -327 321 0
-69 327 -321 0
-70 -327 321 0
-70 327 -321 0
-71 -327 321 0
-71 327 -321 0
-72 -327 321 0
-72 327 -321 0
-73 -327 321 0
-73 327 -321 0
-74 -327 321 0
-74 327 -321 0
-75 -327 321 0
-75 327 -321 0
-80 -327 321 0
-80 327 -321 0
-61 -322 328 0
-61 -321 328 0
-61 -328 322 321 0
-62 -328 322 0
-62 328 -322 0
-63 -328 322 0
-63 328 -322 0
-64 -328 322 0
-64 328 -322 0
-65 -328 322 0
-65 328 -322 0
-66 -328 322 0
-66 -328 323 0
-66 328 -322 -323 0
-67 -328 322 0
-67 -328 324 0
-67 328 -322 -324 0
-68 -328 322 0
-68 -328 325 0
-68 328 -322 -325 0
-69 -328 322 0
-69 -328 326 0
-69 328 -322 -326 0
-70 -328 322 0
-70 328 -322 0
-71 -328 322 0
-71 328 -322 0
-72 -328 322 0
-72 328 -322 0
-73 -328 322 0
-73 328 -322 0
-74 -328 322 0
-74 328 -322 0
-75 -328 322 0
-75 328 -322 0
-80 -328 322 0
-80 328 -322 0
-61 -329 323 0
-61 329 -323 0
-62 -323 329 0
-62 -321 329 0
-62 -329 323 321 0
-63 -329 323 0
-63 329 -323 0
-64 -329 323 0
-64 329 -323 0
-65 -329 323 0
-65 329 -323 0
-66 -323 329 0
-66 -322 329 0
-66 -329 323 322 0
-67 -329 323 0
-67 329 -323 0
-68 -329 323 0
-68 329 -323 0
-69 -329 323 0
-69 329 -323 0
-70 -329 323 0
-70 -329 324 0
-70 329 -323 -324 0
-71 -329 323 0
-71 -329 325 0
-71 329 -323 -325 0
-72 -329 323 0
-72 -329 326 0
-72 329 -323 -326 0
-73 -329 323 0
-73 329 -323 0
-74 -329 323 0
-74 329 -323 0
-75 -329 323 0
-75 329 -323 0
-80 -329 323 0
-80 329 -323 0
-61 -330 324 0
-61 330 -324 0
-62 -330 324 0
-62 330 -324 0
-63 -324 330 0
-63 -321 330 0
-63 -330 324 321 0
-64 -330 324 0
-64 330 -324 0
-65 -330 324 0
-65 330 -324 0
-66 -330 324 0
-66 330 -324 0
-67 -324 330 0
-67 -322 330 0
-67 -330 324 322 0
-68 -330 324 0
-68 330 -324 0
-69 -330 324 0
-69 330 -324 0
-70 -324 330 0
-70 -323 330 0
-70 -330 324 323 0
-71 -330 324 0
-71 330 -324 0
-72 -330 324 0
-72 330 -324 0
-73 -330 324 0
-73 -330 325 0
-73 330 -324 -325 0
-74 -330 324 0
-74 -330 326 0
-74 330 -324 -326 0
-75 -330 324 0
-75 330 -324 0
-80 -330 324 0
-80 330 -324 0
-61 -331 325 0
-61 331 -325 0
-62 -331 325 0
-62 331 -325 0
-63 -331 325 0
-63 331 -325 0
-64 -325 331 0
-64 -321 331 0
-64 -331 325 321 0
-65 -331 325 0
-65 331 -325 0
-66 -331 325 0
-66 331 -325 0
-67 -331 325 0
-67 331 -325 0
-68 -325 331 0
-68 -322 331 0
-68 -331 325 322 0
-69 -331 325 0
-69 331 -325 0
-70 -331 325 0
-70 331 -325 0
-71 -325 331 0
-71 -323 331 0
-71 -331 325 323 0
-72 -331 325 0
-72 331 -325 0
-73 -325 331 0
-73 -324 331 0
-73 -331 325 324 0
-74 -331 325 0
-74 331 -325 0
-75 -331 325 0
-75 -331 326 0
-75 331 -325 -326 0
-80 -331 325 0
-80 331 -325 0
-61 -332 326 0
-61 332 -326 0
-62 -332 326 0
-62 332 -326 0
-63 -332 326 0
-63 332 -326 0
-64 -332 326 0
-64 332 -326 0
-65 -326 332 0
-65 -321 332 0
-65 -332 326 321 0
-66 -332 326 0
-66 332 -326 0
-67 -332 326 0
-67 332 -326 0
-68 -332 326 0
-68 332 -326 0
-69 -326 332 0
-69 -322 332 0
-69 -332 326 322 0
-70 -332 326 0
-70 332 -326 0
-71 -332 326 0
-71 332 -326 0
-72 -326 332 0
-72 -323 332 0
-72 -332 326 323 0
-73 -332 326 0
-73 332 -326 0
-74 -326 332 0
-74 -324 332 0
-74 -332 326 324 0
-75 -326 332 0
-75 -325 332 0
-75 -332 326 325 0
-80 -332 326 0
-80 332 -326 0
-333 0
-1 -339 333 0
-1 -339 334 0
-1 339 -333 -334 0
-2 -339 333 0
-2 -339 335 0
-2 339 -333 -335 0
-3 -339 333 0
-3 -339 336 0
-3 339 -333 -336 0
-4 -339 333 0
-4 -339 337 0
-4 339 -333 -337 0
-5 -339 333 0
-5 -339 338 0
-5 339 -333 -338 0
-6 -339 333 0
-6 339 -333 0
-7 -339 333 0
-7 339 -333 0
-8 -339 333 0
-8 339 -333 0
-9 -339 333 0
-9 339 -333 0
-10 -339 333 0
-10 339 -333 0
-11 -339 333 0
-11 339 -333 0
-12 -339 333 0
-12 339 -333 0
-13 -339 333 0
-13 339 -333 0
-14 -339 333 0
-14 339 -333 0
-15 -339 333 0
-15 339 -333 0
-76 -339 333 0
-76 339 -333 0
-334 0
-1 -334 340 0
-1 -333 340 0
-1 -340 334 333 0
-2 -340 334 0
-2 340 -334 0
-3 -340 334 0
-3 340 -334 0
-4 -340 334 0
-4 340 -334 0
-5 -340 334 0
-5 340 -334 0
-6 -340 334 0
-6 -340 335 0
-6 340 -334 -335 0
-7 -340 334 0
-7 -340 336 0
-7 340 -334 -336 0
-8 -340 334 0
-8 -340 337 0
-8 340 -334 -337 0
-9 -340 334 0
-9 -340 338 0
-9 340 -334 -338 0
-10 -340 334 0
-10 340 -334 0
-11 -340 334 0
-11 340 -334 0
-12 -340 334 0
-12 340 -334 0
-13 -340 334 0
-13 340 -334 0
-14 -340 334 0
-14 340 -334 0
-15 -340 334 0
-15 340 -334 0
-76 -340 334 0
-76 340 -334 0
335 0
-1 -341 335 0
-1 341 -335 0
-2 -335 341 0
-2 -333 341 0
-2 -341 335 333 0
-3 -341 335 0
-3 341 -335 0
-4 -341 335 0
-4 341 -335 0
-5 -341 335 0
-5 341 -335 0
-6 -335 341 0
-6 -334 341 0
-6 -341 335 334 0
-7 -341 335 0
-7 341 -335 0
-8 -341 335 0
-8 341 -335 0
-9 -341 335 0
-9 341 -335 0
-10 -341 335 0
-10 -341 336 0
-10 341 -335 -336 0
-11 -341 335 0
-11 -341 337 0
-11 341 -335 -337 0
-12 -341 335 0
-12 -341 338 0
-12 341 -335 -338 0
-13 -341 335 0
-13 341 -335 0
-14 -341 335 0
-14 341 -335 0
-15 -341 335 0
-15 341 -335 0
-76 -341 335 0
-76 341 -335 0
336 0
-1 -342 336 0
-1 342 -336 0
-2 -342 336 0
-2 342 -336 0
-3 -336 342 0
-3 -333 342 0
-3 -342 336 333 0
-4 -342 336 0
-4 342 -336 0
-5 -342 336 0
-5 342 -336 0
-6 -342 336 0
-6 342 -336 0
-7 -336 342 0
-7 -334 342 0
-7 -342 336 334 0
-8 -342 336 0
-8 342 -336 0
-9 -342 336 0
-9 342 -336 0
-10 -336 342 0
-10 -335 342 0
-10 -342 336 335 0
-11 -342 336 0
-11 342 -336 0
-12 -342 336 0
-12 342 -336 0
-13 -342 336 0
-13 -342 337 0
-13 342 -336 -337 0
-14 -342 336 0
-14 -342 338 0
-14 342 -336 -338 0
-15 -342 336 0
-15 342 -336 0
-76 -342 336 0
-76 342 -336 0
337 0
-1 -343 337 0
-1 343 -337 0
-2 -343 337 0
-2 343 -337 0
-3 -343 337 0
-3 343 -337 0
-4 -337 343 0
-4 -333 343 0
-4 -343 337 333 0
-5 -343 337 0
-5 343 -337 0
-6 -343 337 0
-6 343 -337 0
-7 -343 337 0
-7 343 -337 0
-8 -337 343 0
-8 -334 343 0
-8 -343 337 334 0
-9 -343 337 0
-9 343 -337 0
-10 -343 337 0
-10 343 -337 0
-11 -337 343 0
-11 -335 343 0
-11 -343 337 335 0
-12 -343 337 0
-12 343 -337 0
-13 -337 343 0
-13 -336 343 0
-13 -343 337 336 0
-14 -343 337 0
-14 343 -337 0
-15 -343 337 0
-15 -343 338 0
-15 343 -337 -338 0
-76 -343 337 0
-76 343 -337 0
338 0
-1 -344 338 0
-1 344 -338 0
-2 -344 338 0
-2 344 -338 0
-3 -344 338 0
-3 344 -338 0
-4 -344 338 0
-4 344 -338 0
-5 -338 344 0
-5 -333 344 0
-5 -344 338 333 0
-6 -344 338 0
-6 344 -338 0
-7 -344 338 0
-7 344 -338 0
-8 -344 338 0
-8 344 -338 0
-9 -338 344 0
-9 -334 344 0
-9 -344 338 334 0
-10 -344 338 0
-10 344 -338 0
-11 -344 338 0
-11 344 -338 0
-12 -338 344 0
-12 -335 344 0
-12 -344 338 335 0
-13 -344 338 0
-13 344 -338 0
-14 -338 344 0
-14 -336 344 0
-14 -344 338 336 0
-15 -338 344 0
-15 -337 344 0
-15 -344 338 337 0
-76 -344 338 0
-76 344 -338 0
-16 -345 339 0
-16 -345 340 0
-16 345 -339 -340 0
-17 -345 339 0
-17 -345 341 0
-17 345 -339 -341 0
-18 -345 339 0
-18 -345 342 0
-18 345 -339 -342 0
-19 -345 339 0
-19 -345 343 0
-19 345 -339 -343 0
-20 -345 339 0
-20 -345 344 0
-20 345 -339 -344 0
-21 -345 339 0
-21 345 -339 0
-22 -345 339 0
-22 345 -339 0
-23 -345 339 0
-23 345 -339 0
-24 -345 339 0
-24 345 -339 0
-25 -345 339 0
-25 345 -339 0
-26 -345 339 0
-26 345 -339 0
-27 -345 339 0
-27 345 -339 0
-28 -345 339 0
-28 345 -339 0
-29 -345 339 0
-29 345 -339 0
-30 -345 339 0
-30 345 -339 0
-77 -345 339 0
-77 345 -339 0
-16 -340 346 0
-16 -339 346 0
-16 -346 340 339 0
-17 -346 340 0
-17 346 -340 0
-18 -346 340 0
-18 346 -340 0
-19 -346 340 0
-19 346 -340 0
-20 -346 340 0
-20 346 -340 0
-21 -346 340 0
-21 -346 341 0
-21 346 -340 -341 0
-22 -346 340 0
-22 -346 342 0
-22 346 -340 -342 0
-23 -346 340 0
-23 -346 343 0
-23 346 -340 -343 0
-24 -346 340 0
-24 -346 344 0
-24 346 -340 -344 0
-25 -346 340 0
-25 346 -340 0
-26 -346 340 0
-26 346 -340 0
-27 -346 340 0
-27 346 -340 0
-28 -346 340 0
-28 346 -340 0
-29 -346 340 0
-29 346 -340 0
-30 -346 340 0
-30 346 -340 0
-77 -346 340 0
-77 346 -340 0
-16 -347 341 0
-16 347 -341 0
-17 -341 347 0
-17 -339 347 0
-17 -347 341 339 0
-18 -347 341 0
-18 347 -341 0
-19 -347 341 0
-19 347 -341 0
-20 -347 341 0
-20 347 -341 0
-21 -341 347 0
-21 -340 347 0
-21 -347 341 340 0
-22 -347 341 0
-22 347 -341 0
-23 -347 341 0
-23 347 -341 0
-24 -347 341 0
-24 347 -341 0
-25 -347 341 0
-25 -347 342 0
-25 347 -341 -342 0
-26 -347 341 0
-26 -347 343 0
-26 347 -341 -343 0
-27 -347 341 0
-27 -347 344 0
-27 347 -341 -344 0
-28 -347 341 0
-28 347 -341 0
-29 -347 341 0
-29 347 -341 0
-30 -347 341 0
-30 347 -341 0
-77 -347 341 0
-77 347 -341 0
-16 -348 342 0
-16 348 -342 0
-17 -348 342 0
-17 348 -342 0
-18 -342 348 0
-18 -339 348 0
-18 -348 342 339 0
-19 -348 342 0
-19 348 -342 0
-20 -348 342 0
-20 348 -342 0
-21 -348 342 0
-21 348 -342 0
-22 -342 348 0
-22 -340 348 0
-22 -348 342 340 0
-23 -348 342 0
-23 348 -342 0
-24 -348 342 0
-24 348 -342 0
-25 -342 348 0
-25 -341 348 0
-25 -348 342 341 0
-26 -348 342 0
-26 348 -342 0
-27 -348 342 0
-27 348 -342 0
-28 -348 342 0
-28 -348 343 0
-28 348 -342 -343 0
-29 -348 342 0
-29 -348 344 0
-29 348 -342 -344 0
-30 -348 342 0
-30 348 -342 0
-77 -348 342 0
-77 348 -342 0
-16 -349 343 0
-16 349 -343 0
-17 -349 343 0
-17 349 -343 0
-18 -349 343 0
-18 349 -343 0
-19 -343 349 0
-19 -339 349 0
-19 -349 343 339 0
-20 -349 343 0
-20 349 -343 0
-21 -349 343 0
-21 349 -343 0
-22 -349 343 0
-22 349 -343 0
-23 -343 349 0
-23 -340 349 0
-23 -349 343 340 0
-24 -349 343 0
-24 349 -343 0
-25 -349 343 0
-25 349 -343 0
-26 -343 349 0
-26 -341 349 0
-26 -349 343 341 0
-27 -349 343 0
-27 349 -343 0
-28 -343 349 0
-28 -342 349 0
-28 -349 343 342 0
-29 -349 343 0
-29 349 -343 0
-30 -349 343 0
-30 -349 344 0
-30 349 -343 -344 0
-77 -349 343 0
-77 349 -343 0
-16 -350 344 0
-16 350 -344 0
-17 -350 344 0
-17 350 -344 0
-18 -350 344 0
-18 350 -344 0
-19 -350 344 0
-19 350 -344 0
-20 -344 350 0
-20 -339 350 0
-20 -350 344 339 0
-21 -350 344 0
-21 350 -344 0
-22 -350 344 0
-22 350 -344 0
-23 -350 344 0
-23 350 -344 0
-24 -344 350 0
-24 -340 350 0
-24 -350 344 340 0
-25 -350 344 0
-25 350 -344 0
-26 -350 344 0
-26 350 -344 0
-27 -344 350 0
-27 -341 350 0
-27 -350 344 341 0
-28 -350 344 0
-28 350 -344 0
-29 -344 350 0
-29 -342 350 0
-29 -350 344 342 0
-30 -344 350 0
-30 -343 350 0
-30 -350 344 343 0
-77 -350 344 0
-77 350 -344 0
-31 -351 345 0
-31 -351 346 0
-31 351 -345 -346 0
-32 -351 345 0
-32 -351 347 0
-32 351 -345 -347 0
-33 -351 345 0
-33 -351 348 0
-33 351 -345 -348 0
-34 -351 345 0
-34 -351 349 0
-34 351 -345 -349 0
-35 -351 345 0
-35 -351 350 0
-35 351 -345 -350 0
-36 -351 345 0
-36 351 -345 0
-37 -351 345 0
-37 351 -345 0
-38 -351 345 0
-38 351 -345 0
-39 -351 345 0
-39 351 -345 0
-40 -351 345 0
-40 351 -345 0
-41 -351 345 0
-41 351 -345 0
-42 -351 345 0
-42 351 -345 0
-43 -351 345 0
-43 351 -345 0
-44 -351 345 0
-44 351 -345 0
-45 -351 345 0
-45 351 -345 0
-78 -351 345 0
-78 351 -345 0
-31 -346 352 0
-31 -345 352 0
-31 -352 346 345 0
-32 -352 346 0
-32 352 -346 0
-33 -352 346 0
-33 352 -346 0
-34 -352 346 0
-34 352 -346 0
-35 -352 346 0
-35 352 -346 0
-36 -352 346 0
-36 -352 347 0
-36 352 -346 -347 0
-37 -352 346 0
-37 -352 348 0
-37 352 -346 -348 0
-38 -352 346 0
-38 -352 349 0
-38 352 -346 -349 0
-39 -352 346 0
-39 -352 350 0
-39 352 -346 -350 0
-40 -352 346 0
-40 352 -346 0
-41 -352 346 0
-41 352 -346 0
-42 -352 346 0
-42 352 -346 0
-43 -352 346 0
-43 352 -346 0
-44 -352 346 0
-44 352 -346 0
-45 -352 346 0
-45 352 -346 0
-78 -352 346 0
-78 352 -346 0
-31 -353 347 0
-31 353 -347 0
-32 -347 353 0
-32 -345 353 0
-32 -353 347 345 0
-33 -353 347 0
-33 353 -347 0
-34 -353 347 0
-34 353 -347 0
-35 -353 347 0
-35 353 -347 0
-36 -347 353 0
-36 -346 353 0
-36 -353 347 346 0
-37 -353 347 0
-37 353 -347 0
-38 -353 347 0
-38 353 -347 0
-39 -353 347 0
-39 353 -347 0
-40 -353 347 0
-40 -353 348 0
-40 353 -347 -348 0
-41 -353 347 0
-41 -353 349 0
-41 353 -347 -349 0
-42 -353 347 0
-42 -353 350 0
-42 353 -347 -350 0
-43 -353 347 0
-43 353 -347 0
-44 -353 347 0
-44 353 -347 0
-45 -353 347 0
-45 353 -347 0
-78 -353 347 0
-78 353 -347 0
-31 -354 348 0
-31 354 -348 0
-32 -354 348 0
-32 354 -348 0
-33 -348 354 0
-33 -345 354 0
-33 -354 348 345 0
-34 -354 348 0
-34 354 -348 0
-35 -354 348 0
-35 354 -348 0
-36 -354 348 0
-36 354 -348 0
-37 -348 354 0
-37 -346 354 0
-37 -354 348 346 0
-38 -354 348 0
-38 354 -348 0
-39 -354 348 0
-39 354 -348 0
-40 -348 354 0
-40 -347 354 0
-40 -354 348 347 0
-41 -354 348 0
-41 354 -348 0
-42 -354 348 0
-42 354 -348 0
-43 -354 348 0
-43 -354 349 0
-43 354 -348 -349 0
-44 -354 348 0
-44 -354 350 0
-44 354 -348 -350 0
-45 -354 348 0
-45 354 -348 0
-78 -354 348 0
-78 354 -348 0
-31 -355 349 0
-31 355 -349 0
-32 -355 349 0
-32 355 -349 0
-33 -355 349 0
-33 355 -349 0
-34 -349 355 0
-34 -345 355 0
-34 -355 349 345 0
-35 -355 349 0
-35 355 -349 0
-36 -355 349 0
-36 355 -349 0
-37 -355 349 0
-37 355 -349 0
-38 -349 355 0
-38 -346 355 0
-38 -355 349 346 0
-39 -355 349 0
-39 355 -349 0
-40 -355 349 0
-40 355 -349 0
-41 -349 355 0
-41 -347 355 0
-41 -355 349 347 0
-42 -355 349 0
-42 355 -349 0
-43 -349 355 0
-43 -348 355 0
-43 -355 349 348 0
-44 -355 349 0
-44 355 -349 0
-45 -355 349 0
-45 -355 350 0
-45 355 -349 -350 0
-78 -355 349 0
-78 355 -349 0
-31 -356 350 0
-31 356 -350 0
-32 -356 350 0
-32 356 -350 0
-33 -356 350 0
-33 356 -350 0
-34 -356 350 0
-34 356 -350 0
-35 -350 356 0
-35 -345 356 0
-35 -356 350 345 0
-36 -356 350 0
-36 356 -350 0
-37 -356 350 0
-37 356 -350 0
-38 -356 350 0
-38 356 -350 0
-39 -350 356 0
-39 -346 356 0
-39 -356 350 346 0
-40 -356 350 0
-40 356 -350 0
-41 -356 350 0
-41 356 -350 0
-42 -350 356 0
-42 -347 356 0
-42 -356 350 347 0
-43 -356 350 0
-43 356 -350 0
-44 -350 356 0
-44 -348 356 0
-44 -356 350 348 0
-45 -350 356 0
-45 -349 356 0
-45 -356 350 349 0
-78 -356 350 0
-78 356 -350 0
-46 -357 351 0
-46 -357 352 0
-46 357 -351 -352 0
-47 -357 351 0
-47 -357 353 0
-47 357 -351 -353 0
-48 -357 351 0
-48 -357 354 0
-48 357 -351 -354 0
-49 -357 351 0
-49 -357 355 0
-49 357 -351 -355 0
-50 -357 351 0
-50 -357 356 0
-50 357 -351 -356 0
-51 -357 351 0
-51 357 -351 0
-52 -357 351 0
-52 357 -351 0
-53 -357 351 0
-53 357 -351 0
-54 -357 351 0
-54 357 -351 0
-55 -357 351 0
-55 357 -351 0
-56 -357 351 0
-56 357 -351 0
-57 -357 351 0
-57 357 -351 0
-58 -357 351 0
-58 357 -351 0
-59 -357 351 0
-59 357 -351 0
-60 -357 351 0
-60 357 -351 0
-79 -357 351 0
-79 357 -351 0
-46 -352 358 0
-46 -351 358 0
-46 -358 352 351 0
-47 -358 352 0
-47 358 -352 0
-48 -358 352 0
-48 358 -352 0
-49 -358 352 0
-49 358 -352 0
-50 -358 352 0
-50 358 -352 0
-51 -358 352 0
-51 -358 353 0
-51 358 -352 -353 0
-52 -358 352 0
-52 -358 354 0
-52 358 -352 -354 0
-53 -358 352 0
-53 -358 355 0
-53 358 -352 -355 0
-54 -358 352 0
-54 -358 356 0
-54 358 -352 -356 0
-55 -358 352 0
-55 358 -352 0
-56 -358 352 0
-56 358 -352 0
-57 -358 352 0
-57 358 -352 0
-58 -358 352 0
-58 358 -352 0
-59 -358 352 0
-59 358 -352 0
-60 -358 352 0
-60 358 -352 0
-79 -358 352 0
-79 358 -352 0
-46 -359 353 0
-46 359 -353 0
-47 -353 359 0
-47 -351 359 0
-47 -359 353 351 0
-48 -359 353 0
-48 359 -353 0
-49 -359 353 0
-49 359 -353 0
-50 -359 353 0
-50 359 -353 0
-51 -353 359 0
-51 -352 359 0
-51 -359 353 352 0
-52 -359 353 0
-52 359 -353 0
-53 -359 353 0
-53 359 -353 0
-54 -359 353 0
-54 359 -353 0
-55 -359 353 0
-55 -359 354 0
-55 359 -353 -354 0
-56 -359 353 0
-56 -359 355 0
-56 359 -353 -355 0
-57 -359 353 0
-57 -359 356 0
-57 359 -353 -356 0
-58 -359 353 0
-58 359 -353 0
-59 -359 353 0
-59 359 -353 0
-60 -359 353 0
-60 359 -353 0
-79 -359 353 0
-79 359 -353 0
-46 -360 354 0
-46 360 -354 0
-47 -360 354 0
-47 360 -354 0
-48 -354 360 0
-48 -351 360 0
-48 -360 354 351 0
-49 -360 354 0
-49 360 -354 0
-50 -360 354 0
-50 360 -354 0
-51 -360 354 0
-51 360 -354 0
-52 -354 360 0
-52 -352 360 0
-52 -360 354 352 0
-53 -360 354 0
-53 360 -354 0
-54 -360 354 0
-54 360 -354 0
-55 -354 360 0
-55 -353 360 0
-55 -360 354 353 0
-56 -360 354 0
-56 360 -354 0
-57 -360 354 0
-57 360 -354 0
-58 -360 354 0
-58 -360 355 0
-58 360 -354 -355 0
-59 -360 354 0
-59 -360 356 0
-59 360 -354 -356 0
-60 -360 354 0
-60 360 -354 0
-79 -360 354 0
-79 360 -354 0
-46 -361 355 0
-46 361 -355 0
-47 -361 355 0
-47 361 -355 0
-48 -361 355 0
-48 361 -355 0
-49 -355 361 0
-49 -351 361 0
-49 -361 355 351 0
-50 -361 355 0
-50 361 -355 0
-51 -361 355 0
-51 361 -355 0
-52 -361 355 0
-52 361 -355 0
-53 -355 361 0
-53 -352 361 0
-53 -361 355 352 0
-54 -361 355 0
-54 361 -355 0
-55 -361 355 0
-55 361 -355 0
-56 -355 361 0
-56 -353 361 0
-56 -361 355 353 0
-57 -361 355 0
-57 361 -355 0
-58 -355 361 0
-58 -354 361 0
-58 -361 355 354 0
-59 -361 355 0
-59 361 -355 0
-60 -361 355 0
-60 -361 356 0
-60 361 -355 -356 0
-79 -361 355 0
-79 361 -355 0
-46 -362 356 0
-46 362 -356 0
-47 -362 356 0
-47 362 -356 0
-48 -362 356 0
-48 362 -356 0
-49 -362 356 0
-49 362 -356 0
-50 -356 362 0
-50 -351 362 0
-50 -362 356 351 0
-51 -362 356 0
-51 362 -356 0
-52 -362 356 0
-52 362 -356 0
-53 -362 356 0
-53 362 -356 0
-54 -356 362 0
-54 -352 362 0
-54 -362 356 352 0
-55 -362 356 0
-55 362 -356 0
-56 -362 356 0
-56 362 -356 0
-57 -356 362 0
-57 -353 362 0
-57 -362 356 353 0
-58 -362 356 0
-58 362 -356 0
-59 -356 362 0
-59 -354 362 0
-59 -362 356 354 0
-60 -356 362 0
-60 -355 362 0
-60 -362 356 355 0
-79 -362 356 0
-79 362 -356 0
-61 -363 357 0
-61 -363 358 0
-61 363 -357 -358 0
-62 -363 357 0
-62 -363 359 0
-62 363 -357 -359 0
-63 -363 357 0
-63 -363 360 0
-63 363 -357 -360 0
-64 -363 357 0
-64 -363 361 0
-64 363 -357 -361 0
-65 -363 357 0
-65 -363 362 0
-65 363 -357 -362 0
-66 -363 357 0
-66 363 -357 0
-67 -363 357 0
-67 363 -357 0
-68 -363 357 0
-68 363 -357 0
-69 -363 357 0
-69 363 -357 0
-70 -363 357 0
-70 363 -357 0
-71 -363 357 0
-71 363 -357 0
-72 -363 357 0
-72 363 -357 0
-73 -363 357 0
-73 363 -357 0
-74 -363 357 0
-74 363 -357 0
-75 -363 357 0
-75 363 -357 0
-80 -363 357 0
-80 363 -357 0
-61 -358 364 0
-61 -357 364 0
-61 -364 358 357 0
-62 -364 358 0
-62 364 -358 0
-63 -364 358 0
-63 364 -358 0
-64 -364 358 0
-64 364 -358 0
-65 -364 358 0
-65 364 -358 0
-66 -364 358 0
-66 -364 359 0
-66 364 -358 -359 0
-67 -364 358 0
-67 -364 360 0
-67 364 -358 -360 0
-68 -364 358 0
-68 -364 361 0
-68 364 -358 -361 0
-69 -364 358 0
-69 -364 362 0
-69 364 -358 -362 0
-70 -364 358 0
-70 364 -358 0
-71 -364 358 0
-71 364 -358 0
-72 -364 358 0
-72 364 -358 0
-73 -364 358 0
-73 364 -358 0
-74 -364 358 0
-74 364 -358 0
-75 -364 358 0
-75 364 -358 0
-80 -364 358 0
-80 364 -358 0
-61 -365 359 0
-61 365 -359 0
-62 -359 365 0
-62 -357 365 0
-62 -365 359 357 0
-63 -365 359 0
-63 365 -359 0
-64 -365 359 0
-64 365 -359 0
-65 -365 359 0
-65 365 -359 0
-66 -359 365 0
-66 -358 365 0
-66 -365 359 358 0
-67 -365 359 0
-67 365 -359 0
-68 -365 359 0
-68 365 -359 0
-69 -365 359 0
-69 365 -359 0
-70 -365 359 0
-70 -365 360 0
-70 365 -359 -360 0
-71 -365 359 0
-71 -365 361 0
-71 365 -359 -361 0
-72 -365 359 0
-72 -365 362 0
-72 365 -359 -362 0
-73 -365 359 0
-73 365 -359 0
-74 -365 359 0
-74 365 -359 0
-75 -365 359 0
-75 365 -359 0
-80 -365 359 0
-80 365 -359 0
-61 -366 360 0
-61 366 -360 0
-62 -366 360 0
-62 366 -360 0
-63 -360 366 0
-63 -357 366 0
-63 -366 360 357 0
-64 -366 360 0
-64 366 -360 0
-65 -366 360 0
-65 366 -360 0
-66 -366 360 0
-66 366 -360 0
-67 -360 366 0
-67 -358 366 0
-67 -366 360 358 0
-68 -366 360 0
-68 366 -360 0
-69 -366 360 0
-69 366 -360 0
-70 -360 366 0
-70 -359 366 0
-70 -366 360 359 0
-71 -366 360 0
-71 366 -360 0
-72 -366 360 0
-72 366 -360 0
-73 -366 360 0
-73 -366 361 0
-73 366 -360 -361 0
-74 -366 360 0
-74 -366 362 0
-74 366 -360 -362 0
-75 -366 360 0
-75 366 -360 0
-80 -366 360 0
-80 366 -360 0
-61 -367 361 0
-61 367 -361 0
-62 -367 361 0
-62 367 -361 0
-63 -367 361 0
-63 367 -361 0
-64 -361 367 0
-64 -357 367 0
-64 -367 361 357 0
-65 -367 361 0
-65 367 -361 0
-66 -367 361 0
-66 367 -361 0
-67 -367 361 0
-67 367 -361 0
-68 -361 367 0
-68 -358 367 0
-68 -367 361 358 0
-69 -367 361 0
-69 367 -361 0
-70 -367 361 0
-70 367 -361 0
-71 -361 367 0
-71 -359 367 0
-71 -367 361 359 0
-72 -367 361 0
-72 367 -361 0
-73 -361 367 0
-73 -360 367 0
-73 -367 361 360 0
-74 -367 361 0
-74 367 -361 0
-75 -367 361 0
-75 -367 362 0
-75 367 -361 -362 0
-80 -367 361 0
-80 367 -361 0
-61 -368 362 0
-61 368 -362 0
-62 -368 362 0
-62 368 -362 0
-63 -368 362 0
-63 368 -362 0
-64 -368 362 0
-64 368 -362 0
-65 -362 368 0
-65 -357 368 0
-65 -368 362 357 0
-66 -368 362 0
-66 368 -362 0
-67 -368 362 0
-67 368 -362 0
-68 -368 362 0
-68 368 -362 0
-69 -362 368 0
-69 -358 368 0
-69 -368 362 358 0
-70 -368 362 0
-70 368 -362 0
-71 -368 362 0
-71 368 -362 0
-72 -362 368 0
-72 -359 368 0
-72 -368 362 359 0
-73 -368 362 0
-73 368 -362 0
-74 -362 368 0
-74 -360 368 0
-74 -368 362 360 0
-75 -362 368 0
-75 -361 368 0
-75 -368 362 361 0
-80 -368 362 0
-80 368 -362 0
-369 0
-1 -375 369 0
-1 -375 370 0
-1 375 -369 -370 0
-2 -375 369 0
-2 -375 371 0
-2 375 -369 -371 0
-3 -375 369 0
-3 -375 372 0
-3 375 -369 -372 0
-4 -375 369 0
-4 -375 373 0
-4 375 -369 -373 0
-5 -375 369 0
-5 -375 374 0
-5 375 -369 -374 0
-6 -375 369 0
-6 375 -369 0
-7 -375 369 0
-7 375 -369 0
-8 -375 369 0
-8 375 -369 0
-9 -375 369 0
-9 375 -369 0
-10 -375 369 0
-10 375 -369 0
-11 -375 369 0
-11 375 -369 0
-12 -375 369 0
-12 375 -369 0
-13 -375 369 0
-13 375 -369 0
-14 -375 369 0
-14 375 -369 0
-15 -375 369 0
-15 375 -369 0
-76 -375 369 0
-76 375 -369 0
370 0
-1 -370 376 0
-1 -369 376 0
-1 -376 370 369 0
-2 -376 370 0
-2 376 -370 0
-3 -376 370 0
-3 376 -370 0
-4 -376 370 0
-4 376 -370 0
-5 -376 370 0
-5 376 -370 0
-6 -376 370 0
-6 -376 371 0
-6 376 -370 -371 0
-7 -376 370 0
-7 -376 372 0
-7 376 -370 -372 0
-8 -376 370 0
-8 -376 373 0
-8 376 -370 -373 0
-9 -376 370 0
-9 -376 374 0
-9 376 -370 -374 0
-10 -376 370 0
-10 376 -370 0
-11 -376 370 0
-11 376 -370 0
-12 -376 370 0
-12 376 -370 0
-13 -376 370 0
-13 376 -370 0
-14 -376 370 0
-14 376 -370 0
-15 -376 370 0
-15 376 -370 0
-76 -376 370 0
-76 376 -370 0
371 0
-1 -377 371 0
-1 377 -371 0
-2 -371 377 0
-2 -369 377 0
-2 -377 371 369 0
-3 -377 371 0
-3 377 -371 0
-4 -377 371 0
-4 377 -371 0
-5 -377 371 0
-5 377 -371 0
-6 -371 377 0
-6 -370 377 0
-6 -377 371 370 0
-7 -377 371 0
-7 377 -371 0
-8 -377 371 0
-8 377 -371 0
-9 -377 371 0
-9 377 -371 0
-10 -377 371 0
-10 -377 372 0
-10 377 -371 -372 0
-11 -377 371 0
-11 -377 373 0
-11 377 -371 -373 0
-12 -377 371 0
-12 -377 374 0
-12 377 -371 -374 0
-13 -377 371 0
-13 377 -371 0
-14 -377 371 0
-14 377 -371 0
-15 -377 371 0
-15 377 -371 0
-76 -377 371 0
-76 377 -371 0
-372 0
-1 -378 372 0
-1 378 -372 0
-2 -378 372 0
-2 378 -372 0
-3 -372 378 0
-3 -369 378 0
-3 -378 372 369 0
-4 -378 372 0
-4 378 -372 0
-5 -378 372 0
-5 378 -372 0
-6 -378 372 0
-6 378 -372 0
-7 -372 378 0
-7 -370 378 0
-7 -378 372 370 0
-8 -378 372 0
-8 378 -372 0
-9 -378 372 0
-9 378 -372 0
-10 -372 378 0
-10 -371 378 0
-10 -378 372 371 0
-11 -378 372 0
-11 378 -372 0
-12 -378 372 0
-12 378 -372 0
-13 -378 372 0
-13 -378 373 0
-13 378 -372 -373 0
-14 -378 372 0
-14 -378 374 0
-14 378 -372 -374 0
-15 -378 372 0
-15 378 -372 0
-76 -378 372 0
-76 378 -372 0
-373 0
-1 -379 373 0
-1 379 -373 0
-2 -379 373 0
-2 379 -373 0
-3 -379 373 0
-3 379 -373 0
-4 -373 379 0
-4 -369 379 0
-4 -379 373 369 0
-5 -379 373 0
-5 379 -373 0
-6 -379 373 0
-6 379 -373 0
-7 -379 373 0
-7 379 -373 0
-8 -373 379 0
-8 -370 379 0
-8 -379 373 370 0
-9 -379 373 0
-9 379 -373 0
-10 -379 373 0
-10 379 -373 0
-11 -373 379 0
-11 -371 379 0
-11 -379 373 371 0
-12 -379 373 0
-12 379 -373 0
-13 -373 379 0
-13 -372 379 0
-13 -379 373 372 0
-14 -379 373 0
-14 379 -373 0
-15 -379 373 0
-15 -379 374 0
-15 379 -373 -374 0
-76 -379 373 0
-76 379 -373 0
-374 0
-1 -380 374 0
-1 380 -374 0
-2 -380 374 0
-2 380 -374 0
-3 -380 374 0
-3 380 -374 0
-4 -380 374 0
-4 380 -374 0
-5 -374 380 0
-5 -369 380 0
-5 -380 374 369 0
-6 -380 374 0
-6 380 -374 0
-7 -380 374 0
-7 380 -374 0
-8 -380 374 0
-8 380 -374 0
-9 -374 380 0
-9 -370 380 0
-9 -380 374 370 0
-10 -380 374 0
-10 380 -374 0
-11 -380 374 0
-11 380 -374 0
-12 -374 380 0
-12 -371 380 0
-12 -380 374 371 0
-13 -380 374 0
-13 380 -374 0
-14 -374 380 0
-14 -372 380 0
-14 -380 374 372 0
-15 -374 380 0
-15 -373 380 0
-15 -380 374 373 0
-76 -380 374 0
-76 380 -374 0
-16 -381 375 0
-16 -381 376 0
-16 381 -375 -376 0
-17 -381 375 0
-17 -381 377 0
-17 381 -375 -377 0
-18 -381 375 0
-18 -381 378 0
-18 381 -375 -378 0
-19 -381 375 0
-19 -381 379 0
-19 381 -375 -379 0
-20 -381 375 0
-20 -381 380 0
-20 381 -375 -380 0
-21 -381 375 0
-21 381 -375 0
-22 -381 375 0
-22 381 -375 0
-23 -381 375 0
-23 381 -375 0
-24 -381 375 0
-24 381 -375 0
-25 -381 375 0
-25 381 -375 0
-26 -381 375 0
-26 381 -375 0
-27 -381 375 0
-27 381 -375 0
-28 -381 375 0
-28 381 -375 0
-29 -381 375 0
-29 381 -375 0
-30 -381 375 0
-30 381 -375 0
-77 -381 375 0
-77 381 -375 0
-16 -376 382 0
-16 -375 382 0
-16 -382 376 375 0
-17 -382 376 0
-17 382 -376 0
-18 -382 376 0
-18 382 -376 0
-19 -382 376 0
-19 382 -376 0
-20 -382 376 0
-20 382 -376 0
-21 -382 376 0
-21 -382 377 0
-21 382 -376 -377 0
-22 -382 376 0
-22 -382 378 0
-22 382 -376 -378 0
-23 -382 376 0
-23 -382 379 0
-23 382 -376 -379 0
-24 -382 376 0
-24 -382 380 0
-24 382 -376 -380 0
-25 -382 376 0
-25 382 -376 0
-26 -382 376 0
-26 382 -376 0
-27 -382 376 0
-27 382 -376 0
-28 -382 376 0
-28 382 -376 0
-29 -382 376 0
-29 382 -376 0
-30 -382 376 0
-30 382 -376 0
-77 -382 376 0
-77 382 -376 0
-16 -383 377 0
-16 383 -377 0
-17 -377 383 0
-17 -375 383 0
-17 -383 377 375 0
-18 -383 377 0
-18 383 -377 0
-19 -383 377 0
-19 383 -377 0
-20 -383 377 0
-20 383 -377 0
-21 -377 383 0
-21 -376 383 0
-21 -383 377 376 0
-22 -383 377 0
-22 383 -377 0
-23 -383 377 0
-23 383 -377 0
-24 -383 377 0
-24 383 -377 0
-25 -383 377 0
-25 -383 378 0
-25 383 -377 -378 0
-26 -383 377 0
-26 -383 379 0
-26 383 -377 -379 0
-27 -383 377 0
-27 -383 380 0
-27 383 -377 -380 0
-28 -383 377 0
-28 383 -377 0
-29 -383 377 0
-29 383 -377 0
-30 -383 377 0
-30 383 -377 0
-77 -383 377 0
-77 383 -377 0
-16 -384 378 0
-16 384 -378 0
-17 -384 378 0
-17 384 -378 0
-18 -378 384 0
-18 -375 384 0
-18 -384 378 375 0
-19 -384 378 0
-19 384 -378 0
-20 -384 378 0
-20 384 -378 0
-21 -384 378 0
-21 384 -378 0
-22 -378 384 0
-22 -376 384 0
-22 -384 378 376 0
-23 -384 378 0
-23 384 -378 0
-24 -384 378 0
-24 384 -378 0
-25 -378 384 0
-25 -377 384 0
-25 -384 378 377 0
-26 -384 378 0
-26 384 -378 0
-27 -384 378 0
-27 384 -378 0
-28 -384 378 0
-28 -384 379 0
-28 384 -378 -379 0
-29 -384 378 0
-29 -384 380 0
-29 384 -378 -380 0
-30 -384 378 0
-30 384 -378 0
-77 -384 378 0
-77 384 -378 0
-16 -385 379 0
-16 385 -379 0
-17 -385 379 0
-17 385 -379 0
-18 -385 379 0
-18 385 -379 0
-19 -379 385 0
-19 -375 385 0
-19 -385 379 375 0
-20 -385 379 0
-20 385 -379 0
-21 -385 379 0
-21 385 -379 0
-22 -385 379 0
-22 385 -379 0
-23 -379 385 0
-23 -376 385 0
-23 -385 379 376 0
-24 -385 379 0
-24 385 -379 0
-25 -385 379 0
-25 385 -379 0
-26 -379 385 0
-26 -377 385 0
-26 -385 379 377 0
-27 -385 379 0
-27 385 -379 0
-28 -379 385 0
-28 -378 385 0
-28 -385 379 378 0
-29 -385 379 0
-29 385 -379 0
-30 -385 379 0
-30 -385 380 0
-30 385 -379 -380 0
-77 -385 379 0
-77 385 -379 0
-16 -386 380 0
-16 386 -380 0
-17 -386 380 0
-17 386 -380 0
-18 -386 380 0
-18 386 -380 0
-19 -386 380 0
-19 386 -380 0
-20 -380 386 0
-20 -375 386 0
-20 -386 380 375 0
-21 -386 380 0
-21 386 -380 0
-22 -386 380 0
-22 386 -380 0
-23 -386 380 0
-23 386 -380 0
-24 -380 386 0
-24 -376 386 0
-24 -386 380 376 0
-25 -386 380 0
-25 386 -380 0
-26 -386 380 0
-26 386 -380 0
-27 -380 386 0
-27 -377 386 0
-27 -386 380 377 0
-28 -386 380 0
-28 386 -380 0
-29 -380 386 0
-29 -378 386 0
-29 -386 380 378 0
-30 -380 386 0
-30 -379 386 0
-30 -386 380 379 0
-77 -386 380 0
-77 386 -380 0
-31 -387 381 0
-31 -387 382 0
-31 387 -381 -382 0
-32 -387 381 0
-32 -387 383 0
-32 387 -381 -383 0
-33 -387 381 0
-33 -387 384 0
-33 387 -381 -384 0
-34 -387 381 0
-34 -387 385 0
-34 387 -381 -385 0
-35 -387 381 0
-35 -387 386 0
-35 387 -381 -386 0
-36 -387 381 0
-36 387 -381 0
-37 -387 381 0
-37 387 -381 0
-38 -387 381 0
-38 387 -381 0
-39 -387 381 0
-39 387 -381 0
-40 -387 381 0
-40 387 -381 0
-41 -387 381 0
-41 387 -381 0
-42 -387 381 0
-42 387 -381 0
-43 -387 381 0
-43 387 -381 0
-44 -387 381 0
-44 387 -381 0
-45 -387 381 0
-45 387 -381 0
-78 -387 381 0
-78 387 -381 0
-31 -382 388 0
-31 -381 388 0
-31 -388 382 381 0
-32 -388 382 0
-32 388 -382 0
-33 -388 382 0
-33 388 -382 0
-34 -388 382 0
-34 388 -382 0
-35 -388 382 0
-35 388 -382 0
-36 -388 382 0
-36 -388 383 0
-36 388 -382 -383 0
-37 -388 382 0
-37 -388 384 0
-37 388 -382 -384 0
-38 -388 382 0
-38 -388 385 0
-38 388 -382 -385 0
-39 -388 382 0
-39 -388 386 0
-39 388 -382 -386 0
-40 -388 382 0
-40 388 -382 0
-41 -388 382 0
-41 388 -382 0
-42 -388 382 0
-42 388 -382 0
-43 -388 382 0
-43 388 -382 0
-44 -388 382 0
-44 388 -382 0
-45 -388 382 0
-45 388 -382 0
-78 -388 382 0
-78 388 -382 0
-31 -389 383 0
-31 389 -383 0
-32 -383 389 0
-32 -381 389 0
-32 -389 383 381 0
-33 -389 383 0
-33 389 -383 0
-34 -389 383 0
-34 389 -383 0
-35 -389 383 0
-35 389 -383 0
-36 -383 389 0
-36 -382 389 0
-36 -389 383 382 0
-37 -389 383 0
-37 389 -383 0
-38 -389 383 0
-38 389 -383 0
-39 -389 383 0
-39 389 -383 0
-40 -389 383 0
-40 -389 384 0
-40 389 -383 -384 0
-41 -389 383 0
-41 -389 385 0
-41 389 -383 -385 0
-42 -389 383 0
-42 -389 386 0
-42 389 -383 -386 0
-43 -389 383 0
-43 389 -383 0
-44 -389 383 0
-44 389 -383 0
-45 -389 383 0
-45 389 -383 0
-78 -389 383 0
-78 389 -383 0
-31 -390 384 0
-31 390 -384 0
-32 -390 384 0
-32 390 -384 0
-33 -384 390 0
-33 -381 390 0
-33 -390 384 381 0
-34 -390 384 0
-34 390 -384 0
-35 -390 384 0
-35 390 -384 0
-36 -390 384 0
-36 390 -384 0
-37 -384 390 0
-37 -382 390 0
-37 -390 384 382 0
-38 -390 384 0
-38 390 -384 0
-39 -390 384 0
-39 390 -384 0
-40 -384 390 0
-40 -383 390 0
-40 -390 384 383 0
-41 -390 384 0
-41 390 -384 0
-42 -390 384 0
-42 390 -384 0
-43 -390 384 0
-43 -390 385 0
-43 390 -384 -385 0
-44 -390 384 0
-44 -390 386 0
-44 390 -384 -386 0
-45 -390 384 0
-45 390 -384 0
-78 -390 384 0
-78 390 -384 0
-31 -391 385 0
-31 391 -385 0
-32 -391 385 0
-32 391 -385 0
-33 -391 385 0
-33 391 -385 0
-34 -385 391 0
-34 -381 391 0
-34 -391 385 381 0
-35 -391 385 0
-35 391 -385 0
-36 -391 385 0
-36 391 -385 0
-37 -391 385 0
-37 391 -385 0
-38 -385 391 0
-38 -382 391 0
-38 -391 385 382 0
-39 -391 385 0
-39 391 -385 0
-40 -391 385 0
-40 391 -385 0
-41 -385 391 0
-41 -383 391 0
-41 -391 385 383 0
-42 -391 385 0
-42 391 -385 0
-43 -385 391 0
-43 -384 391 0
-43 -391 385 384 0
-44 -391 385 0
-44 391 -385 0
-45 -391 385 0
-45 -391 386 0
-45 391 -385 -386 0
-78 -391 385 0
-78 391 -385 0
-31 -392 386 0
-31 392 -386 0
-32 -392 386 0
-32 392 -386 0
-33 -392 386 0
-33 392 -386 0
-34 -392 386 0
-34 392 -386 0
-35 -386 392 0
-35 -381 392 0
-35 -392 386 381 0
-36 -392 386 0
-36 392 -386 0
-37 -392 386 0
-37 392 -386 0
-38 -392 386 0
-38 392 -386 0
-39 -386 392 0
-39 -382 392 0
-39 -392 386 382 0
-40 -392 386 0
-40 392 -386 0
-41 -392 386 0
-41 392 -386 0
-42 -386 392 0
-42 -383 392 0
-42 -392 386 383 0
-43 -392 386 0
-43 392 -386 0
-44 -386 392 0
-44 -384 392 0
-44 -392 386 384 0
-45 -386 392 0
-45 -385 392 0
-45 -392 386 385 0
-78 -392 386 0
-78 392 -386 0
-46 -393 387 0
-46 -393 388 0
-46 393 -387 -388 0
-47 -393 387 0
-47 -393 389 0
-47 393 -387 -389 0
-48 -393 387 0
-48 -393 390 0
-48 393 -387 -390 0
-49 -393 387 0
-49 -393 391 0
-49 393 -387 -391 0
-50 -393 387 0
-50 -393 392 0
-50 393 -387 -392 0
-51 -393 387 0
-51 393 -387 0
-52 -393 387 0
-52 393 -387 0
-53 -393 387 0
-53 393 -387 0
-54 -393 387 0
-54 393 -387 0
-55 -393 387 0
-55 393 -387 0
-56 -393 387 0
-56 393 -387 0
-57 -393 387 0
-57 393 -387 0
-58 -393 387 0
-58 393 -387 0
-59 -393 387 0
-59 393 -387 0
-60 -393 387 0
-60 393 -387 0
-79 -393 387 0
-79 393 -387 0
-46 -388 394 0
-46 -387 394 0
-46 -394 388 387 0
-47 -394 388 0
-47 394 -388 0
-48 -394 388 0
-48 394 -388 0
-49 -394 388 0
-49 394 -388 0
-50 -394 388 0
-50 394 -388 0
-51 -394 388 0
-51 -394 389 0
-51 394 -388 -389 0
-52 -394 388 0
-52 -394 390 0
-52 394 -388 -390 0
-53 -394 388 0
-53 -394 391 0
-53 394 -388 -391 0
-54 -394 388 0
-54 -394 392 0
-54 394 -388 -392 0
-55 -394 388 0
-55 394 -388 0
-56 -394 388 0
-56 394 -388 0
-57 -394 388 0
-57 394 -388 0
-58 -394 388 0
-58 394 -388 0
-59 -394 388 0
-59 394 -388 0
-60 -394 388 0
-60 394 -388 0
-79 -394 388 0
-79 394 -388 0
-46 -395 389 0
-46 395 -389 0
-47 -389 395 0
-47 -387 395 0
-47 -395 389 387 0
-48 -395 389 0
-48 395 -389 0
-49 -395 389 0
-49 395 -389 0
-50 -395 389 0
-50 395 -389 0
-51 -389 395 0
-51 -388 395 0
-51 -395 389 388 0
-52 -395 389 0
-52 395 -389 0
-53 -395 389 0
-53 395 -389 0
-54 -395 389 0
-54 395 -389 0
-55 -395 389 0
-55 -395 390 0
-55 395 -389 -390 0
-56 -395 389 0
-56 -395 391 0
-56 395 -389 -391 0
-57 -395 389 0
-57 -395 392 0
-57 395 -389 -392 0
-58 -395 389 0
-58 395 -389 0
-59 -395 389 0
-59 395 -389 0
-60 -395 389 0
-60 395 -389 0
-79 -395 389 0
-79 395 -389 0
-46 -396 390 0
-46 396 -390 0
-47 -396 390 0
-47 396 -390 0
-48 -390 396 0
-48 -387 396 0
-48 -396 390 387 0
-49 -396 390 0
-49 396 -390 0
-50 -396 390 0
-50 396 -390 0
-51 -396 390 0
-51 396 -390 0
-52 -390 396 0
-52 -388 396 0
-52 -396 390 388 0
-53 -396 390 0
-53 396 -390 0
-54 -396 390 0
-54 396 -390 0
-55 -390 396 0
-55 -389 396 0
-55 -396 390 389 0
-56 -396 390 0
-56 396 -390 0
-57 -396 390 0
-57 396 -390 0
-58 -396 390 0
-58 -396 391 0
-58 396 -390 -391 0
-59 -396 390 0
-59 -396 392 0
-59 396 -390 -392 0
-60 -396 390 0
-60 396 -390 0
-79 -396 390 0
-79 396 -390 0
-46 -397 391 0
-46 397 -391 0
-47 -397 391 0
-47 397 -391 0
-48 -397 391 0
-48 397 -391 0
-49 -391 397 0
-49 -387 397 0
-49 -397 391 387 0
-50 -397 391 0
-50 397 -391 0
-51 -397 391 0
-51 397 -391 0
-52 -397 391 0
-52 397 -391 0
-53 -391 397 0
-53 -388 397 0
-53 -397 391 388 0
-54 -397 391 0
-54 397 -391 0
-55 -397 391 0
-55 397 -391 0
-56 -391 397 0
-56 -389 397 0
-56 -397 391 389 0
-57 -397 391 0
-57 397 -391 0
-58 -391 397 0
-58 -390 397 0
-58 -397 391 390 0
-59 -397 391 0
-59 397 -391 0
-60 -397 391 0
-60 -397 392 0
-60 397 -391 -392 0
-79 -397 391 0
-79 397 -391 0
-46 -398 392 0
-46 398 -392 0
-47 -398 392 0
-47 398 -392 0
-48 -398 392 0
-48 398 -392 0
-49 -398 392 0
-49 398 -392 0
-50 -392 398 0
-50 -387 398 0
-50 -398 392 387 0
-51 -398 392 0
-51 398 -392 0
-52 -398 392 0
-52 398 -392 0
-53 -398 392 0
-53 398 -392 0
-54 -392 398 0
-54 -388 398 0
-54 -398 392 388 0
-55 -398 392 0
-55 398 -392 0
-56 -398 392 0
-56 398 -392 0
-57 -392 398 0
-57 -389 398 0
-57 -398 392 389 0
-58 -398 392 0
-58 398 -392 0
-59 -392 398 0
-59 -390 398 0
-59 -398 392 390 0
-60 -392 398 0
-60 -391 398 0
-60 -398 392 391 0
-79 -398 392 0
-79 398 -392 0
-61 -399 393 0
-61 -399 394 0
-61 399 -393 -394 0
-62 -399 393 0
-62 -399 395 0
-62 399 -393 -395 0
-63 -399 393 0
-63 -399 396 0
-63 399 -393 -396 0
-64 -399 393 0
-64 -399 397 0
-64 399 -393 -397 0
-65 -399 393 0
-65 -399 398 0
-65 399 -393 -398 0
-66 -399 393 0
-66 399 -393 0
-67 -399 393 0
-67 399 -393 0
-68 -399 393 0
-68 399 -393 0
-69 -399 393 0
-69 399 -393 0
-70 -399 393 0
-70 399 -393 0
-71 -399 393 0
-71 399 -393 0
-72 -399 393 0
-72 399 -393 0
-73 -399 393 0
-73 399 -393 0
-74 -399 393 0
-74 399 -393 0
-75 -399 393 0
-75 399 -393 0
-80 -399 393 0
-80 399 -393 0
-61 -394 400 0
-61 -393 400 0
-61 -400 394 393 0
-62 -400 394 0
-62 400 -394 0
-63 -400 394 0
-63 400 -394 0
-64 -400 394 0
-64 400 -394 0
-65 -400 394 0
-65 400 -394 0
-66 -400 394 0
-66 -400 395 0
-66 400 -394 -395 0
-67 -400 394 0
-67 -400 396 0
-67 400 -394 -396 0
-68 -400 394 0
-68 -400 397 0
-68 400 -394 -397 0
-69 -400 394 0
-69 -400 398 0
-69 400 -394 -398 0
-70 -400 394 0
-70 400 -394 0
-71 -400 394 0
-71 400 -394 0
-72 -400 394 0
-72 400 -394 0
-73 -400 394 0
-73 400 -394 0
-74 -400 394 0
-74 400 -394 0
-75 -400 394 0
-75 400 -394 0
-80 -400 394 0
-80 400 -394 0
-61 -401 395 0
-61 401 -395 0
-62 -395 401 0
-62 -393 401 0
-62 -401 395 393 0
-63 -401 395 0
-63 401 -395 0
-64 -401 395 0
-64 401 -395 0
-65 -401 395 0
-65 401 -395 0
-66 -395 401 0
-66 -394 401 0
-66 -401 395 394 0
-67 -401 395 0
-67 401 -395 0
-68 -401 395 0
-68 401 -395 0
-69 -401 395 0
-69 401 -395 0
-70 -401 395 0
-70 -401 396 0
-70 401 -395 -396 0
-71 -401 395 0
-71 -401 397 0
-71 401 -395 -397 0
-72 -401 395 0
-72 -401 398 0
-72 401 -395 -398 0
-73 -401 395 0
-73 401 -395 0
-74 -401 395 0
-74 401 -395 0
-75 -401 395 0
-75 401 -395 0
-80 -401 395 0
-80 401 -395 0
-61 -402 396 0
-61 402 -396 0
-62 -402 396 0
-62 402 -396 0
-63 -396 402 0
-63 -393 402 0
-63 -402 396 393 0
-64 -402 396 0
-64 402 -396 0
-65 -402 396 0
-65 402 -396 0
-66 -402 396 0
-66 402 -396 0
-67 -396 402 0
-67 -394 402 0
-67 -402 396 394 0
-68 -402 396 0
-68 402 -396 0
-69 -402 396 0
-69 402 -396 0
-70 -396 402 0
-70 -395 402 0
-70 -402 396 395 0
-71 -402 396 0
-71 402 -396 0
-72 -402 396 0
-72 402 -396 0
-73 -402 396 0
-73 -402 397 0
-73 402 -396 -397 0
-74 -402 396 0
-74 -402 398 0
-74 402 -396 -398 0
-75 -402 396 0
-75 402 -396 0
-80 -402 396 0
-80 402 -396 0
-61 -403 397 0
-61 403 -397 0
-62 -403 397 0
-62 403 -397 0
-63 -403 397 0
-63 403 -397 0
-64 -397 403 0
-64 -393 403 0
-64 -403 397 393 0
-65 -403 397 0
-65 403 -397 0
-66 -403 397 0
-66 403 -397 0
-67 -403 397 0
-67 403 -397 0
-68 -397 403 0
-68 -394 403 0
-68 -403 397 394 0
-69 -403 397 0
-69 403 -397 0
-70 -403 397 0
-70 403 -397 0
-71 -397 403 0
-71 -395 403 0
-71 -403 397 395 0
-72 -403 397 0
-72 403 -397 0
-73 -397 403 0
-73 -396 403 0
-73 -403 397 396 0
-74 -403 397 0
-74 403 -397 0
-75 -403 397 0
-75 -403 398 0
-75 403 -397 -398 0
-80 -403 397 0
-80 403 -397 0
-61 -404 398 0
-61 404 -398 0
-62 -404 398 0
-62 404 -398 0
-63 -404 398 0
-63 404 -398 0
-64 -404 398 0
-64 404 -398 0
-65 -398 404 0
-65 -393 404 0
-65 -404 398 393 0
-66 -404 398 0
-66 404 -398 0
-67 -404 398 0
-67 404 -398 0
-68 -404 398 0
-68 404 -398 0
-69 -398 404 0
-69 -394 404 0
-69 -404 398 394 0
-70 -404 398 0
-70 404 -398 0
-71 -404 398 0
-71 404 -398 0
-72 -398 404 0
-72 -395 404 0
-72 -404 398 395 0
-73 -404 398 0
-73 404 -398 0
-74 -398 404 0
-74 -396 404 0
-74 -404 398 396 0
-75 -398 404 0
-75 -397 404 0
-75 -404 398 397 0
-80 -404 398 0
-80 404 -398 0
-405 0
-1 -411 405 0
-1 -411 406 0
-1 411 -405 -406 0
-2 -411 405 0
-2 -411 407 0
-2 411 -405 -407 0
-3 -411 405 0
-3 -411 408 0
-3 411 -405 -408 0
-4 -411 405 0
-4 -411 409 0
-4 411 -405 -409 0
-5 -411 405 0
-5 -411 410 0
-5 411 -405 -410 0
-6 -411 405 0
-6 411 -405 0
-7 -411 405 0
-7 411 -405 0
-8 -411 405 0
-8 411 -405 0
-9 -411 405 0
-9 411 -405 0
-10 -411 405 0
-10 411 -405 0
-11 -411 405 0
-11 411 -405 0
-12 -411 405 0
-12 411 -405 0
-13 -411 405 0
-13 411 -405 0
-14 -411 405 0
-14 411 -405 0
-15 -411 405 0
-15 411 -405 0
-76 -411 405 0
-76 411 -405 0
406 0
-1 -406 412 0
-1 -405 412 0
-1 -412 406 405 0
-2 -412 406 0
-2 412 -406 0
-3 -412 406 0
-3 412 -406 0
-4 -412 406 0
-4 412 -406 0
-5 -412 406 0
-5 412 -406 0
-6 -412 406 0
-6 -412 407 0
-6 412 -406 -407 0
-7 -412 406 0
-7 -412 408 0
-7 412 -406 -408 0
-8 -412 406 0
-8 -412 409 0
-8 412 -406 -409 0
-9 -412 406 0
-9 -412 410 0
-9 412 -406 -410 0
-10 -412 406 0
-10 412 -406 0
-11 -412 406 0
-11 412 -406 0
-12 -412 406 0
-12 412 -406 0
-13 -412 406 0
-13 412 -406 0
-14 -412 406 0
-14 412 -406 0
-15 -412 406 0
-15 412 -406 0
-76 -412 406 0
-76 412 -406 0
407 0
-1 -413 407 0
-1 413 -407 0
-2 -407 413 0
-2 -405 413 0
-2 -413 407 405 0
-3 -413 407 0
-3 413 -407 0
-4 -413 407 0
-4 413 -407 0
-5 -413 407 0
-5 413 -407 0
-6 -407 413 0
-6 -406 413 0
-6 -413 407 406 0
-7 -413 407 0
-7 413 -407 0
-8 -413 407 0
-8 413 -407 0
-9 -413 407 0
-9 413 -407 0
-10 -413 407 0
-10 -413 408 0
-10 413 -407 -408 0
-11 -413 407 0
-11 -413 409 0
-11 413 -407 -409 0
-12 -413 407 0
-12 -413 410 0
-12 413 -407 -410 0
-13 -413 407 0
-13 413 -407 0
-14 -413 407 0
-14 413 -407 0
-15 -413 407 0
-15 413 -407 0
-76 -413 407 0
-76 413 -407 0
-408 0
-1 -414 408 0
-1 414 -408 0
-2 -414 408 0
-2 414 -408 0
-3 -408 414 0
-3 -405 414 0
-3 -414 408 405 0
-4 -414 408 0
-4 414 -408 0
-5 -414 408 0
-5 414 -408 0
-6 -414 408 0
-6 414 -408 0
-7 -408 414 0
-7 -406 414 0
-7 -414 408 406 0
-8 -414 408 0
-8 414 -408 0
-9 -414 408 0
-9 414 -408 0
-10 -408 414 0
-10 -407 414 0
-10 -414 408 407 0
-11 -414 408 0
-11 414 -408 0
-12 -414 408 0
-12 414 -408 0
-13 -414 408 0
-13 -414 409 0
-13 414 -408 -409 0
-14 -414 408 0
-14 -414 410 0
-14 414 -408 -410 0
-15 -414 408 0
-15 414 -408 0
-76 -414 408 0
-76 414 -408 0
-409 0
-1 -415 409 0
-1 415 -409 0
-2 -415 409 0
-2 415 -409 0
-3 -415 409 0
-3 415 -409 0
-4 -409 415 0
-4 -405 415 0
-4 -415 409 405 0
-5 -415 409 0
-5 415 -409 0
-6 -415 409 0
-6 415 -409 0
-7 -415 409 0
-7 415 -409 0
-8 -409 415 0
-8 -406 415 0
-8 -415 409 406 0
-9 -415 409 0
-9 415 -409 0
-10 -415 409 0
-10 415 -409 0
-11 -409 415 0
-11 -407 415 0
-11 -415 409 407 0
-12 -415 409 0
-12 415 -409 0
-13 -409 415 0
-13 -408 415 0
-13 -415 409 408 0
-14 -415 409 0
-14 415 -409 0
-15 -415 409 0
-15 -415 410 0
-15 415 -409 -410 0
-76 -415 409 0
-76 415 -409 0
410 0
-1 -416 410 0
-1 416 -410 0
-2 -416 410 0
-2 416 -410 0
-3 -416 410 0
-3 416 -410 0
-4 -416 410 0
-4 416 -410 0
-5 -410 416 0
-5 -405 416 0
-5 -416 410 405 0
-6 -416 410 0
-6 416 -410 0
-7 -416 410 0
-7 416 -410 0
-8 -416 410 0
-8 416 -410 0
-9 -410 416 0
-9 -406 416 0
-9 -416 410 406 0
-10 -416 410 0
-10 416 -410 0
-11 -416 410 0
-11 416 -410 0
-12 -410 416 0
-12 -407 416 0
-12 -416 410 407 0
-13 -416 410 0
-13 416 -410 0
-14 -410 416 0
-14 -408 416 0
-14 -416 410 408 0
-15 -410 416 0
-15 -409 416 0
-15 -416 410 409 0
-76 -416 410 0
-76 416 -410 0
-16 -417 411 0
-16 -417 412 0
-16 417 -411 -412 0
-17 -417 411 0
-17 -417 413 0
-17 417 -411 -413 0
-18 -417 411 0
-18 -417 414 0
-18 417 -411 -414 0
-19 -417 411 0
-19 -417 415 0
-19 417 -411 -415 0
-20 -417 411 0
-20 -417 416 0
-20 417 -411 -416 0
-21 -417 411 0
-21 417 -411 0
-22 -417 411 0
-22 417 -411 0
-23 -417 411 0
-23 417 -411 0
-24 -417 411 0
-24 417 -411 0
-25 -417 411 0
-25 417 -411 0
-26 -417 411 0
-26 417 -411 0
-27 -417 411 0
-27 417 -411 0
-28 -417 411 0
-28 417 -411 0
-29 -417 411 0
-29 417 -411 0
-30 -417 411 0
-30 417 -411 0
-77 -417 411 0
-77 417 -411 0
-16 -412 418 0
-16 -411 418 0
-16 -418 412 411 0
-17 -418 412 0
-17 418 -412 0
-18 -418 412 0
-18 418 -412 0
-19 -418 412 0
-19 418 -412 0
-20 -418 412 0
-20 418 -412 0
-21 -418 412 0
-21 -418 413 0
-21 418 -412 -413 0
-22 -418 412 0
-22 -418 414 0
-22 418 -412 -414 0
-23 -418 412 0
-23 -418 415 0
-23 418 -412 -415 0
-24 -418 412 0
-24 -418 416 0
-24 418 -412 -416 0
-25 -418 412 0
-25 418 -412 0
-26 -418 412 0
-26 418 -412 0
-27 -418 412 0
-27 418 -412 0
-28 -418 412 0
-28 418 -412 0
-29 -418 412 0
-29 418 -412 0
-30 -418 412 0
-30 418 -412 0
-77 -418 412 0
-77 418 -412 0
-16 -419 413 0
-16 419 -413 0
-17 -413 419 0
-17 -411 419 0
-17 -419 413 411 0
-18 -419 413 0
-18 419 -413 0
-19 -419 413 0
-19 419 -413 0
-20 -419 413 0
-20 419 -413 0
-21 -413 419 0
-21 -412 419 0
-21 -419 413 412 0
-22 -419 413 0
-22 419 -413 0
-23 -419 413 0
-23 419 -413 0
-24 -419 413 0
-24 419 -413 0
-25 -419 413 0
-25 -419 414 0
-25 419 -413 -414 0
-26 -419 413 0
-26 -419 415 0
-26 419 -413 -415 0
-27 -419 413 0
-27 -419 416 0
-27 419 -413 -416 0
-28 -419 413 0
-28 419 -413 0
-29 -419 413 0
-29 419 -413 0
-30 -419 413 0
-30 419 -413 0
-77 -419 413 0
-77 419 -413 0
-16 -420 414 0
-16 420 -414 0
-17 -420 414 0
-17 420 -414 0
-18 -414 420 0
-18 -411 420 0
-18 -420 414 411 0
-19 -420 414 0
-19 420 -414 0
-20 -420 414 0
-20 420 -414 0
-21 -420 414 0
-21 420 -414 0
-22 -414 420 0
-22 -412 420 0
-22 -420 414 412 0
-23 -420 414 0
-23 420 -414 0
-24 -420 414 0
-24 420 -414 0
-25 -414 420 0
-25 -413 420 0
-25 -420 414 413 0
-26 -420 414 0
-26 420 -414 0
-27 -420 414 0
-27 420 -414 0
-28 -420 414 0
-28 -420 415 0
-28 420 -414 -415 0
-29 -420 414 0
-29 -420 416 0
-29 420 -414 -416 0
-30 -420 414 0
-30 420 -414 0
-77 -420 414 0
-77 420 -414 0
-16 -421 415 0
-16 421 -415 0
-17 -421 415 0
-17 421 -415 0
-18 -421 415 0
-18 421 -415 0
-19 -415 421 0
-19 -411 421 0
-19 -421 415 411 0
-20 -421 415 0
-20 421 -415 0
-21 -421 415 0
-21 421 -415 0
-22 -421 415 0
-22 421 -415 0
-23 -415 421 0
-23 -412 421 0
-23 -421 415 412 0
-24 -421 415 0
-24 421 -415 0
-25 -421 415 0
-25 421 -415 0
-26 -415 421 0
-26 -413 421 0
-26 -421 415 413 0
-27 -421 415 0
-27 421 -415 0
-28 -415 421 0
-28 -414 421 0
-28 -421 415 414 0
-29 -421 415 0
-29 421 -415 0
-30 -421 415 0
-30 -421 416 0
-30 421 -415 -416 0
-77 -421 415 0
-77 421 -415 0
-16 -422 416 0
-16 422 -416 0
-17 -422 416 0
-17 422 -416 0
-18 -422 416 0
-18 422 -416 0
-19 -422 416 0
-19 422 -416 0
-20 -416 422 0
-20 -411 422 0
-20 -422 416 411 0
-21 -422 416 0
-21 422 -416 0
-22 -422 416 0
-22 422 -416 0
-23 -422 416 0
-23 422 -416 0
-24 -416 422 0
-24 -412 422 0
-24 -422 416 412 0
-25 -422 416 0
-25 422 -416 0
-26 -422 416 0
-26 422 -416 0
-27 -416 422 0
-27 -413 422 0
-27 -422 416 413 0
-28 -422 416 0
-28 422 -416 0
-29 -416 422 0
-29 -414 422 0
-29 -422 416 414 0
-30 -416 422 0
-30 -415 422 0
-30 -422 416 415 0
-77 -422 416 0
-77 422 -416 0
-31 -423 417 0
-31 -423 418 0
-31 423 -417 -418 0
-32 -423 417 0
-32 -423 419 0
-32 423 -417 -419 0
-33 -423 417 0
-33 -423 420 0
-33 423 -417 -420 0
-34 -423 417 0
-34 -423 421 0
-34 423 -417 -421 0
-35 -423 417 0
-35 -423 422 0
-35 423 -417 -422 0
-36 -423 417 0
-36 423 -417 0
-37 -423 417 0
-37 423 -417 0
-38 -423 417 0
-38 423 -417 0
-39 -423 417 0
-39 423 -417 0
-40 -423 417 0
-40 423 -417 0
-41 -423 417 0
-41 423 -417 0
-42 -423 417 0
-42 423 -417 0
-43 -423 417 0
-43 423 -417 0
-44 -423 417 0
-44 423 -417 0
-45 -423 417 0
-45 423 -417 0
-78 -423 417 0
-78 423 -417 0
-31 -418 424 0
-31 -417 424 0
-31 -424 418 417 0
-32 -424 418 0
-32 424 -418 0
-33 -424 418 0
-33 424 -418 0
-34 -424 418 0
-34 424 -418 0
-35 -424 418 0
-35 424 -418 0
-36 -424 418 0
-36 -424 419 0
-36 424 -418 -419 0
-37 -424 418 0
-37 -424 420 0
-37 424 -418 -420 0
-38 -424 418 0
-38 -424 421 0
-38 424 -418 -421 0
-39 -424 418 0
-39 -424 422 0
-39 424 -418 -422 0
-40 -424 418 0
-40 424 -418 0
-41 -424 418 0
-41 424 -418 0
-42 -424 418 0
-42 424 -418 0
-43 -424 418 0
-43 424 -418 0
-44 -424 418 0
-44 424 -418 0
-45 -424 418 0
-45 424 -418 0
-78 -424 418 0
-78 424 -418 0
-31 -425 419 0
-31 425 -419 0
-32 -419 425 0
-32 -417 425 0
-32 -425 419 417 0
-33 -425 419 0
-33 425 -419 0
-34 -425 419 0
-34 425 -419 0
-35 -425 419 0
-35 425 -419 0
-36 -419 425 0
-36 -418 425 0
-36 -425 419 418 0
-37 -425 419 0
-37 425 -419 0
-38 -425 419 0
-38 425 -419 0
-39 -425 419 0
-39 425 -419 0
-40 -425 419 0
-40 -425 420 0
-40 425 -419 -420 0
-41 -425 419 0
-41 -425 421 0
-41 425 -419 -421 0
-42 -425 419 0
-42 -425 422 0
-42 425 -419 -422 0
-43 -425 419 0
-43 425 -419 0
-44 -425 419 0
-44 425 -419 0
-45 -425 419 0
-45 425 -419 0
-78 -425 419 0
-78 425 -419 0
-31 -426 420 0
-31 426 -420 0
-32 -426 420 0
-32 426 -420 0
-33 -420 426 0
-33 -417 426 0
-33 -426 420 417 0
-34 -426 420 0
-34 426 -420 0
-35 -426 420 0
-35 426 -420 0
-36 -426 420 0
-36 426 -420 0
-37 -420 426 0
-37 -418 426 0
-37 -426 420 418 0
-38 -426 420 0
-38 426 -420 0
-39 -426 420 0
-39 426 -420 0
-40 -420 426 0
-40 -419 426 0
-40 -426 420 419 0
-41 -426 420 0
-41 426 -420 0
-42 -426 420 0
-42 426 -420 0
-43 -426 420 0
-43 -426 421 0
-43 426 -420 -421 0
-44 -426 420 0
-44 -426 422 0
-44 426 -420 -422 0
-45 -426 420 0
-45 426 -420 0
-78 -426 420 0
-78 426 -420 0
-31 -427 421 0
-31 427 -421 0
-32 -427 421 0
-32 427 -421 0
-33 -427 421 0
-33 427 -421 0
-34 -421 427 0
-34 -417 427 0
-34 -427 421 417 0
-35 -427 421 0
-35 427 -421 0
-36 -427 421 0
-36 427 -421 0
-37 -427 421 0
-37 427 -421 0
-38 -421 427 0
-38 -418 427 0
-38 -427 421 418 0
-39 -427 421 0
-39 427 -421 0
-40 -427 421 0
-40 427 -421 0
-41 -421 427 0
-41 -419 427 0
-41 -427 421 419 0
-42 -427 421 0
-42 427 -421 0
-43 -421 427 0
-43 -420 427 0
-43 -427 421 420 0
-44 -427 421 0
-44 427 -421 0
-45 -427 421 0
-45 -427 422 0
-45 427 -421 -422 0
-78 -427 421 0
-78 427 -421 0
-31 -428 422 0
-31 428 -422 0
-32 -428 422 0
-32 428 -422 0
-33 -428 422 0
-33 428 -422 0
-34 -428 422 0
-34 428 -422 0
-35 -422 428 0
-35 -417 428 0
-35 -428 422 417 0
-36 -428 422 0
-36 428 -422 0
-37 -428 422 0
-37 428 -422 0
-38 -428 422 0
-38 428 -422 0
-39 -422 428 0
-39 -418 428 0
-39 -428 422 418 0
-40 -428 422 0
-40 428 -422 0
-41 -428 422 0
-41 428 -422 0
-42 -422 428 0
-42 -419 428 0
-42 -428 422 419 0
-43 -428 422 0
-43 428 -422 0
-44 -422 428 0
-44 -420 428 0
-44 -428 422 420 0
-45 -422 428 0
-45 -421 428 0
-45 -428 422 421 0
-78 -428 422 0
-78 428 -422 0
-46 -429 423 0
-46 -429 424 0
-46 429 -423 -424 0
-47 -429 423 0
-47 -429 425 0
-47 429 -423 -425 0
-48 -429 423 0
-48 -429 426 0
-48 429 -423 -426 0
-49 -429 423 0
-49 -429 427 0
-49 429 -423 -427 0
-50 -429 423 0
-50 -429 428 0
-50 429 -423 -428 0
-51 -429 423 0
-51 429 -423 0
-52 -429 423 0
-52 429 -423 0
-53 -429 423 0
-53 429 -423 0
-54 -429 423 0
-54 429 -423 0
-55 -429 423 0
-55 429 -423 0
-56 -429 423 0
-56 429 -423 0
-57 -429 423 0
-57 429 -423 0
-58 -429 423 0
-58 429 -423 0
-59 -429 423 0
-59 429 -423 0
-60 -429 423 0
-60 429 -423 0
-79 -429 423 0
-79 429 -423 0
-46 -424 430 0
-46 -423 430 0
-46 -430 424 423 0
-47 -430 424 0
-47 430 -424 0
-48 -430 424 0
-48 430 -424 0
-49 -430 424 0
-49 430 -424 0
-50 -430 424 0
-50 430 -424 0
-51 -430 424 0
-51 -430 425 0
-51 430 -424 -425 0
-52 -430 424 0
-52 -430 426 0
-52 430 -424 -426 0
-53 -430 424 0
-53 -430 427 0
-53 430 -424 -427 0
-54 -430 424 0
-54 -430 428 0
-54 430 -424 -428 0
-55 -430 424 0
-55 430 -424 0
-56 -430 424 0
-56 430 -424 0
-57 -430 424 0
-57 430 -424 0
-58 -430 424 0
-58 430 -424 0
-59 -430 424 0
-59 430 -424 0
-60 -430 424 0
-60 430 -424 0
-79 -430 424 0
-79 430 -424 0
-46 -431 425 0
-46 431 -425 0
-47 -425 431 0
-47 -423 431 0
-47 -431 425 423 0
-48 -431 425 0
-48 431 -425 0
-49 -431 425 0
-49 431 -425 0
-50 -431 425 0
-50 431 -425 0
-51 -425 431 0
-51 -424 431 0
-51 -431 425 424 0
-52 -431 425 0
-52 431 -425 0
-53 -431 425 0
-53 431 -425 0
-54 -431 425 0
-54 431 -425 0
-55 -431 425 0
-55 -431 426 0
-55 431 -425 -426 0
-56 -431 425 0
-56 -431 427 0
-56 431 -425 -427 0
-57 -431 425 0
-57 -431 428 0
-57 431 -425 -428 0
-58 -431 425 0
-58 431 -425 0
-59 -431 425 0
-59 431 -425 0
-60 -431 425 0
-60 431 -425 0
-79 -431 425 0
-79 431 -425 0
-46 -432 426 0
-46 432 -426 0
-47 -432 426 0
-47 432 -426 0
-48 -426 432 0
-48 -423 432 0
-48 -432 426 423 0
-49 -432 426 0
-49 432 -426 0
-50 -432 426 0
-50 432 -426 0
-51 -432 426 0
-51 432 -426 0
-52 -426 432 0
-52 -424 432 0
-52 -432 426 424 0
-53 -432 426 0
-53 432 -426 0
-54 -432 426 0
-54 432 -426 0
-55 -426 432 0
-55 -425 432 0
-55 -432 426 425 0
-56 -432 426 0
-56 432 -426 0
-57 -432 426 0
-57 432 -426 0
-58 -432 426 0
-58 -432 427 0
-58 432 -426 -427 0
-59 -432 426 0
-59 -432 428 0
-59 432 -426 -428 0
-60 -432 426 0
-60 432 -426 0
-79 -432 426 0
-79 432 -426 0
-46 -433 427 0
-46 433 -427 0
-47 -433 427 0
-47 433 -427 0
-48 -433 427 0
-48 433 -427 0
-49 -427 433 0
-49 -423 433 0
-49 -433 427 423 0
-50 -433 427 0
-50 433 -427 0
-51 -433 427 0
-51 433 -427 0
-52 -433 427 0
-52 433 -427 0
-53 -427 433 0
-53 -424 433 0
-53 -433 427 424 0
-54 -433 427 0
-54 433 -427 0
-55 -433 427 0
-55 433 -427 0
-56 -427 433 0
-56 -425 433 0
-56 -433 427 425 0
-57 -433 427 0
-57 433 -427 0
-58 -427 433 0
-58 -426 433 0
-58 -433 427 426 0
-59 -433 427 0
-59 433 -427 0
-60 -433 427 0
-60 -433 428 0
-60 433 -427 -428 0
-79 -433 427 0
-79 433 -427 0
-46 -434 428 0
-46 434 -428 0
-47 -434 428 0
-47 434 -428 0
-48 -434 428 0
-48 434 -428 0
-49 -434 428 0
-49 434 -428 0
-50 -428 434 0
-50 -423 434 0
-50 -434 428 423 0
-51 -434 428 0
-51 434 -428 0
-52 -434 428 0
-52 434 -428 0
-53 -434 428 0
-53 434 -428 0
-54 -428 434 0
-54 -424 434 0
-54 -434 428 424 0
-55 -434 428 0
-55 434 -428 0
-56 -434 428 0
-56 434 -428 0
-57 -428 434 0
-57 -425 434 0
-57 -434 428 425 0
-58 -434 428 0
-58 434 -428 0
-59 -428 434 0
-59 -426 434 0
-59 -434 428 426 0
-60 -428 434 0
-60 -427 434 0
-60 -434 428 427 0
-79 -434 428 0
-79 434 -428 0
-61 -435 429 0
-61 -435 430 0
-61 435 -429 -430 0
-62 -435 429 0
-62 -435 431 0
-62 435 -429 -431 0
-63 -435 429 0
-63 -435 432 0
-63 435 -429 -432 0
-64 -435 429 0
-64 -435 433 0
-64 435 -429 -433 0
-65 -435 429 0
-65 -435 434 0
-65 435 -429 -434 0
-66 -435 429 0
-66 435 -429 0
-67 -435 429 0
-67 435 -429 0
-68 -435 429 0
-68 435 -429 0
-69 -435 429 0
-69 435 -429 0
-70 -435 429 0
-70 435 -429 0
-71 -435 429 0
-71 435 -429 0
-72 -435 429 0
-72 435 -429 0
-73 -435 429 0
-73 435 -429 0
-74 -435 429 0
-74 435 -429 0
-75 -435 429 0
-75 435 -429 0
-80 -435 429 0
-80 435 -429 0
-61 -430 436 0
-61 -429 436 0
-61 -436 430 429 0
-62 -436 430 0
-62 436 -430 0
-63 -436 430 0
-63 436 -430 0
-64 -436 430 0
-64 436 -430 0
-65 -436 430 0
-65 436 -430 0
-66 -436 430 0
-66 -436 431 0
-66 436 -430 -431 0
-67 -436 430 0
-67 -436 432 0
-67 436 -430 -432 0
-68 -436 430 0
-68 -436 433 0
-68 436 -430 -433 0
-69 -436 430 0
-69 -436 434 0
-69 436 -430 -434 0
-70 -436 430 0
-70 436 -430 0
-71 -436 430 0
-71 436 -430 0
-72 -436 430 0
-72 436 -430 0
-73 -436 430 0
-73 436 -430 0
-74 -436 430 0
-74 436 -430 0
-75 -436 430 0
-75 436 -430 0
-80 -436 430 0
-80 436 -430 0
-61 -437 431 0
-61 437 -431 0
-62 -431 437 0
-62 -429 437 0
-62 -437 431 429 0
-63 -437 431 0
-63 437 -431 0
-64 -437 431 0
-64 437 -431 0
-65 -437 431 0
-65 437 -431 0
-66 -431 437 0
-66 -430 437 0
-66 -437 431 430 0
-67 -437 431 0
-67 437 -431 0
-68 -437 431 0
-68 437 -431 0
-69 -437 431 0
-69 437 -431 0
-70 -437 431 0
-70 -437 432 0
-70 437 -431 -432 0
-71 -437 431 0
-71 -437 433 0
-71 437 -431 -433 0
-72 -437 431 0
-72 -437 434 0
-72 437 -431 -434 0
-73 -437 431 0
-73 437 -431 0
-74 -437 431 0
-74 437 -431 0
-75 -437 431 0
-75 437 -431 0
-80 -437 431 0
-80 437 -431 0
-61 -438 432 0
-61 438 -432 0
-62 -438 432 0
-62 438 -432 0
-63 -432 438 0
-63 -429 438 0
-63 -438 432 429 0
-64 -438 432 0
-64 438 -432 0
-65 -438 432 0
-65 438 -432 0
-66 -438 432 0
-66 438 -432 0
-67 -432 438 0
-67 -430 438 0
-67 -438 432 430 0
-68 -438 432 0
-68 438 -432 0
-69 -438 432 0
-69 438 -432 0
-70 -432 438 0
-70 -431 438 0
-70 -438 432 431 0
-71 -438 432 0
-71 438 -432 0
-72 -438 432 0
-72 438 -432 0
-73 -438 432 0
-73 -438 433 0
-73 438 -432 -433 0
-74 -438 432 0
-74 -438 434 0
-74 438 -432 -434 0
-75 -438 432 0
-75 438 -432 0
-80 -438 432 0
-80 438 -432 0
-61 -439 433 0
-61 439 -433 0
-62 -439 433 0
-62 439 -433 0
-63 -439 433 0
-63 439 -433 0
-64 -433 439 0
-64 -429 439 0
-64 -439 433 429 0
-65 -439 433 0
-65 439 -433 0
-66 -439 433 0
-66 439 -433 0
-67 -439 433 0
-67 439 -433 0
-68 -433 439 0
-68 -430 439 0
-68 -439 433 430 0
-69 -439 433 0
-69 439 -433 0
-70 -439 433 0
-70 439 -433 0
-71 -433 439 0
-71 -431 439 0
-71 -439 433 431 0
-72 -439 433 0
-72 439 -433 0
-73 -433 439 0
-73 -432 439 0
-73 -439 433 432 0
-74 -439 433 0
-74 439 -433 0
-75 -439 433 0
-75 -439 434 0
-75 439 -433 -434 0
-80 -439 433 0
-80 439 -433 0
-61 -440 434 0
-61 440 -434 0
-62 -440 434 0
-62 440 -434 0
-63 -440 434 0
-63 440 -434 0
-64 -440 434 0
-64 440 -434 0
-65 -434 440 0
-65 -429 440 0
-65 -440 434 429 0
-66 -440 434 0
-66 440 -434 0
-67 -440 434 0
-67 440 -434 0
-68 -440 434 0
-68 440 -434 0
-69 -434 440 0
-69 -430 440 0
-69 -440 434 430 0
-70 -440 434 0
-70 440 -434 0
-71 -440 434 0
-71 440 -434 0
-72 -434 440 0
-72 -431 440 0
-72 -440 434 431 0
-73 -440 434 0
-73 440 -434 0
-74 -434 440 0
-74 -432 440 0
-74 -440 434 432 0
-75 -434 440 0
-75 -433 440 0
-75 -440 434 433 0
-80 -440 434 0
-80 440 -434 0
-441 0
-1 -447 441 0
-1 -447 442 0
-1 447 -441 -442 0
-2 -447 441 0
-2 -447 443 0
-2 447 -441 -443 0
-3 -447 441 0
-3 -447 444 0
-3 447 -441 -444 0
-4 -447 441 0
-4 -447 445 0
-4 447 -441 -445 0
-5 -447 441 0
-5 -447 446 0
-5 447 -441 -446 0
-6 -447 441 0
-6 447 -441 0
-7 -447 441 0
-7 447 -441 0
-8 -447 441 0
-8 447 -441 0
-9 -447 441 0
-9 447 -441 0
-10 -447 441 0
-10 447 -441 0
-11 -447 441 0
-11 447 -441 0
-12 -447 441 0
-12 447 -441 0
-13 -447 441 0
-13 447 -441 0
-14 -447 441 0
-14 447 -441 0
-15 -447 441 0
-15 447 -441 0
-76 -447 441 0
-76 447 -441 0
442 0
-1 -442 448 0
-1 -441 448 0
-1 -448 442 441 0
-2 -448 442 0
-2 448 -442 0
-3 -448 442 0
-3 448 -442 0
-4 -448 442 0
-4 448 -442 0
-5 -448 442 0
-5 448 -442 0
-6 -448 442 0
-6 -448 443 0
-6 448 -442 -443 0
-7 -448 442 0
-7 -448 444 0
-7 448 -442 -444 0
-8 -448 442 0
-8 -448 445 0
-8 448 -442 -445 0
-9 -448 442 0
-9 -448 446 0
-9 448 -442 -446 0
-10 -448 442 0
-10 448 -442 0
-11 -448 442 0
-11 448 -442 0
-12 -448 442 0
-12 448 -442 0
-13 -448 442 0
-13 448 -442 0
-14 -448 442 0
-14 448 -442 0
-15 -448 442 0
-15 448 -442 0
-76 -448 442 0
-76 448 -442 0
443 0
-1 -449 443 0
-1 449 -443 0
-2 -443 449 0
-2 -441 449 0
-2 -449 443 441 0
-3 -449 443 0
-3 449 -443 0
-4 -449 443 0
-4 449 -443 0
-5 -449 443 0
-5 449 -443 0
-6 -443 449 0
-6 -442 449 0
-6 -449 443 442 0
-7 -449 443 0
-7 449 -443 0
-8 -449 443 0
-8 449 -443 0
-9 -449 443 0
-9 449 -443 0
-10 -449 443 0
-10 -449 444 0
-10 449 -443 -444 0
-11 -449 443 0
-11 -449 445 0
-11 449 -443 -445 0
-12 -449 443 0
-12 -449 446 0
-12 449 -443 -446 0
-13 -449 443 0
-13 449 -443 0
-14 -449 443 0
-14 449 -443 0
-15 -449 443 0
-15 449 -443 0
-76 -449 443 0
-76 449 -443 0
-444 0
-1 -450 444 0
-1 450 -444 0
-2 -450 444 0
-2 450 -444 0
-3 -444 450 0
-3 -441 450 0
-3 -450 444 441 0
-4 -450 444 0
-4 450 -444 0
-5 -450 444 0
-5 450 -444 0
-6 -450 444 0
-6 450 -444 0
-7 -444 450 0
-7 -442 450 0
-7 -450 444 442 0
-8 -450 444 0
-8 450 -444 0
-9 -450 444 0
-9 450 -444 0
-10 -444 450 0
-10 -443 450 0
-10 -450 444 443 0
-11 -450 444 0
-11 450 -444 0
-12 -450 444 0
-12 450 -444 0
-13 -450 444 0
-13 -450 445 0
-13 450 -444 -445 0
-14 -450 444 0
-14 -450 446 0
-14 450 -444 -446 0
-15 -450 444 0
-15 450 -444 0
-76 -450 444 0
-76 450 -444 0
445 0
-1 -451 445 0
-1 451 -445 0
-2 -451 445 0
-2 451 -445 0
-3 -451 445 0
-3 451 -445 0
-4 -445 451 0
-4 -441 451 0
-4 -451 445 441 0
-5 -451 445 0
-5 451 -445 0
-6 -451 445 0
-6 451 -445 0
-7 -451 445 0
-7 451 -445 0
-8 -445 451 0
-8 -442 451 0
-8 -451 445 442 0
-9 -451 445 0
-9 451 -445 0
-10 -451 445 0
-10 451 -445 0
-11 -445 451 0
-11 -443 451 0
-11 -451 445 443 0
-12 -451 445 0
-12 451 -445 0
-13 -445 451 0
-13 -444 451 0
-13 -451 445 444 0
-14 -451 445 0
-14 451 -445 0
-15 -451 445 0
-15 -451 446 0
-15 451 -445 -446 0
-76 -451 445 0
-76 451 -445 0
446 0
-1 -452 446 0
-1 452 -446 0
-2 -452 446 0
-2 452 -446 0
-3 -452 446 0
-3 452 -446 0
-4 -452 446 0
-4 452 -446 0
-5 -446 452 0
-5 -441 452 0
-5 -452 446 441 0
-6 -452 446 0
-6 452 -446 0
-7 -452 446 0
-7 452 -446 0
-8 -452 446 0
-8 452 -446 0
-9 -446 452 0
-9 -442 452 0
-9 -452 446 442 0
-10 -452 446 0
-10 452 -446 0
-11 -452 446 0
-11 452 -446 0
-12 -446 452 0
-12 -443 452 0
-12 -452 446 443 0
-13 -452 446 0
-13 452 -446 0
-14 -446 452 0
-14 -444 452 0
-14 -452 446 444 0
-15 -446 452 0
-15 -445 452 0
-15 -452 446 445 0
-76 -452 446 0
-76 452 -446 0
-16 -453 447 0
-16 -453 448 0
-16 453 -447 -448 0
-17 -453 447 0
-17 -453 449 0
-17 453 -447 -449 0
-18 -453 447 0
-18 -453 450 0
-18 453 -447 -450 0
-19 -453 447 0
-19 -453 451 0
-19 453 -447 -451 0
-20 -453 447 0
-20 -453 452 0
-20 453 -447 -452 0
-21 -453 447 0
-21 453 -447 0
-22 -453 447 0
-22 453 -447 0
-23 -453 447 0
-23 453 -447 0
-24 -453 447 0
-24 453 -447 0
-25 -453 447 0
-25 453 -447 0
-26 -453 447 0
-26 453 -447 0
-27 -453 447 0
-27 453 -447 0
-28 -453 447 0
-28 453 -447 0
-29 -453 447 0
-29 453 -447 0
-30 -453 447 0
-30 453 -447 0
-77 -453 447 0
-77 453 -447 0
-16 -448 454 0
-16 -447 454 0
-16 -454 448 447 0
-17 -454 448 0
-17 454 -448 0
-18 -454 448 0
-18 454 -448 0
-19 -454 448 0
-19 454 -448 0
-20 -454 448 0
-20 454 -448 0
-21 -454 448 0
-21 -454 449 0
-21 454 -448 -449 0
-22 -454 448 0
-22 -454 450 0
-22 454 -448 -450 0
-23 -454 448 0
-23 -454 451 0
-23 454 -448 -451 0
-24 -454 448 0
-24 -454 452 0
-24 454 -448 -452 0
-25 -454 448 0
-25 454 -448 0
-26 -454 448 0
-26 454 -448 0
-27 -454 448 0
-27 454 -448 0
-28 -454 448 0
-28 454 -448 0
-29 -454 448 0
-29 454 -448 0
-30 -454 448 0
-30 454 -448 0
-77 -454 448 0
-77 454 -448 0
-16 -455 449 0
-16 455 -449 0
-17 -449 455 0
-17 -447 455 0
-17 -455 449 447 0
-18 -455 449 0
-18 455 -449 0
-19 -455 449 0
-19 455 -449 0
-20 -455 449 0
-20 455 -449 0
-21 -449 455 0
-21 -448 455 0
-21 -455 449 448 0
-22 -455 449 0
-22 455 -449 0
-23 -455 449 0
-23 455 -449 0
-24 -455 449 0
-24 455 -449 0
-25 -455 449 0
-25 -455 450 0
-25 455 -449 -450 0
-26 -455 449 0
-26 -455 451 0
-26 455 -449 -451 0
-27 -455 449 0
-27 -455 452 0
-27 455 -449 -452 0
-28 -455 449 0
-28 455 -449 0
-29 -455 449 0
-29 455 -449 0
-30 -455 449 0
-30 455 -449 0
-77 -455 449 0
-77 455 -449 0
-16 -456 450 0
-16 456 -450 0
-17 -456 450 0
-17 456 -450 0
-18 -450 456 0
-18 -447 456 0
-18 -456 450 447 0
-19 -456 450 0
-19 456 -450 0
-20 -456 450 0
-20 456 -450 0
-21 -456 450 0
-21 456 -450 0
-22 -450 456 0
-22 -448 456 0
-22 -456 450 448 0
-23 -456 450 0
-23 456 -450 0
-24 -456 450 0
-24 456 -450 0
-25 -450 456 0
-25 -449 456 0
-25 -456 450 449 0
-26 -456 450 0
-26 456 -450 0
-27 -456 450 0
-27 456 -450 0
-28 -456 450 0
-28 -456 451 0
-28 456 -450 -451 0
-29 -456 450 0
-29 -456 452 0
-29 456 -450 -452 0
-30 -456 450 0
-30 456 -450 0
-77 -456 450 0
-77 456 -450 0
-16 -457 451 0
-16 457 -451 0
-17 -457 451 0
-17 457 -451 0
-18 -457 451 0
-18 457 -451 0
-19 -451 457 0
-19 -447 457 0
-19 -457 451 447 0
-20 -457 451 0
-20 457 -451 0
-21 -457 451 0
-21 457 -451 0
-22 -457 451 0
-22 457 -451 0
-23 -451 457 0
-23 -448 457 0
-23 -457 451 448 0
-24 -457 451 0
-24 457 -451 0
-25 -457 451 0
-25 457 -451 0
-26 -451 457 0
-26 -449 457 0
-26 -457 451 449 0
-27 -457 451 0
-27 457 -451 0
-28 -451 457 0
-28 -450 457 0
-28 -457 451 450 0
-29 -457 451 0
-29 457 -451 0
-30 -457 451 0
-30 -457 452 0
-30 457 -451 -452 0
-77 -457 451 0
-77 457 -451 0
-16 -458 452 0
-16 458 -452 0
-17 -458 452 0
-17 458 -452 0
-18 -458 452 0
-18 458 -452 0
-19 -458 452 0
-19 458 -452 0
-20 -452 458 0
-20 -447 458 0
-20 -458 452 447 0
-21 -458 452 0
-21 458 -452 0
-22 -458 452 0
-22 458 -452 0
-23 -458 452 0
-23 458 -452 0
-24 -452 458 0
-24 -448 458 0
-24 -458 452 448 0
-25 -458 452 0
-25 458 -452 0
-26 -458 452 0
-26 458 -452 0
-27 -452 458 0
-27 -449 458 0
-27 -458 452 449 0
-28 -458 452 0
-28 458 -452 0
-29 -452 458 0
-29 -450 458 0
-29 -458 452 450 0
-30 -452 458 0
-30 -451 458 0
-30 -458 452 451 0
-77 -458 452 0
-77 458 -452 0
-31 -459 453 0
-31 -459 454 0
-31 459 -453 -454 0
-32 -459 453 0
-32 -459 455 0
-32 459 -453 -455 0
-33 -459 453 0
-33 -459 456 0
-33 459 -453 -456 0
-34 -459 453 0
-34 -459 457 0
-34 459 -453 -457 0
-35 -459 453 0
-35 -459 458 0
-35 459 -453 -458 0
-36 -459 453 0
-36 459 -453 0
-37 -459 453 0
-37 459 -453 0
-38 -459 453 0
-38 459 -453 0
-39 -459 453 0
-39 459 -453 0
-40 -459 453 0
-40 459 -453 0
-41 -459 453 0
-41 459 -453 0
-42 -459 453 0
-42 459 -453 0
-43 -459 453 0
-43 459 -453 0
-44 -459 453 0
-44 459 -453 0
-45 -459 453 0
-45 459 -453 0
-78 -459 453 0
-78 459 -453 0
-31 -454 460 0
-31 -453 460 0
-31 -460 454 453 0
-32 -460 454 0
-32 460 -454 0
-33 -460 454 0
-33 460 -454 0
-34 -460 454 0
-34 460 -454 0
-35 -460 454 0
-35 460 -454 0
-36 -460 454 0
-36 -460 455 0
-36 460 -454 -455 0
-37 -460 454 0
-37 -460 456 0
-37 460 -454 -456 0
-38 -460 454 0
-38 -460 457 0
-38 460 -454 -457 0
-39 -460 454 0
-39 -460 458 0
-39 460 -454 -458 0
-40 -460 454 0
-40 460 -454 0
-41 -460 454 0
-41 460 -454 0
-42 -460 454 0
-42 460 -454 0
-43 -460 454 0
-43 460 -454 0
-44 -460 454 0
-44 460 -454 0
-45 -460 454 0
-45 460 -454 0
-78 -460 454 0
-78 460 -454 0
-31 -461 455 0
-31 461 -455 0
-32 -455 461 0
-32 -453 461 0
-32 -461 455 453 0
-33 -461 455 0
-33 461 -455 0
-34 -461 455 0
-34 461 -455 0
-35 -461 455 0
-35 461 -455 0
-36 -455 461 0
-36 -454 461 0
-36 -461 455 454 0
-37 -461 455 0
-37 461 -455 0
-38 -461 455 0
-38 461 -455 0
-39 -461 455 0
-39 461 -455 0
-40 -461 455 0
-40 -461 456 0
-40 461 -455 -456 0
-41 -461 455 0
-41 -461 457 0
-41 461 -455 -457 0
-42 -461 455 0
-42 -461 458 0
-42 461 -455 -458 0
-43 -461 455 0
-43 461 -455 0
-44 -461 455 0
-44 461 -455 0
-45 -461 455 0
-45 461 -455 0
-78 -461 455 0
-78 461 -455 0
-31 -462 456 0
-31 462 -456 0
-32 -462 456 0
-32 462 -456 0
-33 -456 462 0
-33 -453 462 0
-33 -462 456 453 0
-34 -462 456 0
-34 462 -456 0
-35 -462 456 0
-35 462 -456 0
-36 -462 456 0
-36 462 -456 0
-37 -456 462 0
-37 -454 462 0
-37 -462 456 454 0
-38 -462 456 0
-38 462 -456 0
-39 -462 456 0
-39 462 -456 0
-40 -456 462 0
-40 -455 462 0
-40 -462 456 455 0
-41 -462 456 0
-41 462 -456 0
-42 -462 456 0
-42 462 -456 0
-43 -462 456 0
-43 -462 457 0
-43 462 -456 -457 0
-44 -462 456 0
-44 -462 458 0
-44 462 -456 -458 0
-45 -462 456 0
-45 462 -456 0
-78 -462 456 0
-78 462 -456 0
-31 -463 457 0
-31 463 -457 0
-32 -463 457 0
-32 463 -457 0
-33 -463 457 0
-33 463 -457 0
-34 -457 463 0
-34 -453 463 0
-34 -463 457 453 0
-35 -463 457 0
-35 463 -457 0
-36 -463 457 0
-36 463 -457 0
-37 -463 457 0
-37 463 -457 0
-38 -457 463 0
-38 -454 463 0
-38 -463 457 454 0
-39 -463 457 0
-39 463 -457 0
-40 -463 457 0
-40 463 -457 0
-41 -457 463 0
-41 -455 463 0
-41 -463 457 455 0
-42 -463 457 0
-42 463 -457 0
-43 -457 463 0
-43 -456 463 0
-43 -463 457 456 0
-44 -463 457 0
-44 463 -457 0
-45 -463 457 0
-45 -463 458 0
-45 463 -457 -458 0
-78 -463 457 0
-78 463 -457 0
-31 -464 458 0
-31 464 -458 0
-32 -464 458 0
-32 464 -458 0
-33 -464 458 0
-33 464 -458 0
-34 -464 458 0
-34 464 -458 0
-35 -458 464 0
-35 -453 464 0
-35 -464 458 453 0
-36 -464 458 0
-36 464 -458 0
-37 -464 458 0
-37 464 -458 0
-38 -464 458 0
-38 464 -458 0
-39 -458 464 0
-39 -454 464 0
-39 -464 458 454 0
-40 -464 458 0
-40 464 -458 0
-41 -464 458 0
-41 464 -458 0
-42 -458 464 0
-42 -455 464 0
-42 -464 458 455 0
-43 -464 458 0
-43 464 -458 0
-44 -458 464 0
-44 -456 464 0
-44 -464 458 456 0
-45 -458 464 0
-45 -457 464 0
-45 -464 458 457 0
-78 -464 458 0
-78 464 -458 0
-46 -465 459 0
-46 -465 460 0
-46 465 -459 -460 0
-47 -465 459 0
-47 -465 461 0
-47 465 -459 -461 0
-48 -465 459 0
-48 -465 462 0
-48 465 -459 -462 0
-49 -465 459 0
-49 -465 463 0
-49 465 -459 -463 0
-50 -465 459 0
-50 -465 464 0
-50 465 -459 -464 0
-51 -465 459 0
-51 465 -459 0
-52 -465 459 0
-52 465 -459 0
-53 -465 459 0
-53 465 -459 0
-54 -465 459 0
-54 465 -459 0
-55 -465 459 0
-55 465 -459 0
-56 -465 459 0
-56 465 -459 0
-57 -465 459 0
-57 465 -459 0
-58 -465 459 0
-58 465 -459 0
-59 -465 459 0
-59 465 -459 0
-60 -465 459 0
-60 465 -459 0
-79 -465 459 0
-79 465 -459 0
-46 -460 466 0
-46 -459 466 0
-46 -466 460 459 0
-47 -466 460 0
-47 466 -460 0
-48 -466 460 0
-48 466 -460 0
-49 -466 460 0
-49 466 -460 0
-50 -466 460 0
-50 466 -460 0
-51 -466 460 0
-51 -466 461 0
-51 466 -460 -461 0
-52 -466 460 0
-52 -466 462 0
-52 466 -460 -462 0
-53 -466 460 0
-53 -466 463 0
-53 466 -460 -463 0
-54 -466 460 0
-54 -466 464 0
-54 466 -460 -464 0
-55 -466 460 0
-55 466 -460 0
-56 -466 460 0
-56 466 -460 0
-57 -466 460 0
-57 466 -460 0
-58 -466 460 0
-58 466 -460 0
-59 -466 460 0
-59 466 -460 0
-60 -466 460 0
-60 466 -460 0
-79 -466 460 0
-79 466 -460 0
-46 -467 461 0
-46 467 -461 0
-47 -461 467 0
-47 -459 467 0
-47 -467 461 459 0
-48 -467 461 0
-48 467 -461 0
-49 -467 461 0
-49 467 -461 0
-50 -467 461 0
-50 467 -461 0
-51 -461 467 0
-51 -460 467 0
-51 -467 461 460 0
-52 -467 461 0
-52 467 -461 0
-53 -467 461 0
-53 467 -461 0
-54 -467 461 0
-54 467 -461 0
-55 -467 461 0
-55 -467 462 0
-55 467 -461 -462 0
-56 -467 461 0
-56 -467 463 0
-56 467 -461 -463 0
-57 -467 461 0
-57 -467 464 0
-57 467 -461 -464 0
-58 -467 461 0
-58 467 -461 0
-59 -467 461 0
-59 467 -461 0
-60 -467 461 0
-60 467 -461 0
-79 -467 461 0
-79 467 -461 0
-46 -468 462 0
-46 468 -462 0
-47 -468 462 0
-47 468 -462 0
-48 -462 468 0
-48 -459 468 0
-48 -468 462 459 0
-49 -468 462 0
-49 468 -462 0
-50 -468 462 0
-50 468 -462 0
-51 -468 462 0
-51 468 -462 0
-52 -462 468 0
-52 -460 468 0
-52 -468 462 460 0
-53 -468 462 0
-53 468 -462 0
-54 -468 462 0
-54 468 -462 0
-55 -462 468 0
-55 -461 468 0
-55 -468 462 461 0
-56 -468 462 0
-56 468 -462 0
-57 -468 462 0
-57 468 -462 0
-58 -468 462 0
-58 -468 463 0
-58 468 -462 -463 0
-59 -468 462 0
-59 -468 464 0
-59 468 -462 -464 0
-60 -468 462 0
-60 468 -462 0
-79 -468 462 0
-79 468 -462 0
-46 -469 463 0
-46 469 -463 0
-47 -469 463 0
-47 469 -463 0
-48 -469 463 0
-48 469 -463 0
-49 -463 469 0
-49 -459 469 0
-49 -469 463 459 0
-50 -469 463 0
-50 469 -463 0
-51 -469 463 0
-51 469 -463 0
-52 -469 463 0
-52 469 -463 0
-53 -463 469 0
-53 -460 469 0
-53 -469 463 460 0
-54 -469 463 0
-54 469 -463 0
-55 -469 463 0
-55 469 -463 0
-56 -463 469 0
-56 -461 469 0
-56 -469 463 461 0
-57 -469 463 0
-57 469 -463 0
-58 -463 469 0
-58 -462 469 0
-58 -469 463 462 0
-59 -469 463 0
-59 469 -463 0
-60 -469 463 0
-60 -469 464 0
-60 469 -463 -464 0
-79 -469 463 0
-79 469 -463 0
-46 -470 464 0
-46 470 -464 0
-47 -470 464 0
-47 470 -464 0
-48 -470 464 0
-48 470 -464 0
-49 -470 464 0
-49 470 -464 0
-50 -464 470 0
-50 -459 470 0
-50 -470 464 459 0
-51 -470 464 0
-51 470 -464 0
-52 -470 464 0
-52 470 -464 0
-53 -470 464 0
-53 470 -464 0
-54 -464 470 0
-54 -460 470 0
-54 -470 464 460 0
-55 -470 464 0
-55 470 -464 0
-56 -470 464 0
-56 470 -464 0
-57 -464 470 0
-57 -461 470 0
-57 -470 464 461 0
-58 -470 464 0
-58 470 -464 0
-59 -464 470 0
-59 -462 470 0
-59 -470 464 462 0
-60 -464 470 0
-60 -463 470 0
-60 -470 464 463 0
-79 -470 464 0
-79 470 -464 0
-61 -471 465 0
-61 -471 466 0
-61 471 -465 -466 0
-62 -471 465 0
-62 -471 467 0
-62 471 -465 -467 0
-63 -471 465 0
-63 -471 468 0
-63 471 -465 -468 0
-64 -471 465 0
-64 -471 469 0
-64 471 -465 -469 0
-65 -471 465 0
-65 -471 470 0
-65 471 -465 -470 0
-66 -471 465 0
-66 471 -465 0
-67 -471 465 0
-67 471 -465 0
-68 -471 465 0
-68 471 -465 0
-69 -471 465 0
-69 471 -465 0
-70 -471 465 0
-70 471 -465 0
-71 -471 465 0
-71 471 -465 0
-72 -471 465 0
-72 471 -465 0
-73 -471 465 0
-73 471 -465 0
-74 -471 465 0
-74 471 -465 0
-75 -471 465 0
-75 471 -465 0
-80 -471 465 0
-80 471 -465 0
-61 -466 472 0
-61 -465 472 0
-61 -472 466 465 0
-62 -472 466 0
-62 472 -466 0
-63 -472 466 0
-63 472 -466 0
-64 -472 466 0
-64 472 -466 0
-65 -472 466 0
-65 472 -466 0
-66 -472 466 0
-66 -472 467 0
-66 472 -466 -467 0
-67 -472 466 0
-67 -472 468 0
-67 472 -466 -468 0
-68 -472 466 0
-68 -472 469 0
-68 472 -466 -469 0
-69 -472 466 0
-69 -472 470 0
-69 472 -466 -470 0
-70 -472 466 0
-70 472 -466 0
-71 -472 466 0
-71 472 -466 0
-72 -472 466 0
-72 472 -466 0
-73 -472 466 0
-73 472 -466 0
-74 -472 466 0
-74 472 -466 0
-75 -472 466 0
-75 472 -466 0
-80 -472 466 0
-80 472 -466 0
-61 -473 467 0
-61 473 -467 0
-62 -467 473 0
-62 -465 473 0
-62 -473 467 465 0
-63 -473 467 0
-63 473 -467 0
-64 -473 467 0
-64 473 -467 0
-65 -473 467 0
-65 473 -467 0
-66 -467 473 0
-66 -466 473 0
-66 -473 467 466 0
-67 -473 467 0
-67 473 -467 0
-68 -473 467 0
-68 473 -467 0
-69 -473 467 0
-69 473 -467 0
-70 -473 467 0
-70 -473 468 0
-70 473 -467 -468 0
-71 -473 467 0
-71 -473 469 0
-71 473 -467 -469 0
-72 -473 467 0
-72 -473 470 0
-72 473 -467 -470 0
-73 -473 467 0
-73 473 -467 0
-74 -473 467 0
-74 473 -467 0
-75 -473 467 0
-75 473 -467 0
-80 -473 467 0
-80 473 -467 0
-61 -474 468 0
-61 474 -468 0
-62 -474 468 0
-62 474 -468 0
-63 -468 474 0
-63 -465 474 0
-63 -474 468 465 0
-64 -474 468 0
-64 474 -468 0
-65 -474 468 0
-65 474 -468 0
-66 -474 468 0
-66 474 -468 0
-67 -468 474 0
-67 -466 474 0
-67 -474 468 466 0
-68 -474 468 0
-68 474 -468 0
-69 -474 468 0
-69 474 -468 0
-70 -468 474 0
-70 -467 474 0
-70 -474 468 467 0
-71 -474 468 0
-71 474 -468 0
-72 -474 468 0
-72 474 -468 0
-73 -474 468 0
-73 -474 469 0
-73 474 -468 -469 0
-74 -474 468 0
-74 -474 470 0
-74 474 -468 -470 0
-75 -474 468 0
-75 474 -468 0
-80 -474 468 0
-80 474 -468 0
-61 -475 469 0
-61 475 -469 0
-62 -475 469 0
-62 475 -469 0
-63 -475 469 0
-63 475 -469 0
-64 -469 475 0
-64 -465 475 0
-64 -475 469 465 0
-65 -475 469 0
-65 475 -469 0
-66 -475 469 0
-66 475 -469 0
-67 -475 469 0
-67 475 -469 0
-68 -469 475 0
-68 -466 475 0
-68 -475 469 466 0
-69 -475 469 0
-69 475 -469 0
-70 -475 469 0
-70 475 -469 0
-71 -469 475 0
-71 -467 475 0
-71 -475 469 467 0
-72 -475 469 0
-72 475 -469 0
-73 -469 475 0
-73 -468 475 0
-73 -475 469 468 0
-74 -475 469 0
-74 475 -469 0
-75 -475 469 0
-75 -475 470 0
-75 475 -469 -470 0
-80 -475 469 0
-80 475 -469 0
-61 -476 470 0
-61 476 -470 0
-62 -476 470 0
-62 476 -470 0
-63 -476 470 0
-63 476 -470 0
-64 -476 470 0
-64 476 -470 0
-65 -470 476 0
-65 -465 476 0
-65 -476 470 465 0
-66 -476 470 0
-66 476 -470 0
-67 -476 470 0
-67 476 -470 0
-68 -476 470 0
-68 476 -470 0
-69 -470 476 0
-69 -466 476 0
-69 -476 470 466 0
-70 -476 470 0
-70 476 -470 0
-71 -476 470 0
-71 476 -470 0
-72 -470 476 0
-72 -467 476 0
-72 -476 470 467 0
-73 -476 470 0
-73 476 -470 0
-74 -470 476 0
-74 -468 476 0
-74 -476 470 468 0
-75 -470 476 0
-75 -469 476 0
-75 -476 470 469 0
-80 -476 470 0
-80 476 -470 0
-477 0
-1 -483 477 0
-1 -483 478 0
-1 483 -477 -478 0
-2 -483 477 0
-2 -483 479 0
-2 483 -477 -479 0
-3 -483 477 0
-3 -483 480 0
-3 483 -477 -480 0
-4 -483 477 0
-4 -483 481 0
-4 483 -477 -481 0
-5 -483 477 0
-5 -483 482 0
-5 483 -477 -482 0
-6 -483 477 0
-6 483 -477 0
-7 -483 477 0
-7 483 -477 0
-8 -483 477 0
-8 483 -477 0
-9 -483 477 0
-9 483 -477 0
-10 -483 477 0
-10 483 -477 0
-11 -483 477 0
-11 483 -477 0
-12 -483 477 0
-12 483 -477 0
-13 -483 477 0
-13 483 -477 0
-14 -483 477 0
-14 483 -477 0
-15 -483 477 0
-15 483 -477 0
-76 -483 477 0
-76 483 -477 0
478 0
-1 -478 484 0
-1 -477 484 0
-1 -484 478 477 0
-2 -484 478 0
-2 484 -478 0
-3 -484 478 0
-3 484 -478 0
-4 -484 478 0
-4 484 -478 0
-5 -484 478 0
-5 484 -478 0
-6 -484 478 0
-6 -484 479 0
-6 484 -478 -479 0
-7 -484 478 0
-7 -484 480 0
-7 484 -478 -480 0
-8 -484 478 0
-8 -484 481 0
-8 484 -478 -481 0
-9 -484 478 0
-9 -484 482 0
-9 484 -478 -482 0
-10 -484 478 0
-10 484 -478 0
-11 -484 478 0
-11 484 -478 0
-12 -484 478 0
-12 484 -478 0
-13 -484 478 0
-13 484 -478 0
-14 -484 478 0
-14 484 -478 0
-15 -484 478 0
-15 484 -478 0
-76 -484 478 0
-76 484 -478 0
479 0
-1 -485 479 0
-1 485 -479 0
-2 -479 485 0
-2 -477 485 0
-2 -485 479 477 0
-3 -485 479 0
-3 485 -479 0
-4 -485 479 0
-4 485 -479 0
-5 -485 479 0
-5 485 -479 0
-6 -479 485 0
-6 -478 485 0
-6 -485 479 478 0
-7 -485 479 0
-7 485 -479 0
-8 -485 479 0
-8 485 -479 0
-9 -485 479 0
-9 485 -479 0
-10 -485 479 0
-10 -485 480 0
-10 485 -479 -480 0
-11 -485 479 0
-11 -485 481 0
-11 485 -479 -481 0
-12 -485 479 0
-12 -485 482 0
-12 485 -479 -482 0
-13 -485 479 0
-13 485 -479 0
-14 -485 479 0
-14 485 -479 0
-15 -485 479 0
-15 485 -479 0
-76 -485 479 0
-76 485 -479 0
480 0
-1 -486 480 0
-1 486 -480 0
-2 -486 480 0
-2 486 -480 0
-3 -480 486 0
-3 -477 486 0
-3 -486 480 477 0
-4 -486 480 0
-4 486 -480 0
-5 -486 480 0
-5 486 -480 0
-6 -486 480 0
-6 486 -480 0
-7 -480 486 0
-7 -478 486 0
-7 -486 480 478 0
-8 -486 480 0
-8 486 -480 0
-9 -486 480 0
-9 486 -480 0
-10 -480 486 0
-10 -479 486 0
-10 -486 480 479 0
-11 -486 480 0
-11 486 -480 0
-12 -486 480 0
-12 486 -480 0
-13 -486 480 0
-13 -486 481 0
-13 486 -480 -481 0
-14 -486 480 0
-14 -486 482 0
-14 486 -480 -482 0
-15 -486 480 0
-15 486 -480 0
-76 -486 480 0
-76 486 -480 0
481 0
-1 -487 481 0
-1 487 -481 0
-2 -487 481 0
-2 487 -481 0
-3 -487 481 0
-3 487 -481 0
-4 -481 487 0
-4 -477 487 0
-4 -487 481 477 0
-5 -487 481 0
-5 487 -481 0
-6 -487 481 0
-6 487 -481 0
-7 -487 481 0
-7 487 -481 0
-8 -481 487 0
-8 -478 487 0
-8 -487 481 478 0
-9 -487 481 0
-9 487 -481 0
-10 -487 481 0
-10 487 -481 0
-11 -481 487 0
-11 -479 487 0
-11 -487 481 479 0
-12 -487 481 0
-12 487 -481 0
-13 -481 487 0
-13 -480 487 0
-13 -487 481 480 0
-14 -487 481 0
-14 487 -481 0
-15 -487 481 0
-15 -487 482 0
-15 487 -481 -482 0
-76 -487 481 0
-76 487 -481 0
482 0
-1 -488 482 0
-1 488 -482 0
-2 -488 482 0
-2 488 -482 0
-3 -488 482 0
-3 488 -482 0
-4 -488 482 0
-4 488 -482 0
-5 -482 488 0
-5 -477 488 0
-5 -488 482 477 0
-6 -488 482 0
-6 488 -482 0
-7 -488 482 0
-7 488 -482 0
-8 -488 482 0
-8 488 -482 0
-9 -482 488 0
-9 -478 488 0
-9 -488 482 478 0
-10 -488 482 0
-10 488 -482 0
-11 -488 482 0
-11 488 -482 0
-12 -482 488 0
-12 -479 488 0
-12 -488 482 479 0
-13 -488 482 0
-13 488 -482 0
-14 -482 488 0
-14 -480 488 0
-14 -488 482 480 0
-15 -482 488 0
-15 -481 488 0
-15 -488 482 481 0
-76 -488 482 0
-76 488 -482 0
-16 -489 483 0
-16 -489 484 0
-16 489 -483 -484 0
-17 -489 483 0
-17 -489 485 0
-17 489 -483 -485 0
-18 -489 483 0
-18 -489 486 0
-18 489 -483 -486 0
-19 -489 483 0
-19 -489 487 0
-19 489 -483 -487 0
-20 -489 483 0
-20 -489 488 0
-20 489 -483 -488 0
-21 -489 483 0
-21 489 -483 0
-22 -489 483 0
-22 489 -483 0
-23 -489 483 0
-23 489 -483 0
-24 -489 483 0
-24 489 -483 0
-25 -489 483 0
-25 489 -483 0
-26 -489 483 0
-26 489 -483 0
-27 -489 483 0
-27 489 -483 0
-28 -489 483 0
-28 489 -483 0
-29 -489 483 0
-29 489 -483 0
-30 -489 483 0
-30 489 -483 0
-77 -489 483 0
-77 489 -483 0
-16 -484 490 0
-16 -483 490 0
-16 -490 484 483 0
-17 -490 484 0
-17 490 -484 0
-18 -490 484 0
-18 490 -484 0
-19 -490 484 0
-19 490 -484 0
-20 -490 484 0
-20 490 -484 0
-21 -490 484 0
-21 -490 485 0
-21 490 -484 -485 0
-22 -490 484 0
-22 -490 486 0
-22 490 -484 -486 0
-23 -490 484 0
-23 -490 487 0
-23 490 -484 -487 0
-24 -490 484 0
-24 -490 488 0
-24 490 -484 -488 0
-25 -490 484 0
-25 490 -484 0
-26 -490 484 0
-26 490 -484 0
-27 -490 484 0
-27 490 -484 0
-28 -490 484 0
-28 490 -484 0
-29 -490 484 0
-29 490 -484 0
-30 -490 484 0
-30 490 -484 0
-77 -490 484 0
-77 490 -484 0
-16 -491 485 0
-16 491 -485 0
-17 -485 491 0
-17 -483 491 0
-17 -491 485 483 0
-18 -491 485 0
-18 491 -485 0
-19 -491 485 0
-19 491 -485 0
-20 -491 485 0
-20 491 -485 0
-21 -485 491 0
-21 -484 491 0
-21 -491 485 484 0
-22 -491 485 0
-22 491 -485 0
-23 -491 485 0
-23 491 -485 0
-24 -491 485 0
-24 491 -485 0
-25 -491 485 0
-25 -491 486 0
-25 491 -485 -486 0
-26 -491 485 0
-26 -491 487 0
-26 491 -485 -487 0
-27 -491 485 0
-27 -491 488 0
-27 491 -485 -488 0
-28 -491 485 0
-28 491 -485 0
-29 -491 485 0
-29 491 -485 0
-30 -491 485 0
-30 491 -485 0
-77 -491 485 0
-77 491 -485 0
-16 -492 486 0
-16 492 -486 0
-17 -492 486 0
-17 492 -486 0
-18 -486 492 0
-18 -483 492 0
-18 -492 486 483 0
-19 -492 486 0
-19 492 -486 0
-20 -492 486 0
-20 492 -486 0
-21 -492 486 0
-21 492 -486 0
-22 -486 492 0
-22 -484 492 0
-22 -492 486 484 0
-23 -492 486 0
-23 492 -486 0
-24 -492 486 0
-24 492 -486 0
-25 -486 492 0
-25 -485 492 0
-25 -492 486 485 0
-26 -492 486 0
-26 492 -486 0
-27 -492 486 0
-27 492 -486 0
-28 -492 486 0
-28 -492 487 0
-28 492 -486 -487 0
-29 -492 486 0
-29 -492 488 0
-29 492 -486 -488 0
-30 -492 486 0
-30 492 -486 0
-77 -492 486 0
-77 492 -486 0
-16 -493 487 0
-16 493 -487 0
-17 -493 487 0
-17 493 -487 0
-18 -493 487 0
-18 493 -487 0
-19 -487 493 0
-19 -483 493 0
-19 -493 487 483 0
-20 -493 487 0
-20 493 -487 0
-21 -493 487 0
-21 493 -487 0
-22 -493 487 0
-22 493 -487 0
-23 -487 493 0
-23 -484 493 0
-23 -493 487 484 0
-24 -493 487 0
-24 493 -487 0
-25 -493 487 0
-25 493 -487 0
-26 -487 493 0
-26 -485 493 0
-26 -493 487 485 0
-27 -493 487 0
-27 493 -487 0
-28 -487 493 0
-28 -486 493 0
-28 -493 487 486 0
-29 -493 487 0
-29 493 -487 0
-30 -493 487 0
-30 -493 488 0
-30 493 -487 -488 0
-77 -493 487 0
-77 493 -487 0
-16 -494 488 0
-16 494 -488 0
-17 -494 488 0
-17 494 -488 0
-18 -494 488 0
-18 494 -488 0
-19 -494 488 0
-19 494 -488 0
-20 -488 494 0
-20 -483 494 0
-20 -494 488 483 0
-21 -494 488 0
-21 494 -488 0
-22 -494 488 0
-22 494 -488 0
-23 -494 488 0
-23 494 -488 0
-24 -488 494 0
-24 -484 494 0
-24 -494 488 484 0
-25 -494 488 0
-25 494 -488 0
-26 -494 488 0
-26 494 -488 0
-27 -488 494 0
-27 -485 494 0
-27 -494 488 485 0
-28 -494 488 0
-28 494 -488 0
-29 -488 494 0
-29 -486 494 0
-29 -494 488 486 0
-30 -488 494 0
-30 -487 494 0
-30 -494 488 487 0
-77 -494 488 0
-77 494 -488 0
-31 -495 489 0
-31 -495 490 0
-31 495 -489 -490 0
-32 -495 489 0
-32 -495 491 0
-32 495 -489 -491 0
-33 -495 489 0
-33 -495 492 0
-33 495 -489 -492 0
-34 -495 489 0
-34 -495 493 0
-34 495 -489 -493 0
-35 -495 489 0
-35 -495 494 0
-35 495 -489 -494 0
-36 -495 489 0
-36 495 -489 0
-37 -495 489 0
-37 495 -489 0
-38 -495 489 0
-38 495 -489 0
-39 -495 489 0
-39 495 -489 0
-40 -495 489 0
-40 495 -489 0
-41 -495 489 0
-41 495 -489 0
-42 -495 489 0
-42 495 -489 0
-43 -495 489 0
-43 495 -489 0
-44 -495 489 0
-44 495 -489 0
-45 -495 489 0
-45 495 -489 0
-78 -495 489 0
-78 495 -489 0
-31 -490 496 0
-31 -489 496 0
-31 -496 490 489 0
-32 -496 490 0
-32 496 -490 0
-33 -496 490 0
-33 496 -490 0
-34 -496 490 0
-34 496 -490 0
-35 -496 490 0
-35 496 -490 0
-36 -496 490 0
-36 -496 491 0
-36 496 -490 -491 0
-37 -496 490 0
-37 -496 492 0
-37 496 -490 -492 0
-38 -496 490 0
-38 -496 493 0
-38 496 -490 -493 0
-39 -496 490 0
-39 -496 494 0
-39 496 -490 -494 0
-40 -496 490 0
-40 496 -490 0
-41 -496 490 0
-41 496 -490 0
-42 -496 490 0
-42 496 -490 0
-43 -496 490 0
-43 496 -490 0
-44 -496 490 0
-44 496 -490 0
-45 -496 490 0
-45 496 -490 0
-78 -496 490 0
-78 496 -490 0
-31 -497 491 0
-31 497 -491 0
-32 -491 497 0
-32 -489 497 0
-32 -497 491 489 0
-33 -497 491 0
-33 497 -491 0
-34 -497 491 0
-34 497 -491 0
-35 -497 491 0
-35 497 -491 0
-36 -491 497 0
-36 -490 497 0
-36 -497 491 490 0
-37 -497 491 0
-37 497 -491 0
-38 -497 491 0
-38 497 -491 0
-39 -497 491 0
-39 497 -491 0
-40 -497 491 0
-40 -497 492 0
-40 497 -491 -492 0
-41 -497 491 0
-41 -497 493 0
-41 497 -491 -493 0
-42 -497 491 0
-42 -497 494 0
-42 497 -491 -494 0
-43 -497 491 0
-43 497 -491 0
-44 -497 491 0
-44 497 -491 0
-45 -497 491 0
-45 497 -491 0
-78 -497 491 0
-78 497 -491 0
-31 -498 492 0
-31 498 -492 0
-32 -498 492 0
-32 498 -492 0
-33 -492 498 0
-33 -489 498 0
-33 -498 492 489 0
-34 -498 492 0
-34 498 -492 0
-35 -498 492 0
-35 498 -492 0
-36 -498 492 0
-36 498 -492 0
-37 -492 498 0
-37 -490 498 0
-37 -498 492 490 0
-38 -498 492 0
-38 498 -492 0
-39 -498 492 0
-39 498 -492 0
-40 -492 498 0
-40 -491 498 0
-40 -498 492 491 0
-41 -498 492 0
-41 498 -492 0
-42 -498 492 0
-42 498 -492 0
-43 -498 492 0
-43 -498 493 0
-43 498 -492 -493 0
-44 -498 492 0
-44 -498 494 0
-44 498 -492 -494 0
-45 -498 492 0
-45 498 -492 0
-78 -498 492 0
-78 498 -492 0
-31 -499 493 0
-31 499 -493 0
-32 -499 493 0
-32 499 -493 0
-33 -499 493 0
-33 499 -493 0
-34 -493 499 0
-34 -489 499 0
-34 -499 493 489 0
-35 -499 493 0
-35 499 -493 0
-36 -499 493 0
-36 499 -493 0
-37 -499 493 0
-37 499 -493 0
-38 -493 499 0
-38 -490 499 0
-38 -499 493 490 0
-39 -499 493 0
-39 499 -493 0
-40 -499 493 0
-40 499 -493 0
-41 -493 499 0
-41 -491 499 0
-41 -499 493 491 0
-42 -499 493 0
-42 499 -493 0
-43 -493 499 0
-43 -492 499 0
-43 -499 493 492 0
-44 -499 493 0
-44 499 -493 0
-45 -499 493 0
-45 -499 494 0
-45 499 -493 -494 0
-78 -499 493 0
-78 499 -493 0
-31 -500 494 0
-31 500 -494 0
-32 -500 494 0
-32 500 -494 0
-33 -500 494 0
-33 500 -494 0
-34 -500 494 0
-34 500 -494 0
-35 -494 500 0
-35 -489 500 0
-35 -500 494 489 0
-36 -500 494 0
-36 500 -494 0
-37 -500 494 0
-37 500 -494 0
-38 -500 494 0
-38 500 -494 0
-39 -494 500 0
-39 -490 500 0
-39 -500 494 490 0
-40 -500 494 0
-40 500 -494 0
-41 -500 494 0
-41 500 -494 0
-42 -494 500 0
-42 -491 500 0
-42 -500 494 491 0
-43 -500 494 0
-43 500 -494 0
-44 -494 500 0
-44 -492 500 0
-44 -500 494 492 0
-45 -494 500 0
-45 -493 500 0
-45 -500 494 493 0
-78 -500 494 0
-78 500 -494 0
-46 -501 495 0
-46 -501 496 0
-46 501 -495 -496 0
-47 -501 495 0
-47 -501 497 0
-47 501 -495 -497 0
-48 -501 495 0
-48 -501 498 0
-48 501 -495 -498 0
-49 -501 495 0
-49 -501 499 0
-49 501 -495 -499 0
-50 -501 495 0
-50 -501 500 0
-50 501 -495 -500 0
-51 -501 495 0
-51 501 -495 0
-52 -501 495 0
-52 501 -495 0
-53 -501 495 0
-53 501 -495 0
-54 -501 495 0
-54 501 -495 0
-55 -501 495 0
-55 501 -495 0
-56 -501 495 0
-56 501 -495 0
-57 -501 495 0
-57 501 -495 0
-58 -501 495 0
-58 501 -495 0
-59 -501 495 0
-59 501 -495 0
-60 -501 495 0
-60 501 -495 0
-79 -501 495 0
-79 501 -495 0
-46 -496 502 0
-46 -495 502 0
-46 -502 496 495 0
-47 -502 496 0
-47 502 -496 0
-48 -502 496 0
-48 502 -496 0
-49 -502 496 0
-49 502 -496 0
-50 -502 496 0
-50 502 -496 0
-51 -502 496 0
-51 -502 497 0
-51 502 -496 -497 0
-52 -502 496 0
-52 -502 498 0
-52 502 -496 -498 0
-53 -502 496 0
-53 -502 499 0
-53 502 -496 -499 0
-54 -502 496 0
-54 -502 500 0
-54 502 -496 -500 0
-55 -502 496 0
-55 502 -496 0
-56 -502 496 0
-56 502 -496 0
-57 -502 496 0
-57 502 -496 0
-58 -502 496 0
-58 502 -496 0
-59 -502 496 0
-59 502 -496 0
-60 -502 496 0
-60 502 -496 0
-79 -502 496 0
-79 502 -496 0
-46 -503 497 0
-46 503 -497 0
-47 -497 503 0
-47 -495 503 0
-47 -503 497 495 0
-48 -503 497 0
-48 503 -497 0
-49 -503 497 0
-49 503 -497 0
-50 -503 497 0
-50 503 -497 0
-51 -497 503 0
-51 -496 503 0
-51 -503 497 496 0
-52 -503 497 0
-52 503 -497 0
-53 -503 497 0
-53 503 -497 0
-54 -503 497 0
-54 503 -497 0
-55 -503 497 0
-55 -503 498 0
-55 503 -497 -498 0
-56 -503 497 0
-56 -503 499 0
-56 503 -497 -499 0
-57 -503 497 0
-57 -503 500 0
-57 503 -497 -500 0
-58 -503 497 0
-58 503 -497 0
-59 -503 497 0
-59 503 -497 0
-60 -503 497 0
-60 503 -497 0
-79 -503 497 0
-79 503 -497 0
-46 -504 498 0
-46 504 -498 0
-47 -504 498 0
-47 504 -498 0
-48 -498 504 0
-48 -495 504 0
-48 -504 498 495 0
-49 -504 498 0
-49 504 -498 0
-50 -504 498 0
-50 504 -498 0
-51 -504 498 0
-51 504 -498 0
-52 -498 504 0
-52 -496 504 0
-52 -504 498 496 0
-53 -504 498 0
-53 504 -498 0
-54 -504 498 0
-54 504 -498 0
-55 -498 504 0
-55 -497 504 0
-55 -504 498 497 0
-56 -504 498 0
-56 504 -498 0
-57 -504 498 0
-57 504 -498 0
-58 -504 498 0
-58 -504 499 0
-58 504 -498 -499 0
-59 -504 498 0
-59 -504 500 0
-59 504 -498 -500 0
-60 -504 498 0
-60 504 -498 0
-79 -504 498 0
-79 504 -498 0
-46 -505 499 0
-46 505 -499 0
-47 -505 499 0
-47 505 -499 0
-48 -505 499 0
-48 505 -499 0
-49 -499 505 0
-49 -495 505 0
-49 -505 499 495 0
-50 -505 499 0
-50 505 -499 0
-51 -505 499 0
-51 505 -499 0
-52 -505 499 0
-52 505 -499 0
-53 -499 505 0
-53 -496 505 0
-53 -505 499 496 0
-54 -505 499 0
-54 505 -499 0
-55 -505 499 0
-55 505 -499 0
-56 -499 505 0
-56 -497 505 0
-56 -505 499 497 0
-57 -505 499 0
-57 505 -499 0
-58 -499 505 0
-58 -498 505 0
-58 -505 499 498 0
-59 -505 499 0
-59 505 -499 0
-60 -505 499 0
-60 -505 500 0
-60 505 -499 -500 0
-79 -505 499 0
-79 505 -499 0
-46 -506 500 0
-46 506 -500 0
-47 -506 500 0
-47 506 -500 0
-48 -506 500 0
-48 506 -500 0
-49 -506 500 0
-49 506 -500 0
-50 -500 506 0
-50 -495 506 0
-50 -506 500 495 0
-51 -506 500 0
-51 506 -500 0
-52 -506 500 0
-52 506 -500 0
-53 -506 500 0
-53 506 -500 0
-54 -500 506 0
-54 -496 506 0
-54 -506 500 496 0
-55 -506 500 0
-55 506 -500 0
-56 -506 500 0
-56 506 -500 0
-57 -500 506 0
-57 -497 506 0
-57 -506 500 497 0
-58 -506 500 0
-58 506 -500 0
-59 -500 506 0
-59 -498 506 0
-59 -506 500 498 0
-60 -500 506 0
-60 -499 506 0
-60 -506 500 499 0
-79 -506 500 0
-79 506 -500 0
-61 -507 501 0
-61 -507 502 0
-61 507 -501 -502 0
-62 -507 501 0
-62 -507 503 0
-62 507 -501 -503 0
-63 -507 501 0
-63 -507 504 0
-63 507 -501 -504 0
-64 -507 501 0
-64 -507 505 0
-64 507 -501 -505 0
-65 -507 501 0
-65 -507 506 0
-65 507 -501 -506 0
-66 -507 501 0
-66 507 -501 0
-67 -507 501 0
-67 507 -501 0
-68 -507 501 0
-68 507 -501 0
-69 -507 501 0
-69 507 -501 0
-70 -507 501 0
-70 507 -501 0
-71 -507 501 0
-71 507 -501 0
-72 -507 501 0
-72 507 -501 0
-73 -507 501 0
-73 507 -501 0
-74 -507 501 0
-74 507 -501 0
-75 -507 501 0
-75 507 -501 0
-80 -507 501 0
-80 507 -501 0
-61 -502 508 0
-61 -501 508 0
-61 -508 502 501 0
-62 -508 502 0
-62 508 -502 0
-63 -508 502 0
-63 508 -502 0
-64 -508 502 0
-64 508 -502 0
-65 -508 502 0
-65 508 -502 0
-66 -508 502 0
-66 -508 503 0
-66 508 -502 -503 0
-67 -508 502 0
-67 -508 504 0
-67 508 -502 -504 0
-68 -508 502 0
-68 -508 505 0
-68 508 -502 -505 0
-69 -508 502 0
-69 -508 506 0
-69 508 -502 -506 0
-70 -508 502 0
-70 508 -502 0
-71 -508 502 0
-71 508 -502 0
-72 -508 502 0
-72 508 -502 0
-73 -508 502 0
-73 508 -502 0
-74 -508 502 0
-74 508 -502 0
-75 -508 502 0
-75 508 -502 0
-80 -508 502 0
-80 508 -502 0
-61 -509 503 0
-61 509 -503 0
-62 -503 509 0
-62 -501 509 0
-62 -509 503 501 0
-63 -509 503 0
-63 509 -503 0
-64 -509 503 0
-64 509 -503 0
-65 -509 503 0
-65 509 -503 0
-66 -503 509 0
-66 -502 509 0
-66 -509 503 502 0
-67 -509 503 0
-67 509 -503 0
-68 -509 503 0
-68 509 -503 0
-69 -509 503 0
-69 509 -503 0
-70 -509 503 0
-70 -509 504 0
-70 509 -503 -504 0
-71 -509 503 0
-71 -509 505 0
-71 509 -503 -505 0
-72 -509 503 0
-72 -509 506 0
-72 509 -503 -506 0
-73 -509 503 0
-73 509 -503 0
-74 -509 503 0
-74 509 -503 0
-75 -509 503 0
-75 509 -503 0
-80 -509 503 0
-80 509 -503 0
-61 -510 504 0
-61 510 -504 0
-62 -510 504 0
-62 510 -504 0
-63 -504 510 0
-63 -501 510 0
-63 -510 504 501 0
-64 -510 504 0
-64 510 -504 0
-65 -510 504 0
-65 510 -504 0
-66 -510 504 0
-66 510 -504 0
-67 -504 510 0
-67 -502 510 0
-67 -510 504 502 0
-68 -510 504 0
-68 510 -504 0
-69 -510 504 0
-69 510 -504 0
-70 -504 510 0
-70 -503 510 0
-70 -510 504 503 0
-71 -510 504 0
-71 510 -504 0
-72 -510 504 0
-72 510 -504 0
-73 -510 504 0
-73 -510 505 0
-73 510 -504 -505 0
-74 -510 504 0
-74 -510 506 0
-74 510 -504 -506 0
-75 -510 504 0
-75 510 -504 0
-80 -510 504 0
-80 510 -504 0
-61 -511 505 0
-61 511 -505 0
-62 -511 505 0
-62 511 -505 0
-63 -511 505 0
-63 511 -505 0
-64 -505 511 0
-64 -501 511 0
-64 -511 505 501 0
-65 -511 505 0
-65 511 -505 0
-66 -511 505 0
-66 511 -505 0
-67 -511 505 0
-67 511 -505 0
-68 -505 511 0
-68 -502 511 0
-68 -511 505 502 0
-69 -511 505 0
-69 511 -505 0
-70 -511 505 0
-70 511 -505 0
-71 -505 511 0
-71 -503 511 0
-71 -511 505 503 0
-72 -511 505 0
-72 511 -505 0
-73 -505 511 0
-73 -504 511 0
-73 -511 505 504 0
-74 -511 505 0
-74 511 -505 0
-75 -511 505 0
-75 -511 506 0
-75 511 -505 -506 0
-80 -511 505 0
-80 511 -505 0
-61 -512 506 0
-61 512 -506 0
-62 -512 506 0
-62 512 -506 0
-63 -512 506 0
-63 512 -506 0
-64 -512 506 0
-64 512 -506 0
-65 -506 512 0
-65 -501 512 0
-65 -512 506 501 0
-66 -512 506 0
-66 512 -506 0
-67 -512 506 0
-67 512 -506 0
-68 -512 506 0
-68 512 -506 0
-69 -506 512 0
-69 -502 512 0
-69 -512 506 502 0
-70 -512 506 0
-70 512 -506 0
-71 -512 506 0
-71 512 -506 0
-72 -506 512 0
-72 -503 512 0
-72 -512 506 503 0
-73 -512 506 0
-73 512 -506 0
-74 -506 512 0
-74 -504 512 0
-74 -512 506 504 0
-75 -506 512 0
-75 -505 512 0
-75 -512 506 505 0
-80 -512 506 0
-80 512 -506 0
513 0
-1 -519 513 0
-1 -519 514 0
-1 519 -513 -514 0
-2 -519 513 0
-2 -519 515 0
-2 519 -513 -515 0
-3 -519 513 0
-3 -519 516 0
-3 519 -513 -516 0
-4 -519 513 0
-4 -519 517 0
-4 519 -513 -517 0
-5 -519 513 0
-5 -519 518 0
-5 519 -513 -518 0
-6 -519 513 0
-6 519 -513 0
-7 -519 513 0
-7 519 -513 0
-8 -519 513 0
-8 519 -513 0
-9 -519 513 0
-9 519 -513 0
-10 -519 513 0
-10 519 -513 0
-11 -519 513 0
-11 519 -513 0
-12 -519 513 0
-12 519 -513 0
-13 -519 513 0
-13 519 -513 0
-14 -519 513 0
-14 519 -513 0
-15 -519 513 0
-15 519 -513 0
-76 -519 513 0
-76 519 -513 0
514 0
-1 -514 520 0
-1 -513 520 0
-1 -520 514 513 0
-2 -520 514 0
-2 520 -514 0
-3 -520 514 0
-3 520 -514 0
-4 -520 514 0
-4 520 -514 0
-5 -520 514 0
-5 520 -514 0
-6 -520 514 0
-6 -520 515 0
-6 520 -514 -515 0
-7 -520 514 0
-7 -520 516 0
-7 520 -514 -516 0
-8 -520 514 0
-8 -520 517 0
-8 520 -514 -517 0
-9 -520 514 0
-9 -520 518 0
-9 520 -514 -518 0
-10 -520 514 0
-10 520 -514 0
-11 -520 514 0
-11 520 -514 0
-12 -520 514 0
-12 520 -514 0
-13 -520 514 0
-13 520 -514 0
-14 -520 514 0
-14 520 -514 0
-15 -520 514 0
-15 520 -514 0
-76 -520 514 0
-76 520 -514 0
515 0
-1 -521 515 0
-1 521 -515 0
-2 -515 521 0
-2 -513 521 0
-2 -521 515 513 0
-3 -521 515 0
-3 521 -515 0
-4 -521 515 0
-4 521 -515 0
-5 -521 515 0
-5 521 -515 0
-6 -515 521 0
-6 -514 521 0
-6 -521 515 514 0
-7 -521 515 0
-7 521 -515 0
-8 -521 515 0
-8 521 -515 0
-9 -521 515 0
-9 521 -515 0
-10 -521 515 0
-10 -521 516 0
-10 521 -515 -516 0
-11 -521 515 0
-11 -521 517 0
-11 521 -515 -517 0
-12 -521 515 0
-12 -521 518 0
-12 521 -515 -518 0
-13 -521 515 0
-13 521 -515 0
-14 -521 515 0
-14 521 -515 0
-15 -521 515 0
-15 521 -515 0
-76 -521 515 0
-76 521 -515 0
-516 0
-1 -522 516 0
-1 522 -516 0
-2 -522 516 0
-2 522 -516 0
-3 -516 522 0
-3 -513 522 0
-3 -522 516 513 0
-4 -522 516 0
-4 522 -516 0
-5 -522 516 0
-5 522 -516 0
-6 -522 516 0
-6 522 -516 0
-7 -516 522 0
-7 -514 522 0
-7 -522 516 514 0
-8 -522 516 0
-8 522 -516 0
-9 -522 516 0
-9 522 -516 0
-10 -516 522 0
-10 -515 522 0
-10 -522 516 515 0
-11 -522 516 0
-11 522 -516 0
-12 -522 516 0
-12 522 -516 0
-13 -522 516 0
-13 -522 517 0
-13 522 -516 -517 0
-14 -522 516 0
-14 -522 518 0
-14 522 -516 -518 0
-15 -522 516 0
-15 522 -516 0
-76 -522 516 0
-76 522 -516 0
-517 0
-1 -523 517 0
-1 523 -517 0
-2 -523 517 0
-2 523 -517 0
-3 -523 517 0
-3 523 -517 0
-4 -517 523 0
-4 -513 523 0
-4 -523 517 513 0
-5 -523 517 0
-5 523 -517 0
-6 -523 517 0
-6 523 -517 0
-7 -523 517 0
-7 523 -517 0
-8 -517 523 0
-8 -514 523 0
-8 -523 517 514 0
-9 -523 517 0
-9 523 -517 0
-10 -523 517 0
-10 523 -517 0
-11 -517 523 0
-11 -515 523 0
-11 -523 517 515 0
-12 -523 517 0
-12 523 -517 0
-13 -517 523 0
-13 -516 523 0
-13 -523 517 516 0
-14 -523 517 0
-14 523 -517 0
-15 -523 517 0
-15 -523 518 0
-15 523 -517 -518 0
-76 -523 517 0
-76 523 -517 0
-518 0
-1 -524 518 0
-1 524 -518 0
-2 -524 518 0
-2 524 -518 0
-3 -524 518 0
-3 524 -518 0
-4 -524 518 0
-4 524 -518 0
-5 -518 524 0
-5 -513 524 0
-5 -524 518 513 0
-6 -524 518 0
-6 524 -518 0
-7 -524 518 0
-7 524 -518 0
-8 -524 518 0
-8 524 -518 0
-9 -518 524 0
-9 -514 524 0
-9 -524 518 514 0
-10 -524 518 0
-10 524 -518 0
-11 -524 518 0
-11 524 -518 0
-12 -518 524 0
-12 -515 524 0
-12 -524 518 515 0
-13 -524 518 0
-13 524 -518 0
-14 -518 524 0
-14 -516 524 0
-14 -524 518 516 0
-15 -518 524 0
-15 -517 524 0
-15 -524 518 517 0
-76 -524 518 0
-76 524 -518 0
-16 -525 519 0
-16 -525 520 0
-16 525 -519 -520 0
-17 -525 519 0
-17 -525 521 0
-17 525 -519 -521 0
-18 -525 519 0
-18 -525 522 0
-18 525 -519 -522 0
-19 -525 519 0
-19 -525 523 0
-19 525 -519 -523 0
-20 -525 519 0
-20 -525 524 0
-20 525 -519 -524 0
-21 -525 519 0
-21 525 -519 0
-22 -525 519 0
-22 525 -519 0
-23 -525 519 0
-23 525 -519 0
-24 -525 519 0
-24 525 -519 0
-25 -525 519 0
-25 525 -519 0
-26 -525 519 0
-26 525 -519 0
-27 -525 519 0
-27 525 -519 0
-28 -525 519 0
-28 525 -519 0
-29 -525 519 0
-29 525 -519 0
-30 -525 519 0
-30 525 -519 0
-77 -525 519 0
-77 525 -519 0
-16 -520 526 0
-16 -519 526 0
-16 -526 520 519 0
-17 -526 520 0
-17 526 -520 0
-18 -526 520 0
-18 526 -520 0
-19 -526 520 0
-19 526 -520 0
-20 -526 520 0
-20 526 -520 0
-21 -526 520 0
-21 -526 521 0
-21 526 -520 -521 0
-22 -526 520 0
-22 -526 522 0
-22 526 -520 -522 0
-23 -526 520 0
-23 -526 523 0
-23 526 -520 -523 0
-24 -526 520 0
-24 -526 524 0
-24 526 -520 -524 0
-25 -526 520 0
-25 526 -520 0
-26 -526 520 0
-26 526 -520 0
-27 -526 520 0
-27 526 -520 0
-28 -526 520 0
-28 526 -520 0
-29 -526 520 0
-29 526 -520 0
-30 -526 520 0
-30 526 -520 0
-77 -526 520 0
-77 526 -520 0
-16 -527 521 0
-16 527 -521 0
-17 -521 527 0
-17 -519 527 0
-17 -527 521 519 0
-18 -527 521 0
-18 527 -521 0
-19 -527 521 0
-19 527 -521 0
-20 -527 521 0
-20 527 -521 0
-21 -521 527 0
-21 -520 527 0
-21 -527 521 520 0
-22 -527 521 0
-22 527 -521 0
-23 -527 521 0
-23 527 -521 0
-24 -527 521 0
-24 527 -521 0
-25 -527 521 0
-25 -527 522 0
-25 527 -521 -522 0
-26 -527 521 0
-26 -527 523 0
-26 527 -521 -523 0
-27 -527 521 0
-27 -527 524 0
-27 527 -521 -524 0
-28 -527 521 0
-28 527 -521 0
-29 -527 521 0
-29 527 -521 0
-30 -527 521 0
-30 527 -521 0
-77 -527 521 0
-77 527 -521 0
-16 -528 522 0
-16 528 -522 0
-17 -528 522 0
-17 528 -522 0
-18 -522 528 0
-18 -519 528 0
-18 -528 522 519 0
-19 -528 522 0
-19 528 -522 0
-20 -528 522 0
-20 528 -522 0
-21 -528 522 0
-21 528 -522 0
-22 -522 528 0
-22 -520 528 0
-22 -528 522 520 0
-23 -528 522 0
-23 528 -522 0
-24 -528 522 0
-24 528 -522 0
-25 -522 528 0
-25 -521 528 0
-25 -528 522 521 0
-26 -528 522 0
-26 528 -522 0
-27 -528 522 0
-27 528 -522 0
-28 -528 522 0
-28 -528 523 0
-28 528 -522 -523 0
-29 -528 522 0
-29 -528 524 0
-29 528 -522 -524 0
-30 -528 522 0
-30 528 -522 0
-77 -528 522 0
-77 528 -522 0
-16 -529 523 0
-16 529 -523 0
-17 -529 523 0
-17 529 -523 0
-18 -529 523 0
-18 529 -523 0
-19 -523 529 0
-19 -519 529 0
-19 -529 523 519 0
-20 -529 523 0
-20 529 -523 0
-21 -529 523 0
-21 529 -523 0
-22 -529 523 0
-22 529 -523 0
-23 -523 529 0
-23 -520 529 0
-23 -529 523 520 0
-24 -529 523 0
-24 529 -523 0
-25 -529 523 0
-25 529 -523 0
-26 -523 529 0
-26 -521 529 0
-26 -529 523 521 0
-27 -529 523 0
-27 529 -523 0
-28 -523 529 0
-28 -522 529 0
-28 -529 523 522 0
-29 -529 523 0
-29 529 -523 0
-30 -529 523 0
-30 -529 524 0
-30 529 -523 -524 0
-77 -529 523 0
-77 529 -523 0
-16 -530 524 0
-16 530 -524 0
-17 -530 524 0
-17 530 -524 0
-18 -530 524 0
-18 530 -524 0
-19 -530 524 0
-19 530 -524 0
-20 -524 530 0
-20 -519 530 0
-20 -530 524 519 0
-21 -530 524 0
-21 530 -524 0
-22 -530 524 0
-22 530 -524 0
-23 -530 524 0
-23 530 -524 0
-24 -524 530 0
-24 -520 530 0
-24 -530 524 520 0
-25 -530 524 0
-25 530 -524 0
-26 -530 524 0
-26 530 -524 0
-27 -524 530 0
-27 -521 530 0
-27 -530 524 521 0
-28 -530 524 0
-28 530 -524 0
-29 -524 530 0
-29 -522 530 0
-29 -530 524 522 0
-30 -524 530 0
-30 -523 530 0
-30 -530 524 523 0
-77 -530 524 0
-77 530 -524 0
-31 -531 525 0
-31 -531 526 0
-31 531 -525 -526 0
-32 -531 525 0
-32 -531 527 0
-32 531 -525 -527 0
-33 -531 525 0
-33 -531 528 0
-33 531 -525 -528 0
-34 -531 525 0
-34 -531 529 0
-34 531 -525 -529 0
-35 -531 525 0
-35 -531 530 0
-35 531 -525 -530 0
-36 -531 525 0
-36 531 -525 0
-37 -531 525 0
-37 531 -525 0
-38 -531 525 0
-38 531 -525 0
-39 -531 525 0
-39 531 -525 0
-40 -531 525 0
-40 531 -525 0
-41 -531 525 0
-41 531 -525 0
-42 -531 525 0
-42 531 -525 0
-43 -531 525 0
-43 531 -525 0
-44 -531 525 0
-44 531 -525 0
-45 -531 525 0
-45 531 -525 0
-78 -531 525 0
-78 531 -525 0
-31 -526 532 0
-31 -525 532 0
-31 -532 526 525 0
-32 -532 526 0
-32 532 -526 0
-33 -532 526 0
-33 532 -526 0
-34 -532 526 0
-34 532 -526 0
-35 -532 526 0
-35 532 -526 0
-36 -532 526 0
-36 -532 527 0
-36 532 -526 -527 0
-37 -532 526 0
-37 -532 528 0
-37 532 -526 -528 0
-38 -532 526 0
-38 -532 529 0
-38 532 -526 -529 0
-39 -532 526 0
-39 -532 530 0
-39 532 -526 -530 0
-40 -532 526 0
-40 532 -526 0
-41 -532 526 0
-41 532 -526 0
-42 -532 526 0
-42 532 -526 0
-43 -532 526 0
-43 532 -526 0
-44 -532 526 0
-44 532 -526 0
-45 -532 526 0
-45 532 -526 0
-78 -532 526 0
-78 532 -526 0
-31 -533 527 0
-31 533 -527 0
-32 -527 533 0
-32 -525 533 0
-32 -533 527 525 0
-33 -533 527 0
-33 533 -527 0
-34 -533 527 0
-34 533 -527 0
-35 -533 527 0
-35 533 -527 0
-36 -527 533 0
-36 -526 533 0
-36 -533 527 526 0
-37 -533 527 0
-37 533 -527 0
-38 -533 527 0
-38 533 -527 0
-39 -533 527 0
-39 533 -527 0
-40 -533 527 0
-40 -533 528 0
-40 533 -527 -528 0
-41 -533 527 0
-41 -533 529 0
-41 533 -527 -529 0
-42 -533 527 0
-42 -533 530 0
-42 533 -527 -530 0
-43 -533 527 0
-43 533 -527 0
-44 -533 527 0
-44 533 -527 0
-45 -533 527 0
-45 533 -527 0
-78 -533 527 0
-78 533 -527 0
-31 -534 528 0
-31 534 -528 0
-32 -534 528 0
-32 534 -528 0
-33 -528 534 0
-33 -525 534 0
-33 -534 528 525 0
-34 -534 528 0
-34 534 -528 0
-35 -534 528 0
-35 534 -528 0
-36 -534 528 0
-36 534 -528 0
-37 -528 534 0
-37 -526 534 0
-37 -534 528 526 0
-38 -534 528 0
-38 534 -528 0
-39 -534 528 0
-39 534 -528 0
-40 -528 534 0
-40 -527 534 0
-40 -534 528 527 0
-41 -534 528 0
-41 534 -528 0
-42 -534 528 0
-42 534 -528 0
-43 -534 528 0
-43 -534 529 0
-43 534 -528 -529 0
-44 -534 528 0
-44 -534 530 0
-44 534 -528 -530 0
-45 -534 528 0
-45 534 -528 0
-78 -534 528 0
-78 534 -528 0
-31 -535 529 0
-31 535 -529 0
-32 -535 529 0
-32 535 -529 0
-33 -535 529 0
-33 535 -529 0
-34 -529 535 0
-34 -525 535 0
-34 -535 529 525 0
-35 -535 529 0
-35 535 -529 0
-36 -535 529 0
-36 535 -529 0
-37 -535 529 0
-37 535 -529 0
-38 -529 535 0
-38 -526 535 0
-38 -535 529 526 0
-39 -535 529 0
-39 535 -529 0
-40 -535 529 0
-40 535 -529 0
-41 -529 535 0
-41 -527 535 0
-41 -535 529 527 0
-42 -535 529 0
-42 535 -529 0
-43 -529 535 0
-43 -528 535 0
-43 -535 529 528 0
-44 -535 529 0
-44 535 -529 0
-45 -535 529 0
-45 -535 530 0
-45 535 -529 -530 0
-78 -535 529 0
-78 535 -529 0
-31 -536 530 0
-31 536 -530 0
-32 -536 530 0
-32 536 -530 0
-33 -536 530 0
-33 536 -530 0
-34 -536 530 0
-34 536 -530 0
-35 -530 536 0
-35 -525 536 0
-35 -536 530 525 0
-36 -536 530 0
-36 536 -530 0
-37 -536 530 0
-37 536 -530 0
-38 -536 530 0
-38 536 -530 0
-39 -530 536 0
-39 -526 536 0
-39 -536 530 526 0
-40 -536 530 0
-40 536 -530 0
-41 -536 530 0
-41 536 -530 0
-42 -530 536 0
-42 -527 536 0
-42 -536 530 527 0
-43 -536 530 0
-43 536 -530 0
-44 -530 536 0
-44 -528 536 0
-44 -536 530 528 0
-45 -530 536 0
-45 -529 536 0
-45 -536 530 529 0
-78 -536 530 0
-78 536 -530 0
-46 -537 531 0
-46 -537 532 0
-46 537 -531 -532 0
-47 -537 531 0
-47 -537 533 0
-47 537 -531 -533 0
-48 -537 531 0
-48 -537 534 0
-48 537 -531 -534 0
-49 -537 531 0
-49 -537 535 0
-49 537 -531 -535 0
-50 -537 531 0
-50 -537 536 0
-50 537 -531 -536 0
-51 -537 531 0
-51 537 -531 0
-52 -537 531 0
-52 537 -531 0
-53 -537 531 0
-53 537 -531 0
-54 -537 531 0
-54 537 -531 0
-55 -537 531 0
-55 537 -531 0
-56 -537 531 0
-56 537 -531 0
-57 -537 531 0
-57 537 -531 0
-58 -537 531 0
-58 537 -531 0
-59 -537 531 0
-59 537 -531 0
-60 -537 531 0
-60 537 -531 0
-79 -537 531 0
-79 537 -531 0
-46 -532 538 0
-46 -531 538 0
-46 -538 532 531 0
-47 -538 532 0
-47 538 -532 0
-48 -538 532 0
-48 538 -532 0
-49 -538 532 0
-49 538 -532 0
-50 -538 532 0
-50 538 -532 0
-51 -538 532 0
-51 -538 533 0
-51 538 -532 -533 0
-52 -538 532 0
-52 -538 534 0
-52 538 -532 -534 0
-53 -538 532 0
-53 -538 535 0
-53 538 -532 -535 0
-54 -538 532 0
-54 -538 536 0
-54 538 -532 -536 0
-55 -538 532 0
-55 538 -532 0
-56 -538 532 0
-56 538 -532 0
-57 -538 532 0
-57 538 -532 0
-58 -538 532 0
-58 538 -532 0
-59 -538 532 0
-59 538 -532 0
-60 -538 532 0
-60 538 -532 0
-79 -538 532 0
-79 538 -532 0
-46 -539 533 0
-46 539 -533 0
-47 -533 539 0
-47 -531 539 0
-47 -539 533 531 0
-48 -539 533 0
-48 539 -533 0
-49 -539 533 0
-49 539 -533 0
-50 -539 533 0
-50 539 -533 0
-51 -533 539 0
-51 -532 539 0
-51 -539 533 532 0
-52 -539 533 0
-52 539 -533 0
-53 -539 533 0
-53 539 -533 0
-54 -539 533 0
-54 539 -533 0
-55 -539 533 0
-55 -539 534 0
-55 539 -533 -534 0
-56 -539 533 0
-56 -539 535 0
-56 539 -533 -535 0
-57 -539 533 0
-57 -539 536 0
-57 539 -533 -536 0
-58 -539 533 0
-58 539 -533 0
-59 -539 533 0
-59 539 -533 0
-60 -539 533 0
-60 539 -533 0
-79 -539 533 0
-79 539 -533 0
-46 -540 534 0
-46 540 -534 0
-47 -540 534 0
-47 540 -534 0
-48 -534 540 0
-48 -531 540 0
-48 -540 534 531 0
-49 -540 534 0
-49 540 -534 0
-50 -540 534 0
-50 540 -534 0
-51 -540 534 0
-51 540 -534 0
-52 -534 540 0
-52 -532 540 0
-52 -540 534 532 0
-53 -540 534 0
-53 540 -534 0
-54 -540 534 0
-54 540 -534 0
-55 -534 540 0
-55 -533 540 0
-55 -540 534 533 0
-56 -540 534 0
-56 540 -534 0
-57 -540 534 0
-57 540 -534 0
-58 -540 534 0
-58 -540 535 0
-58 540 -534 -535 0
-59 -540 534 0
-59 -540 536 0
-59 540 -534 -536 0
-60 -540 534 0
-60 540 -534 0
-79 -540 534 0
-79 540 -534 0
-46 -541 535 0
-46 541 -535 0
-47 -541 535 0
-47 541 -535 0
-48 -541 535 0
-48 541 -535 0
-49 -535 541 0
-49 -531 541 0
-49 -541 535 531 0
-50 -541 535 0
-50 541 -535 0
-51 -541 535 0
-51 541 -535 0
-52 -541 535 0
-52 541 -535 0
-53 -535 541 0
-53 -532 541 0
-53 -541 535 532 0
-54 -541 535 0
-54 541 -535 0
-55 -541 535 0
-55 541 -535 0
-56 -535 541 0
-56 -533 541 0
-56 -541 535 533 0
-57 -541 535 0
-57 541 -535 0
-58 -535 541 0
-58 -534 541 0
-58 -541 535 534 0
-59 -541 535 0
-59 541 -535 0
-60 -541 535 0
-60 -541 536 0
-60 541 -535 -536 0
-79 -541 535 0
-79 541 -535 0
-46 -542 536 0
-46 542 -536 0
-47 -542 536 0
-47 542 -536 0
-48 -542 536 0
-48 542 -536 0
-49 -542 536 0
-49 542 -536 0
-50 -536 542 0
-50 -531 542 0
-50 -542 536 531 0
-51 -542 536 0
-51 542 -536 0
-52 -542 536 0
-52 542 -536 0
-53 -542 536 0
-53 542 -536 0
-54 -536 542 0
-54 -532 542 0
-54 -542 536 532 0
-55 -542 536 0
-55 542 -536 0
-56 -542 536 0
-56 542 -536 0
-57 -536 542 0
-57 -533 542 0
-57 -542 536 533 0
-58 -542 536 0
-58 542 -536 0
-59 -536 542 0
-59 -534 542 0
-59 -542 536 534 0
-60 -536 542 0
-60 -535 542 0
-60 -542 536 535 0
-79 -542 536 0
-79 542 -536 0
-61 -543 537 0
-61 -543 538 0
-61 543 -537 -538 0
-62 -543 537 0
-62 -543 539 0
-62 543 -537 -539 0
-63 -543 537 0
-63 -543 540 0
-63 543 -537 -540 0
-64 -543 537 0
-64 -543 541 0
-64 543 -537 -541 0
-65 -543 537 0
-65 -543 542 0
-65 543 -537 -542 0
-66 -543 537 0
-66 543 -537 0
-67 -543 537 0
-67 543 -537 0
-68 -543 537 0
-68 543 -537 0
-69 -543 537 0
-69 543 -537 0
-70 -543 537 0
-70 543 -537 0
-71 -543 537 0
-71 543 -537 0
-72 -543 537 0
-72 543 -537 0
-73 -543 537 0
-73 543 -537 0
-74 -543 537 0
-74 543 -537 0
-75 -543 537 0
-75 543 -537 0
-80 -543 537 0
-80 543 -537 0
-61 -538 544 0
-61 -537 544 0
-61 -544 538 537 0
-62 -544 538 0
-62 544 -538 0
-63 -544 538 0
-63 544 -538 0
-64 -544 538 0
-64 544 -538 0
-65 -544 538 0
-65 544 -538 0
-66 -544 538 0
-66 -544 539 0
-66 544 -538 -539 0
-67 -544 538 0
-67 -544 540 0
-67 544 -538 -540 0
-68 -544 538 0
-68 -544 541 0
-68 544 -538 -541 0
-69 -544 538 0
-69 -544 542 0
-69 544 -538 -542 0
-70 -544 538 0
-70 544 -538 0
-71 -544 538 0
-71 544 -538 0
-72 -544 538 0
-72 544 -538 0
-73 -544 538 0
-73 544 -538 0
-74 -544 538 0
-74 544 -538 0
-75 -544 538 0
-75 544 -538 0
-80 -544 538 0
-80 544 -538 0
-61 -545 539 0
-61 545 -539 0
-62 -539 545 0
-62 -537 545 0
-62 -545 539 537 0
-63 -545 539 0
-63 545 -539 0
-64 -545 539 0
-64 545 -539 0
-65 -545 539 0
-65 545 -539 0
-66 -539 545 0
-66 -538 545 0
-66 -545 539 538 0
-67 -545 539 0
-67 545 -539 0
-68 -545 539 0
-68 545 -539 0
-69 -545 539 0
-69 545 -539 0
-70 -545 539 0
-70 -545 540 0
-70 545 -539 -540 0
-71 -545 539 0
-71 -545 541 0
-71 545 -539 -541 0
-72 -545 539 0
-72 -545 542 0
-72 545 -539 -542 0
-73 -545 539 0
-73 545 -539 0
-74 -545 539 0
-74 545 -539 0
-75 -545 539 0
-75 545 -539 0
-80 -545 539 0
-80 545 -539 0
-61 -546 540 0
-61 546 -540 0
-62 -546 540 0
-62 546 -540 0
-63 -540 546 0
-63 -537 546 0
-63 -546 540 537 0
-64 -546 540 0
-64 546 -540 0
-65 -546 540 0
-65 546 -540 0
-66 -546 540 0
-66 546 -540 0
-67 -540 546 0
-67 -538 546 0
-67 -546 540 538 0
-68 -546 540 0
-68 546 -540 0
-69 -546 540 0
-69 546 -540 0
-70 -540 546 0
-70 -539 546 0
-70 -546 540 539 0
-71 -546 540 0
-71 546 -540 0
-72 -546 540 0
-72 546 -540 0
-73 -546 540 0
-73 -546 541 0
-73 546 -540 -541 0
-74 -546 540 0
-74 -546 542 0
-74 546 -540 -542 0
-75 -546 540 0
-75 546 -540 0
-80 -546 540 0
-80 546 -540 0
-61 -547 541 0
-61 547 -541 0
-62 -547 541 0
-62 547 -541 0
-63 -547 541 0
-63 547 -541 0
-64 -541 547 0
-64 -537 547 0
-64 -547 541 537 0
-65 -547 541 0
-65 547 -541 0
-66 -547 541 0
-66 547 -541 0
-67 -547 541 0
-67 547 -541 0
-68 -541 547 0
-68 -538 547 0
-68 -547 541 538 0
-69 -547 541 0
-69 547 -541 0
-70 -547 541 0
-70 547 -541 0
-71 -541 547 0
-71 -539 547 0
-71 -547 541 539 0
-72 -547 541 0
-72 547 -541 0
-73 -541 547 0
-73 -540 547 0
-73 -547 541 540 0
-74 -547 541 0
-74 547 -541 0
-75 -547 541 0
-75 -547 542 0
-75 547 -541 -542 0
-80 -547 541 0
-80 547 -541 0
-61 -548 542 0
-61 548 -542 0
-62 -548 542 0
-62 548 -542 0
-63 -548 542 0
-63 548 -542 0
-64 -548 542 0
-64 548 -542 0
-65 -542 548 0
-65 -537 548 0
-65 -548 542 537 0
-66 -548 542 0
-66 548 -542 0
-67 -548 542 0
-67 548 -542 0
-68 -548 542 0
-68 548 -542 0
-69 -542 548 0
-69 -538 548 0
-69 -548 542 538 0
-70 -548 542 0
-70 548 -542 0
-71 -548 542 0
-71 548 -542 0
-72 -542 548 0
-72 -539 548 0
-72 -548 542 539 0
-73 -548 542 0
-73 548 -542 0
-74 -542 548 0
-74 -540 548 0
-74 -548 542 540 0
-75 -542 548 0
-75 -541 548 0
-75 -548 542 541 0
-80 -548 542 0
-80 548 -542 0
549 0
-1 -555 549 0
-1 -555 550 0
-1 555 -549 -550 0
-2 -555 549 0
-2 -555 551 0
-2 555 -549 -551 0
-3 -555 549 0
-3 -555 552 0
-3 555 -549 -552 0
-4 -555 549 0
-4 -555 553 0
-4 555 -549 -553 0
-5 -555 549 0
-5 -555 554 0
-5 555 -549 -554 0
-6 -555 549 0
-6 555 -549 0
-7 -555 549 0
-7 555 -549 0
-8 -555 549 0
-8 555 -549 0
-9 -555 549 0
-9 555 -549 0
-10 -555 549 0
-10 555 -549 0
-11 -555 549 0
-11 555 -549 0
-12 -555 549 0
-12 555 -549 0
-13 -555 549 0
-13 555 -549 0
-14 -555 549 0
-14 555 -549 0
-15 -555 549 0
-15 555 -549 0
-76 -555 549 0
-76 555 -549 0
550 0
-1 -550 556 0
-1 -549 556 0
-1 -556 550 549 0
-2 -556 550 0
-2 556 -550 0
-3 -556 550 0
-3 556 -550 0
-4 -556 550 0
-4 556 -550 0
-5 -556 550 0
-5 556 -550 0
-6 -556 550 0
-6 -556 551 0
-6 556 -550 -551 0
-7 -556 550 0
-7 -556 552 0
-7 556 -550 -552 0
-8 -556 550 0
-8 -556 553 0
-8 556 -550 -553 0
-9 -556 550 0
-9 -556 554 0
-9 556 -550 -554 0
-10 -556 550 0
-10 556 -550 0
-11 -556 550 0
-11 556 -550 0
-12 -556 550 0
-12 556 -550 0
-13 -556 550 0
-13 556 -550 0
-14 -556 550 0
-14 556 -550 0
-15 -556 550 0
-15 556 -550 0
-76 -556 550 0
-76 556 -550 0
551 0
-1 -557 551 0
-1 557 -551 0
-2 -551 557 0
-2 -549 557 0
-2 -557 551 549 0
-3 -557 551 0
-3 557 -551 0
-4 -557 551 0
-4 557 -551 0
-5 -557 551 0
-5 557 -551 0
-6 -551 557 0
-6 -550 557 0
-6 -557 551 550 0
-7 -557 551 0
-7 557 -551 0
-8 -557 551 0
-8 557 -551 0
-9 -557 551 0
-9 557 -551 0
-10 -557 551 0
-10 -557 552 0
-10 557 -551 -552 0
-11 -557 551 0
-11 -557 553 0
-11 557 -551 -553 0
-12 -557 551 0
-12 -557 554 0
-12 557 -551 -554 0
-13 -557 551 0
-13 557 -551 0
-14 -557 551 0
-14 557 -551 0
-15 -557 551 0
-15 557 -551 0
-76 -557 551 0
-76 557 -551 0
-552 0
-1 -558 552 0
-1 558 -552 0
-2 -558 552 0
-2 558 -552 0
-3 -552 558 0
-3 -549 558 0
-3 -558 552 549 0
-4 -558 552 0
-4 558 -552 0
-5 -558 552 0
-5 558 -552 0
-6 -558 552 0
-6 558 -552 0
-7 -552 558 0
-7 -550 558 0
-7 -558 552 550 0
-8 -558 552 0
-8 558 -552 0
-9 -558 552 0
-9 558 -552 0
-10 -552 558 0
-10 -551 558 0
-10 -558 552 551 0
-11 -558 552 0
-11 558 -552 0
-12 -558 552 0
-12 558 -552 0
-13 -558 552 0
-13 -558 553 0
-13 558 -552 -553 0
-14 -558 552 0
-14 -558 554 0
-14 558 -552 -554 0
-15 -558 552 0
-15 558 -552 0
-76 -558 552 0
-76 558 -552 0
-553 0
-1 -559 553 0
-1 559 -553 0
-2 -559 553 0
-2 559 -553 0
-3 -559 553 0
-3 559 -553 0
-4 -553 559 0
-4 -549 559 0
-4 -559 553 549 0
-5 -559 553 0
-5 559 -553 0
-6 -559 553 0
-6 559 -553 0
-7 -559 553 0
-7 559 -553 0
-8 -553 559 0
-8 -550 559 0
-8 -559 553 550 0
-9 -559 553 0
-9 559 -553 0
-10 -559 553 0
-10 559 -553 0
-11 -553 559 0
-11 -551 559 0
-11 -559 553 551 0
-12 -559 553 0
-12 559 -553 0
-13 -553 559 0
-13 -552 559 0
-13 -559 553 552 0
-14 -559 553 0
-14 559 -553 0
-15 -559 553 0
-15 -559 554 0
-15 559 -553 -554 0
-76 -559 553 0
-76 559 -553 0
554 0
-1 -560 554 0
-1 560 -554 0
-2 -560 554 0
-2 560 -554 0
-3 -560 554 0
-3 560 -554 0
-4 -560 554 0
-4 560 -554 0
-5 -554 560 0
-5 -549 560 0
-5 -560 554 549 0
-6 -560 554 0
-6 560 -554 0
-7 -560 554 0
-7 560 -554 0
-8 -560 554 0
-8 560 -554 0
-9 -554 560 0
-9 -550 560 0
-9 -560 554 550 0
-10 -560 554 0
-10 560 -554 0
-11 -560 554 0
-11 560 -554 0
-12 -554 560 0
-12 -551 560 0
-12 -560 554 551 0
-13 -560 554 0
-13 560 -554 0
-14 -554 560 0
-14 -552 560 0
-14 -560 554 552 0
-15 -554 560 0
-15 -553 560 0
-15 -560 554 553 0
-76 -560 554 0
-76 560 -554 0
-16 -561 555 0
-16 -561 556 0
-16 561 -555 -556 0
-17 -561 555 0
-17 -561 557 0
-17 561 -555 -557 0
-18 -561 555 0
-18 -561 558 0
-18 561 -555 -558 0
-19 -561 555 0
-19 -561 559 0
-19 561 -555 -559 0
-20 -561 555 0
-20 -561 560 0
-20 561 -555 -560 0
-21 -561 555 0
-21 561 -555 0
-22 -561 555 0
-22 561 -555 0
-23 -561 555 0
-23 561 -555 0
-24 -561 555 0
-24 561 -555 0
-25 -561 555 0
-25 561 -555 0
-26 -561 555 0
-26 561 -555 0
-27 -561 555 0
-27 561 -555 0
-28 -561 555 0
-28 561 -555 0
-29 -561 555 0
-29 561 -555 0
-30 -561 555 0
-30 561 -555 0
-77 -561 555 0
-77 561 -555 0
-16 -556 562 0
-16 -555 562 0
-16 -562 556 555 0
-17 -562 556 0
-17 562 -556 0
-18 -562 556 0
-18 562 -556 0
-19 -562 556 0
-19 562 -556 0
-20 -562 556 0
-20 562 -556 0
-21 -562 556 0
-21 -562 557 0
-21 562 -556 -557 0
-22 -562 556 0
-22 -562 558 0
-22 562 -556 -558 0
-23 -562 556 0
-23 -562 559 0
-23 562 -556 -559 0
-24 -562 556 0
-24 -562 560 0
-24 562 -556 -560 0
-25 -562 556 0
-25 562 -556 0
-26 -562 556 0
-26 562 -556 0
-27 -562 556 0
-27 562 -556 0
-28 -562 556 0
-28 562 -556 0
-29 -562 556 0
-29 562 -556 0
-30 -562 556 0
-30 562 -556 0
-77 -562 556 0
-77 562 -556 0
-16 -563 557 0
-16 563 -557 0
-17 -557 563 0
-17 -555 563 0
-17 -563 557 555 0
-18 -563 557 0
-18 563 -557 0
-19 -563 557 0
-19 563 -557 0
-20 -563 557 0
-20 563 -557 0
-21 -557 563 0
-21 -556 563 0
-21 -563 557 556 0
-22 -563 557 0
-22 563 -557 0
-23 -563 557 0
-23 563 -557 0
-24 -563 557 0
-24 563 -557 0
-25 -563 557 0
-25 -563 558 0
-25 563 -557 -558 0
-26 -563 557 0
-26 -563 559 0
-26 563 -557 -559 0
-27 -563 557 0
-27 -563 560 0
-27 563 -557 -560 0
-28 -563 557 0
-28 563 -557 0
-29 -563 557 0
-29 563 -557 0
-30 -563 557 0
-30 563 -557 0
-77 -563 557 0
-77 563 -557 0
-16 -564 558 0
-16 564 -558 0
-17 -564 558 0
-17 564 -558 0
-18 -558 564 0
-18 -555 564 0
-18 -564 558 555 0
-19 -564 558 0
-19 564 -558 0
-20 -564 558 0
-20 564 -558 0
-21 -564 558 0
-21 564 -558 0
-22 -558 564 0
-22 -556 564 0
-22 -564 558 556 0
-23 -564 558 0
-23 564 -558 0
-24 -564 558 0
-24 564 -558 0
-25 -558 564 0
-25 -557 564 0
-25 -564 558 557 0
-26 -564 558 0
-26 564 -558 0
-27 -564 558 0
-27 564 -558 0
-28 -564 558 0
-28 -564 559 0
-28 564 -558 -559 0
-29 -564 558 0
-29 -564 560 0
-29 564 -558 -560 0
-30 -564 558 0
-30 564 -558 0
-77 -564 558 0
-77 564 -558 0
-16 -565 559 0
-16 565 -559 0
-17 -565 559 0
-17 565 -559 0
-18 -565 559 0
-18 565 -559 0
-19 -559 565 0
-19 -555 565 0
-19 -565 559 555 0
-20 -565 559 0
-20 565 -559 0
-21 -565 559 0
-21 565 -559 0
-22 -565 559 0
-22 565 -559 0
-23 -559 565 0
-23 -556 565 0
-23 -565 559 556 0
-24 -565 559 0
-24 565 -559 0
-25 -565 559 0
-25 565 -559 0
-26 -559 565 0
-26 -557 565 0
-26 -565 559 557 0
-27 -565 559 0
-27 565 -559 0
-28 -559 565 0
-28 -558 565 0
-28 -565 559 558 0
-29 -565 559 0
-29 565 -559 0
-30 -565 559 0
-30 -565 560 0
-30 565 -559 -560 0
-77 -565 559 0
-77 565 -559 0
-16 -566 560 0
-16 566 -560 0
-17 -566 560 0
-17 566 -560 0
-18 -566 560 0
-18 566 -560 0
-19 -566 560 0
-19 566 -560 0
-20 -560 566 0
-20 -555 566 0
-20 -566 560 555 0
-21 -566 560 0
-21 566 -560 0
-22 -566 560 0
-22 566 -560 0
-23 -566 560 0
-23 566 -560 0
-24 -560 566 0
-24 -556 566 0
-24 -566 560 556 0
-25 -566 560 0
-25 566 -560 0
-26 -566 560 0
-26 566 -560 0
-27 -560 566 0
-27 -557 566 0
-27 -566 560 557 0
-28 -566 560 0
-28 566 -560 0
-29 -560 566 0
-29 -558 566 0
-29 -566 560 558 0
-30 -560 566 0
-30 -559 566 0
-30 -566 560 559 0
-77 -566 560 0
-77 566 -560 0
-31 -567 561 0
-31 -567 562 0
-31 567 -561 -562 0
-32 -567 561 0
-32 -567 563 0
-32 567 -561 -563 0
-33 -567 561 0
-33 -567 564 0
-33 567 -561 -564 0
-34 -567 561 0
-34 -567 565 0
-34 567 -561 -565 0
-35 -567 561 0
-35 -567 566 0
-35 567 -561 -566 0
-36 -567 561 0
-36 567 -561 0
-37 -567 561 0
-37 567 -561 0
-38 -567 561 0
-38 567 -561 0
-39 -567 561 0
-39 567 -561 0
-40 -567 561 0
-40 567 -561 0
-41 -567 561 0
-41 567 -561 0
-42 -567 561 0
-42 567 -561 0
-43 -567 561 0
-43 567 -561 0
-44 -567 561 0
-44 567 -561 0
-45 -567 561 0
-45 567 -561 0
-78 -567 561 0
-78 567 -561 0
-31 -562 568 0
-31 -561 568 0
-31 -568 562 561 0
-32 -568 562 0
-32 568 -562 0
-33 -568 562 0
-33 568 -562 0
-34 -568 562 0
-34 568 -562 0
-35 -568 562 0
-35 568 -562 0
-36 -568 562 0
-36 -568 563 0
-36 568 -562 -563 0
-37 -568 562 0
-37 -568 564 0
-37 568 -562 -564 0
-38 -568 562 0
-38 -568 565 0
-38 568 -562 -565 0
-39 -568 562 0
-39 -568 566 0
-39 568 -562 -566 0
-40 -568 562 0
-40 568 -562 0
-41 -568 562 0
-41 568 -562 0
-42 -568 562 0
-42 568 -562 0
-43 -568 562 0
-43 568 -562 0
-44 -568 562 0
-44 568 -562 0
-45 -568 562 0
-45 568 -562 0
-78 -568 562 0
-78 568 -562 0
-31 -569 563 0
-31 569 -563 0
-32 -563 569 0
-32 -561 569 0
-32 -569 563 561 0
-33 -569 563 0
-33 569 -563 0
-34 -569 563 0
-34 569 -563 0
-35 -569 563 0
-35 569 -563 0
-36 -563 569 0
-36 -562 569 0
-36 -569 563 562 0
-37 -569 563 0
-37 569 -563 0
-38 -569 563 0
-38 569 -563 0
-39 -569 563 0
-39 569 -563 0
-40 -569 563 0
-40 -569 564 0
-40 569 -563 -564 0
-41 -569 563 0
-41 -569 565 0
-41 569 -563 -565 0
-42 -569 563 0
-42 -569 566 0
-42 569 -563 -566 0
-43 -569 563 0
-43 569 -563 0
-44 -569 563 0
-44 569 -563 0
-45 -569 563 0
-45 569 -563 0
-78 -569 563 0
-78 569 -563 0
-31 -570 564 0
-31 570 -564 0
-32 -570 564 0
-32 570 -564 0
-33 -564 570 0
-33 -561 570 0
-33 -570 564 561 0
-34 -570 564 0
-34 570 -564 0
-35 -570 564 0
-35 570 -564 0
-36 -570 564 0
-36 570 -564 0
-37 -564 570 0
-37 -562 570 0
-37 -570 564 562 0
-38 -570 564 0
-38 570 -564 0
-39 -570 564 0
-39 570 -564 0
-40 -564 570 0
-40 -563 570 0
-40 -570 564 563 0
-41 -570 564 0
-41 570 -564 0
-42 -570 564 0
-42 570 -564 0
-43 -570 564 0
-43 -570 565 0
-43 570 -564 -565 0
-44 -570 564 0
-44 -570 566 0
-44 570 -564 -566 0
-45 -570 564 0
-45 570 -564 0
-78 -570 564 0
-78 570 -564 0
-31 -571 565 0
-31 571 -565 0
-32 -571 565 0
-32 571 -565 0
-33 -571 565 0
-33 571 -565 0
-34 -565 571 0
-34 -561 571 0
-34 -571 565 561 0
-35 -571 565 0
-35 571 -565 0
-36 -571 565 0
-36 571 -565 0
-37 -571 565 0
-37 571 -565 0
-38 -565 571 0
-38 -562 571 0
-38 -571 565 562 0
-39 -571 565 0
-39 571 -565 0
-40 -571 565 0
-40 571 -565 0
-41 -565 571 0
-41 -563 571 0
-41 -571 565 563 0
-42 -571 565 0
-42 571 -565 0
-43 -565 571 0
-43 -564 571 0
-43 -571 565 564 0
-44 -571 565 0
-44 571 -565 0
-45 -571 565 0
-45 -571 566 0
-45 571 -565 -566 0
-78 -571 565 0
-78 571 -565 0
-31 -572 566 0
-31 572 -566 0
-32 -572 566 0
-32 572 -566 0
-33 -572 566 0
-33 572 -566 0
-34 -572 566 0
-34 572 -566 0
-35 -566 572 0
-35 -561 572 0
-35 -572 566 561 0
-36 -572 566 0
-36 572 -566 0
-37 -572 566 0
-37 572 -566 0
-38 -572 566 0
-38 572 -566 0
-39 -566 572 0
-39 -562 572 0
-39 -572 566 562 0
-40 -572 566 0
-40 572 -566 0
-41 -572 566 0
-41 572 -566 0
-42 -566 572 0
-42 -563 572 0
-42 -572 566 563 0
-43 -572 566 0
-43 572 -566 0
-44 -566 572 0
-44 -564 572 0
-44 -572 566 564 0
-45 -566 572 0
-45 -565 572 0
-45 -572 566 565 0
-78 -572 566 0
-78 572 -566 0
-46 -573 567 0
-46 -573 568 0
-46 573 -567 -568 0
-47 -573 567 0
-47 -573 569 0
-47 573 -567 -569 0
-48 -573 567 0
-48 -573 570 0
-48 573 -567 -570 0
-49 -573 567 0
-49 -573 571 0
-49 573 -567 -571 0
-50 -573 567 0
-50 -573 572 0
-50 573 -567 -572 0
-51 -573 567 0
-51 573 -567 0
-52 -573 567 0
-52 573 -567 0
-53 -573 567 0
-53 573 -567 0
-54 -573 567 0
-54 573 -567 0
-55 -573 567 0
-55 573 -567 0
-56 -573 567 0
-56 573 -567 0
-57 -573 567 0
-57 573 -567 0
-58 -573 567 0
-58 573 -567 0
-59 -573 567 0
-59 573 -567 0
-60 -573 567 0
-60 573 -567 0
-79 -573 567 0
-79 573 -567 0
-46 -568 574 0
-46 -567 574 0
-46 -574 568 567 0
-47 -574 568 0
-47 574 -568 0
-48 -574 568 0
-48 574 -568 0
-49 -574 568 0
-49 574 -568 0
-50 -574 568 0
-50 574 -568 0
-51 -574 568 0
-51 -574 569 0
-51 574 -568 -569 0
-52 -574 568 0
-52 -574 570 0
-52 574 -568 -570 0
-53 -574 568 0
-53 -574 571 0
-53 574 -568 -571 0
-54 -574 568 0
-54 -574 572 0
-54 574 -568 -572 0
-55 -574 568 0
-55 574 -568 0
-56 -574 568 0
-56 574 -568 0
-57 -574 568 0
-57 574 -568 0
-58 -574 568 0
-58 574 -568 0
-59 -574 568 0
-59 574 -568 0
-60 -574 568 0
-60 574 -568 0
-79 -574 568 0
-79 574 -568 0
-46 -575 569 0
-46 575 -569 0
-47 -569 575 0
-47 -567 575 0
-47 -575 569 567 0
-48 -575 569 0
-48 575 -569 0
-49 -575 569 0
-49 575 -569 0
-50 -575 569 0
-50 575 -569 0
-51 -569 575 0
-51 -568 575 0
-51 -575 569 568 0
-52 -575 569 0
-52 575 -569 0
-53 -575 569 0
-53 575 -569 0
-54 -575 569 0
-54 575 -569 0
-55 -575 569 0
-55 -575 570 0
-55 575 -569 -570 0
-56 -575 569 0
-56 -575 571 0
-56 575 -569 -571 0
-57 -575 569 0
-57 -575 572 0
-57 575 -569 -572 0
-58 -575 569 0
-58 575 -569 0
-59 -575 569 0
-59 575 -569 0
-60 -575 569 0
-60 575 -569 0
-79 -575 569 0
-79 575 -569 0
-46 -576 570 0
-46 576 -570 0
-47 -576 570 0
-47 576 -570 0
-48 -570 576 0
-48 -567 576 0
-48 -576 570 567 0
-49 -576 570 0
-49 576 -570 0
-50 -576 570 0
-50 576 -570 0
-51 -576 570 0
-51 576 -570 0
-52 -570 576 0
-52 -568 576 0
-52 -576 570 568 0
-53 -576 570 0
-53 576 -570 0
-54 -576 570 0
-54 576 -570 0
-55 -570 576 0
-55 -569 576 0
-55 -576 570 569 0
-56 -576 570 0
-56 576 -570 0
-57 -576 570 0
-57 576 -570 0
-58 -576 570 0
-58 -576 571 0
-58 576 -570 -571 0
-59 -576 570 0
-59 -576 572 0
-59 576 -570 -572 0
-60 -576 570 0
-60 576 -570 0
-79 -576 570 0
-79 576 -570 0
-46 -577 571 0
-46 577 -571 0
-47 -577 571 0
-47 577 -571 0
-48 -577 571 0
-48 577 -571 0
-49 -571 577 0
-49 -567 577 0
-49 -577 571 567 0
-50 -577 571 0
-50 577 -571 0
-51 -577 571 0
-51 577 -571 0
-52 -577 571 0
-52 577 -571 0
-53 -571 577 0
-53 -568 577 0
-53 -577 571 568 0
-54 -577 571 0
-54 577 -571 0
-55 -577 571 0
-55 577 -571 0
-56 -571 577 0
-56 -569 577 0
-56 -577 571 569 0
-57 -577 571 0
-57 577 -571 0
-58 -571 577 0
-58 -570 577 0
-58 -577 571 570 0
-59 -577 571 0
-59 577 -571 0
-60 -577 571 0
-60 -577 572 0
-60 577 -571 -572 0
-79 -577 571 0
-79 577 -571 0
-46 -578 572 0
-46 578 -572 0
-47 -578 572 0
-47 578 -572 0
-48 -578 572 0
-48 578 -572 0
-49 -578 572 0
-49 578 -572 0
-50 -572 578 0
-50 -567 578 0
-50 -578 572 567 0
-51 -578 572 0
-51 578 -572 0
-52 -578 572 0
-52 578 -572 0
-53 -578 572 0
-53 578 -572 0
-54 -572 578 0
-54 -568 578 0
-54 -578 572 568 0
-55 -578 572 0
-55 578 -572 0
-56 -578 572 0
-56 578 -572 0
-57 -572 578 0
-57 -569 578 0
-57 -578 572 569 0
-58 -578 572 0
-58 578 -572 0
-59 -572 578 0
-59 -570 578 0
-59 -578 572 570 0
-60 -572 578 0
-60 -571 578 0
-60 -578 572 571 0
-79 -578 572 0
-79 578 -572 0
-61 -579 573 0
-61 -579 574 0
-61 579 -573 -574 0
-62 -579 573 0
-62 -579 575 0
-62 579 -573 -575 0
-63 -579 573 0
-63 -579 576 0
-63 579 -573 -576 0
-64 -579 573 0
-64 -579 577 0
-64 579 -573 -577 0
-65 -579 573 0
-65 -579 578 0
-65 579 -573 -578 0
-66 -579 573 0
-66 579 -573 0
-67 -579 573 0
-67 579 -573 0
-68 -579 573 0
-68 579 -573 0
-69 -579 573 0
-69 579 -573 0
-70 -579 573 0
-70 579 -573 0
-71 -579 573 0
-71 579 -573 0
-72 -579 573 0
-72 579 -573 0
-73 -579 573 0
-73 579 -573 0
-74 -579 573 0
-74 579 -573 0
-75 -579 573 0
-75 579 -573 0
-80 -579 573 0
-80 579 -573 0
-61 -574 580 0
-61 -573 580 0
-61 -580 574 573 0
-62 -580 574 0
-62 580 -574 0
-63 -580 574 0
-63 580 -574 0
-64 -580 574 0
-64 580 -574 0
-65 -580 574 0
-65 580 -574 0
-66 -580 574 0
-66 -580 575 0
-66 580 -574 -575 0
-67 -580 574 0
-67 -580 576 0
-67 580 -574 -576 0
-68 -580 574 0
-68 -580 577 0
-68 580 -574 -577 0
-69 -580 574 0
-69 -580 578 0
-69 580 -574 -578 0
-70 -580 574 0
-70 580 -574 0
-71 -580 574 0
-71 580 -574 0
-72 -580 574 0
-72 580 -574 0
-73 -580 574 0
-73 580 -574 0
-74 -580 574 0
-74 580 -574 0
-75 -580 574 0
-75 580 -574 0
-80 -580 574 0
-80 580 -574 0
-61 -581 575 0
-61 581 -575 0
-62 -575 581 0
-62 -573 581 0
-62 -581 575 573 0
-63 -581 575 0
-63 581 -575 0
-64 -581 575 0
-64 581 -575 0
-65 -581 575 0
-65 581 -575 0
-66 -575 581 0
-66 -574 581 0
-66 -581 575 574 0
-67 -581 575 0
-67 581 -575 0
-68 -581 575 0
-68 581 -575 0
-69 -581 575 0
-69 581 -575 0
-70 -581 575 0
-70 -581 576 0
-70 581 -575 -576 0
-71 -581 575 0
-71 -581 577 0
-71 581 -575 -577 0
-72 -581 575 0
-72 -581 578 0
-72 581 -575 -578 0
-73 -581 575 0
-73 581 -575 0
-74 -581 575 0
-74 581 -575 0
-75 -581 575 0
-75 581 -575 0
-80 -581 575 0
-80 581 -575 0
-61 -582 576 0
-61 582 -576 0
-62 -582 576 0
-62 582 -576 0
-63 -576 582 0
-63 -573 582 0
-63 -582 576 573 0
-64 -582 576 0
-64 582 -576 0
-65 -582 576 0
-65 582 -576 0
-66 -582 576 0
-66 582 -576 0
-67 -576 582 0
-67 -574 582 0
-67 -582 576 574 0
-68 -582 576 0
-68 582 -576 0
-69 -582 576 0
-69 582 -576 0
-70 -576 582 0
-70 -575 582 0
-70 -582 576 575 0
-71 -582 576 0
-71 582 -576 0
-72 -582 576 0
-72 582 -576 0
-73 -582 576 0
-73 -582 577 0
-73 582 -576 -577 0
-74 -582 576 0
-74 -582 578 0
-74 582 -576 -578 0
-75 -582 576 0
-75 582 -576 0
-80 -582 576 0
-80 582 -576 0
-61 -583 577 0
-61 583 -577 0
-62 -583 577 0
-62 583 -577 0
-63 -583 577 0
-63 583 -577 0
-64 -577 583 0
-64 -573 583 0
-64 -583 577 573 0
-65 -583 577 0
-65 583 -577 0
-66 -583 577 0
-66 583 -577 0
-67 -583 577 0
-67 583 -577 0
-68 -577 583 0
-68 -574 583 0
-68 -583 577 574 0
-69 -583 577 0
-69 583 -577 0
-70 -583 577 0
-70 583 -577 0
-71 -577 583 0
-71 -575 583 0
-71 -583 577 575 0
-72 -583 577 0
-72 583 -577 0
-73 -577 583 0
-73 -576 583 0
-73 -583 577 576 0
-74 -583 577 0
-74 583 -577 0
-75 -583 577 0
-75 -583 578 0
-75 583 -577 -578 0
-80 -583 577 0
-80 583 -577 0
-61 -584 578 0
-61 584 -578 0
-62 -584 578 0
-62 584 -578 0
-63 -584 578 0
-63 584 -578 0
-64 -584 578 0
-64 584 -578 0
-65 -578 584 0
-65 -573 584 0
-65 -584 578 573 0
-66 -584 578 0
-66 584 -578 0
-67 -584 578 0
-67 584 -578 0
-68 -584 578 0
-68 584 -578 0
-69 -578 584 0
-69 -574 584 0
-69 -584 578 574 0
-70 -584 578 0
-70 584 -578 0
-71 -584 578 0
-71 584 -578 0
-72 -578 584 0
-72 -575 584 0
-72 -584 578 575 0
-73 -584 578 0
-73 584 -578 0
-74 -578 584 0
-74 -576 584 0
-74 -584 578 576 0
-75 -578 584 0
-75 -577 584 0
-75 -584 578 577 0
-80 -584 578 0
-80 584 -578 0
585 0
-1 -591 585 0
-1 -591 586 0
-1 591 -585 -586 0
-2 -591 585 0
-2 -591 587 0
-2 591 -585 -587 0
-3 -591 585 0
-3 -591 588 0
-3 591 -585 -588 0
-4 -591 585 0
-4 -591 589 0
-4 591 -585 -589 0
-5 -591 585 0
-5 -591 590 0
-5 591 -585 -590 0
-6 -591 585 0
-6 591 -585 0
-7 -591 585 0
-7 591 -585 0
-8 -591 585 0
-8 591 -585 0
-9 -591 585 0
-9 591 -585 0
-10 -591 585 0
-10 591 -585 0
-11 -591 585 0
-11 591 -585 0
-12 -591 585 0
-12 591 -585 0
-13 -591 585 0
-13 591 -585 0
-14 -591 585 0
-14 591 -585 0
-15 -591 585 0
-15 591 -585 0
-76 -591 585 0
-76 591 -585 0
586 0
-1 -586 592 0
-1 -585 592 0
-1 -592 586 585 0
-2 -592 586 0
-2 592 -586 0
-3 -592 586 0
-3 592 -586 0
-4 -592 586 0
-4 592 -586 0
-5 -592 586 0
-5 592 -586 0
-6 -592 586 0
-6 -592 587 0
-6 592 -586 -587 0
-7 -592 586 0
-7 -592 588 0
-7 592 -586 -588 0
-8 -592 586 0
-8 -592 589 0
-8 592 -586 -589 0
-9 -592 586 0
-9 -592 590 0
-9 592 -586 -590 0
-10 -592 586 0
-10 592 -586 0
-11 -592 586 0
-11 592 -586 0
-12 -592 586 0
-12 592 -586 0
-13 -592 586 0
-13 592 -586 0
-14 -592 586 0
-14 592 -586 0
-15 -592 586 0
-15 592 -586 0
-76 -592 586 0
-76 592 -586 0
587 0
-1 -593 587 0
-1 593 -587 0
-2 -587 593 0
-2 -585 593 0
-2 -593 587 585 0
-3 -593 587 0
-3 593 -587 0
-4 -593 587 0
-4 593 -587 0
-5 -593 587 0
-5 593 -587 0
-6 -587 593 0
-6 -586 593 0
-6 -593 587 586 0
-7 -593 587 0
-7 593 -587 0
-8 -593 587 0
-8 593 -587 0
-9 -593 587 0
-9 593 -587 0
-10 -593 587 0
-10 -593 588 0
-10 593 -587 -588 0
-11 -593 587 0
-11 -593 589 0
-11 593 -587 -589 0
-12 -593 587 0
-12 -593 590 0
-12 593 -587 -590 0
-13 -593 587 0
-13 593 -587 0
-14 -593 587 0
-14 593 -587 0
-15 -593 587 0
-15 593 -587 0
-76 -593 587 0
-76 593 -587 0
-588 0
-1 -594 588 0
-1 594 -588 0
-2 -594 588 0
-2 594 -588 0
-3 -588 594 0
-3 -585 594 0
-3 -594 588 585 0
-4 -594 588 0
-4 594 -588 0
-5 -594 588 0
-5 594 -588 0
-6 -594 588 0
-6 594 -588 0
-7 -588 594 0
-7 -586 594 0
-7 -594 588 586 0
-8 -594 588 0
-8 594 -588 0
-9 -594 588 0
-9 594 -588 0
-10 -588 594 0
-10 -587 594 0
-10 -594 588 587 0
-11 -594 588 0
-11 594 -588 0
-12 -594 588 0
-12 594 -588 0
-13 -594 588 0
-13 -594 589 0
-13 594 -588 -589 0
-14 -594 588 0
-14 -594 590 0
-14 594 -588 -590 0
-15 -594 588 0
-15 594 -588 0
-76 -594 588 0
-76 594 -588 0
589 0
-1 -595 589 0
-1 595 -589 0
-2 -595 589 0
-2 595 -589 0
-3 -595 589 0
-3 595 -589 0
-4 -589 595 0
-4 -585 595 0
-4 -595 589 585 0
-5 -595 589 0
-5 595 -589 0
-6 -595 589 0
-6 595 -589 0
-7 -595 589 0
-7 595 -589 0
-8 -589 595 0
-8 -586 595 0
-8 -595 589 586 0
-9 -595 589 0
-9 595 -589 0
-10 -595 589 0
-10 595 -589 0
-11 -589 595 0
-11 -587 595 0
-11 -595 589 587 0
-12 -595 589 0
-12 595 -589 0
-13 -589 595 0
-13 -588 595 0
-13 -595 589 588 0
-14 -595 589 0
-14 595 -589 0
-15 -595 589 0
-15 -595 590 0
-15 595 -589 -590 0
-76 -595 589 0
-76 595 -589 0
590 0
-1 -596 590 0
-1 596 -590 0
-2 -596 590 0
-2 596 -590 0
-3 -596 590 0
-3 596 -590 0
-4 -596 590 0
-4 596 -590 0
-5 -590 596 0
-5 -585 596 0
-5 -596 590 585 0
-6 -596 590 0
-6 596 -590 0
-7 -596 590 0
-7 596 -590 0
-8 -596 590 0
-8 596 -590 0
-9 -590 596 0
-9 -586 596 0
-9 -596 590 586 0
-10 -596 590 0
-10 596 -590 0
-11 -596 590 0
-11 596 -590 0
-12 -590 596 0
-12 -587 596 0
-12 -596 590 587 0
-13 -596 590 0
-13 596 -590 0
-14 -590 596 0
-14 -588 596 0
-14 -596 590 588 0
-15 -590 596 0
-15 -589 596 0
-15 -596 590 589 0
-76 -596 590 0
-76 596 -590 0
-16 -597 591 0
-16 -597 592 0
-16 597 -591 -592 0
-17 -597 591 0
-17 -597 593 0
-17 597 -591 -593 0
-18 -597 591 0
-18 -597 594 0
-18 597 -591 -594 0
-19 -597 591 0
-19 -597 595 0
-19 597 -591 -595 0
-20 -597 591 0
-20 -597 596 0
-20 597 -591 -596 0
-21 -597 591 0
-21 597 -591 0
-22 -597 591 0
-22 597 -591 0
-23 -597 591 0
-23 597 -591 0
-24 -597 591 0
-24 597 -591 0
-25 -597 591 0
-25 597 -591 0
-26 -597 591 0
-26 597 -591 0
-27 -597 591 0
-27 597 -591 0
-28 -597 591 0
-28 597 -591 0
-29 -597 591 0
-29 597 -591 0
-30 -597 591 0
-30 597 -591 0
-77 -597 591 0
-77 597 -591 0
-16 -592 598 0
-16 -591 598 0
-16 -598 592 591 0
-17 -598 592 0
-17 598 -592 0
-18 -598 592 0
-18 598 -592 0
-19 -598 592 0
-19 598 -592 0
-20 -598 592 0
-20 598 -592 0
-21 -598 592 0
-21 -598 593 0
-21 598 -592 -593 0
-22 -598 592 0
-22 -598 594 0
-22 598 -592 -594 0
-23 -598 592 0
-23 -598 595 0
-23 598 -592 -595 0
-24 -598 592 0
-24 -598 596 0
-24 598 -592 -596 0
-25 -598 592 0
-25 598 -592 0
-26 -598 592 0
-26 598 -592 0
-27 -598 592 0
-27 598 -592 0
-28 -598 592 0
-28 598 -592 0
-29 -598 592 0
-29 598 -592 0
-30 -598 592 0
-30 598 -592 0
-77 -598 592 0
-77 598 -592 0
-16 -599 593 0
-16 599 -593 0
-17 -593 599 0
-17 -591 599 0
-17 -599 593 591 0
-18 -599 593 0
-18 599 -593 0
-19 -599 593 0
-19 599 -593 0
-20 -599 593 0
-20 599 -593 0
-21 -593 599 0
-21 -592 599 0
-21 -599 593 592 0
-22 -599 593 0
-22 599 -593 0
-23 -599 593 0
-23 599 -593 0
-24 -599 593 0
-24 599 -593 0
-25 -599 593 0
-25 -599 594 0
-25 599 -593 -594 0
-26 -599 593 0
-26 -599 595 0
-26 599 -593 -595 0
-27 -599 593 0
-27 -599 596 0
-27 599 -593 -596 0
-28 -599 593 0
-28 599 -593 0
-29 -599 593 0
-29 599 -593 0
-30 -599 593 0
-30 599 -593 0
-77 -599 593 0
-77 599 -593 0
-16 -600 594 0
-16 600 -594 0
-17 -600 594 0
-17 600 -594 0
-18 -594 600 0
-18 -591 600 0
-18 -600 594 591 0
-19 -600 594 0
-19 600 -594 0
-20 -600 594 0
-20 600 -594 0
-21 -600 594 0
-21 600 -594 0
-22 -594 600 0
-22 -592 600 0
-22 -600 594 592 0
-23 -600 594 0
-23 600 -594 0
-24 -600 594 0
-24 600 -594 0
-25 -594 600 0
-25 -593 600 0
-25 -600 594 593 0
-26 -600 594 0
-26 600 -594 0
-27 -600 594 0
-27 600 -594 0
-28 -600 594 0
-28 -600 595 0
-28 600 -594 -595 0
-29 -600 594 0
-29 -600 596 0
-29 600 -594 -596 0
-30 -600 594 0
-30 600 -594 0
-77 -600 594 0
-77 600 -594 0
-16 -601 595 0
-16 601 -595 0
-17 -601 595 0
-17 601 -595 0
-18 -601 595 0
-18 601 -595 0
-19 -595 601 0
-19 -591 601 0
-19 -601 595 591 0
-20 -601 595 0
-20 601 -595 0
-21 -601 595 0
-21 601 -595 0
-22 -601 595 0
-22 601 -595 0
-23 -595 601 0
-23 -592 601 0
-23 -601 595 592 0
-24 -601 595 0
-24 601 -595 0
-25 -601 595 0
-25 601 -595 0
-26 -595 601 0
-26 -593 601 0
-26 -601 595 593 0
-27 -601 595 0
-27 601 -595 0
-28 -595 601 0
-28 -594 601 0
-28 -601 595 594 0
-29 -601 595 0
-29 601 -595 0
-30 -601 595 0
-30 -601 596 0
-30 601 -595 -596 0
-77 -601 595 0
-77 601 -595 0
-16 -602 596 0
-16 602 -596 0
-17 -602 596 0
-17 602 -596 0
-18 -602 596 0
-18 602 -596 0
-19 -602 596 0
-19 602 -596 0
-20 -596 602 0
-20 -591 602 0
-20 -602 596 591 0
-21 -602 596 0
-21 602 -596 0
-22 -602 596 0
-22 602 -596 0
-23 -602 596 0
-23 602 -596 0
-24 -596 602 0
-24 -592 602 0
-24 -602 596 592 0
-25 -602 596 0
-25 602 -596 0
-26 -602 596 0
-26 602 -596 0
-27 -596 602 0
-27 -593 602 0
-27 -602 596 593 0
-28 -602 596 0
-28 602 -596 0
-29 -596 602 0
-29 -594 602 0
-29 -602 596 594 0
-30 -596 602 0
-30 -595 602 0
-30 -602 596 595 0
-77 -602 596 0
-77 602 -596 0
-31 -603 597 0
-31 -603 598 0
-31 603 -597 -598 0
-32 -603 597 0
-32 -603 599 0
-32 603 -597 -599 0
-33 -603 597 0
-33 -603 600 0
-33 603 -597 -600 0
-34 -603 597 0
-34 -603 601 0
-34 603 -597 -601 0
-35 -603 597 0
-35 -603 602 0
-35 603 -597 -602 0
-36 -603 597 0
-36 603 -597 0
-37 -603 597 0
-37 603 -597 0
-38 -603 597 0
-38 603 -597 0
-39 -603 597 0
-39 603 -597 0
-40 -603 597 0
-40 603 -597 0
-41 -603 597 0
-41 603 -597 0
-42 -603 597 0
-42 603 -597 0
-43 -603 597 0
-43 603 -597 0
-44 -603 597 0
-44 603 -597 0
-45 -603 597 0
-45 603 -597 0
-78 -603 597 0
-78 603 -597 0
-31 -598 604 0
-31 -597 604 0
-31 -604 598 597 0
-32 -604 598 0
-32 604 -598 0
-33 -604 598 0
-33 604 -598 0
-34 -604 598 0
-34 604 -598 0
-35 -604 598 0
-35 604 -598 0
-36 -604 598 0
-36 -604 599 0
-36 604 -598 -599 0
-37 -604 598 0
-37 -604 600 0
-37 604 -598 -600 0
-38 -604 598 0
-38 -604 601 0
-38 604 -598 -601 0
-39 -604 598 0
-39 -604 602 0
-39 604 -598 -602 0
-40 -604 598 0
-40 604 -598 0
-41 -604 598 0
-41 604 -598 0
-42 -604 598 0
-42 604 -598 0
-43 -604 598 0
-43 604 -598 0
-44 -604 598 0
-44 604 -598 0
-45 -604 598 0
-45 604 -598 0
-78 -604 598 0
-78 604 -598 0
-31 -605 599 0
-31 605 -599 0
-32 -599 605 0
-32 -597 605 0
-32 -605 599 597 0
-33 -605 599 0
-33 605 -599 0
-34 -605 599 0
-34 605 -599 0
-35 -605 599 0
-35 605 -599 0
-36 -599 605 0
-36 -598 605 0
-36 -605 599 598 0
-37 -605 599 0
-37 605 -599 0
-38 -605 599 0
-38 605 -599 0
-39 -605 599 0
-39 605 -599 0
-40 -605 599 0
-40 -605 600 0
-40 605 -599 -600 0
-41 -605 599 0
-41 -605 601 0
-41 605 -599 -601 0
-42 -605 599 0
-42 -605 602 0
-42 605 -599 -602 0
-43 -605 599 0
-43 605 -599 0
-44 -605 599 0
-44 605 -599 0
-45 -605 599 0
-45 605 -599 0
-78 -605 599 0
-78 605 -599 0
-31 -606 600 0
-31 606 -600 0
-32 -606 600 0
-32 606 -600 0
-33 -600 606 0
-33 -597 606 0
-33 -606 600 597 0
-34 -606 600 0
-34 606 -600 0
-35 -606 600 0
-35 606 -600 0
-36 -606 600 0
-36 606 -600 0
-37 -600 606 0
-37 -598 606 0
-37 -606 600 598 0
-38 -606 600 0
-38 606 -600 0
-39 -606 600 0
-39 606 -600 0
-40 -600 606 0
-40 -599 606 0
-40 -606 600 599 0
-41 -606 600 0
-41 606 -600 0
-42 -606 600 0
-42 606 -600 0
-43 -606 600 0
-43 -606 601 0
-43 606 -600 -601 0
-44 -606 600 0
-44 -606 602 0
-44 606 -600 -602 0
-45 -606 600 0
-45 606 -600 0
-78 -606 600 0
-78 606 -600 0
-31 -607 601 0
-31 607 -601 0
-32 -607 601 0
-32 607 -601 0
-33 -607 601 0
-33 607 -601 0
-34 -601 607 0
-34 -597 607 0
-34 -607 601 597 0
-35 -607 601 0
-35 607 -601 0
-36 -607 601 0
-36 607 -601 0
-37 -607 601 0
-37 607 -601 0
-38 -601 607 0
-38 -598 607 0
-38 -607 601 598 0
-39 -607 601 0
-39 607 -601 0
-40 -607 601 0
-40 607 -601 0
-41 -601 607 0
-41 -599 607 0
-41 -607 601 599 0
-42 -607 601 0
-42 607 -601 0
-43 -601 607 0
-43 -600 607 0
-43 -607 601 600 0
-44 -607 601 0
-44 607 -601 0
-45 -607 601 0
-45 -607 602 0
-45 607 -601 -602 0
-78 -607 601 0
-78 607 -601 0
-31 -608 602 0
-31 608 -602 0
-32 -608 602 0
-32 608 -602 0
-33 -608 602 0
-33 608 -602 0
-34 -608 602 0
-34 608 -602 0
-35 -602 608 0
-35 -597 608 0
-35 -608 602 597 0
-36 -608 602 0
-36 608 -602 0
-37 -608 602 0
-37 608 -602 0
-38 -608 602 0
-38 608 -602 0
-39 -602 608 0
-39 -598 608 0
-39 -608 602 598 0
-40 -608 602 0
-40 608 -602 0
-41 -608 602 0
-41 608 -602 0
-42 -602 608 0
-42 -599 608 0
-42 -608 602 599 0
-43 -608 602 0
-43 608 -602 0
-44 -602 608 0
-44 -600 608 0
-44 -608 602 600 0
-45 -602 608 0
-45 -601 608 0
-45 -608 602 601 0
-78 -608 602 0
-78 608 -602 0
-46 -609 603 0
-46 -609 604 0
-46 609 -603 -604 0
-47 -609 603 0
-47 -609 605 0
-47 609 -603 -605 0
-48 -609 603 0
-48 -609 606 0
-48 609 -603 -606 0
-49 -609 603 0
-49 -609 607 0
-49 609 -603 -607 0
-50 -609 603 0
-50 -609 608 0
-50 609 -603 -608 0
-51 -609 603 0
-51 609 -603 0
-52 -609 603 0
-52 609 -603 0
-53 -609 603 0
-53 609 -603 0
-54 -609 603 0
-54 609 -603 0
-55 -609 603 0
-55 609 -603 0
-56 -609 603 0
-56 609 -603 0
-57 -609 603 0
-57 609 -603 0
-58 -609 603 0
-58 609 -603 0
-59 -609 603 0
-59 609 -603 0
-60 -609 603 0
-60 609 -603 0
-79 -609 603 0
-79 609 -603 0
-46 -604 610 0
-46 -603 610 0
-46 -610 604 603 0
-47 -610 604 0
-47 610 -604 0
-48 -610 604 0
-48 610 -604 0
-49 -610 604 0
-49 610 -604 0
-50 -610 604 0
-50 610 -604 0
-51 -610 604 0
-51 -610 605 0
-51 610 -604 -605 0
-52 -610 604 0
-52 -610 606 0
-52 610 -604 -606 0
-53 -610 604 0
-53 -610 607 0
-53 610 -604 -607 0
-54 -610 604 0
-54 -610 608 0
-54 610 -604 -608 0
-55 -610 604 0
-55 610 -604 0
-56 -610 604 0
-56 610 -604 0
-57 -610 604 0
-57 610 -604 0
-58 -610 604 0
-58 610 -604 0
-59 -610 604 0
-59 610 -604 0
-60 -610 604 0
-60 610 -604 0
-79 -610 604 0
-79 610 -604 0
-46 -611 605 0
-46 611 -605 0
-47 -605 611 0
-47 -603 611 0
-47 -611 605 603 0
-48 -611 605 0
-48 611 -605 0
-49 -611 605 0
-49 611 -605 0
-50 -611 605 0
-50 611 -605 0
-51 -605 611 0
-51 -604 611 0
-51 -611 605 604 0
-52 -611 605 0
-52 611 -605 0
-53 -611 605 0
-53 611 -605 0
-54 -611 605 0
-54 611 -605 0
-55 -611 605 0
-55 -611 606 0
-55 611 -605 -606 0
-56 -611 605 0
-56 -611 607 0
-56 611 -605 -607 0
-57 -611 605 0
-57 -611 608 0
-57 611 -605 -608 0
-58 -611 605 0
-58 611 -605 0
-59 -611 605 0
-59 611 -605 0
-60 -611 605 0
-60 611 -605 0
-79 -611 605 0
-79 611 -605 0
-46 -612 606 0
-46 612 -606 0
-47 -612 606 0
-47 612 -606 0
-48 -606 612 0
-48 -603 612 0
-48 -612 606 603 0
-49 -612 606 0
-49 612 -606 0
-50 -612 606 0
-50 612 -606 0
-51 -612 606 0
-51 612 -606 0
-52 -606 612 0
-52 -604 612 0
-52 -612 606 604 0
-53 -612 606 0
-53 612 -606 0
-54 -612 606 0
-54 612 -606 0
-55 -606 612 0
-55 -605 612 0
-55 -612 606 605 0
-56 -612 606 0
-56 612 -606 0
-57 -612 606 0
-57 612 -606 0
-58 -612 606 0
-58 -612 607 0
-58 612 -606 -607 0
-59 -612 606 0
-59 -612 608 0
-59 612 -606 -608 0
-60 -612 606 0
-60 612 -606 0
-79 -612 606 0
-79 612 -606 0
-46 -613 607 0
-46 613 -607 0
-47 -613 607 0
-47 613 -607 0
-48 -613 607 0
-48 613 -607 0
-49 -607 613 0
-49 -603 613 0
-49 -613 607 603 0
-50 -613 607 0
-50 613 -607 0
-51 -613 607 0
-51 613 -607 0
-52 -613 607 0
-52 613 -607 0
-53 -607 613 0
-53 -604 613 0
-53 -613 607 604 0
-54 -613 607 0
-54 613 -607 0
-55 -613 607 0
-55 613 -607 0
-56 -607 613 0
-56 -605 613 0
-56 -613 607 605 0
-57 -613 607 0
-57 613 -607 0
-58 -607 613 0
-58 -606 613 0
-58 -613 607 606 0
-59 -613 607 0
-59 613 -607 0
-60 -613 607 0
-60 -613 608 0
-60 613 -607 -608 0
-79 -613 607 0
-79 613 -607 0
-46 -614 608 0
-46 614 -608 0
-47 -614 608 0
-47 614 -608 0
-48 -614 608 0
-48 614 -608 0
-49 -614 608 0
-49 614 -608 0
-50 -608 614 0
-50 -603 614 0
-50 -614 608 603 0
-51 -614 608 0
-51 614 -608 0
-52 -614 608 0
-52 614 -608 0
-53 -614 608 0
-53 614 -608 0
-54 -608 614 0
-54 -604 614 0
-54 -614 608 604 0
-55 -614 608 0
-55 614 -608 0
-56 -614 608 0
-56 614 -608 0
-57 -608 614 0
-57 -605 614 0
-57 -614 608 605 0
-58 -614 608 0
-58 614 -608 0
-59 -608 614 0
-59 -606 614 0
-59 -614 608 606 0
-60 -608 614 0
-60 -607 614 0
-60 -614 608 607 0
-79 -614 608 0
-79 614 -608 0
-61 -615 609 0
-61 -615 610 0
-61 615 -609 -610 0
-62 -615 609 0
-62 -615 611 0
-62 615 -609 -611 0
-63 -615 609 0
-63 -615 612 0
-63 615 -609 -612 0
-64 -615 609 0
-64 -615 613 0
-64 615 -609 -613 0
-65 -615 609 0
-65 -615 614 0
-65 615 -609 -614 0
-66 -615 609 0
-66 615 -609 0
-67 -615 609 0
-67 615 -609 0
-68 -615 609 0
-68 615 -609 0
-69 -615 609 0
-69 615 -609 0
-70 -615 609 0
-70 615 -609 0
-71 -615 609 0
-71 615 -609 0
-72 -615 609 0
-72 615 -609 0
-73 -615 609 0
-73 615 -609 0
-74 -615 609 0
-74 615 -609 0
-75 -615 609 0
-75 615 -609 0
-80 -615 609 0
-80 615 -609 0
-61 -610 616 0
-61 -609 616 0
-61 -616 610 609 0
-62 -616 610 0
-62 616 -610 0
-63 -616 610 0
-63 616 -610 0
-64 -616 610 0
-64 616 -610 0
-65 -616 610 0
-65 616 -610 0
-66 -616 610 0
-66 -616 611 0
-66 616 -610 -611 0
-67 -616 610 0
-67 -616 612 0
-67 616 -610 -612 0
-68 -616 610 0
-68 -616 613 0
-68 616 -610 -613 0
-69 -616 610 0
-69 -616 614 0
-69 616 -610 -614 0
-70 -616 610 0
-70 616 -610 0
-71 -616 610 0
-71 616 -610 0
-72 -616 610 0
-72 616 -610 0
-73 -616 610 0
-73 616 -610 0
-74 -616 610 0
-74 616 -610 0
-75 -616 610 0
-75 616 -610 0
-80 -616 610 0
-80 616 -610 0
-61 -617 611 0
-61 617 -611 0
-62 -611 617 0
-62 -609 617 0
-62 -617 611 609 0
-63 -617 611 0
-63 617 -611 0
-64 -617 611 0
-64 617 -611 0
-65 -617 611 0
-65 617 -611 0
-66 -611 617 0
-66 -610 617 0
-66 -617 611 610 0
-67 -617 611 0
-67 617 -611 0
-68 -617 611 0
-68 617 -611 0
-69 -617 611 0
-69 617 -611 0
-70 -617 611 0
-70 -617 612 0
-70 617 -611 -612 0
-71 -617 611 0
-71 -617 613 0
-71 617 -611 -613 0
-72 -617 611 0
-72 -617 614 0
-72 617 -611 -614 0
-73 -617 611 0
-73 617 -611 0
-74 -617 611 0
-74 617 -611 0
-75 -617 611 0
-75 617 -611 0
-80 -617 611 0
-80 617 -611 0
-61 -618 612 0
-61 618 -612 0
-62 -618 612 0
-62 618 -612 0
-63 -612 618 0
-63 -609 618 0
-63 -618 612 609 0
-64 -618 612 0
-64 618 -612 0
-65 -618 612 0
-65 618 -612 0
-66 -618 612 0
-66 618 -612 0
-67 -612 618 0
-67 -610 618 0
-67 -618 612 610 0
-68 -618 612 0
-68 618 -612 0
-69 -618 612 0
-69 618 -612 0
-70 -612 618 0
-70 -611 618 0
-70 -618 612 611 0
-71 -618 612 0
-71 618 -612 0
-72 -618 612 0
-72 618 -612 0
-73 -618 612 0
-73 -618 613 0
-73 618 -612 -613 0
-74 -618 612 0
-74 -618 614 0
-74 618 -612 -614 0
-75 -618 612 0
-75 618 -612 0
-80 -618 612 0
-80 618 -612 0
-61 -619 613 0
-61 619 -613 0
-62 -619 613 0
-62 619 -613 0
-63 -619 613 0
-63 619 -613 0
-64 -613 619 0
-64 -609 619 0
-64 -619 613 609 0
-65 -619 613 0
-65 619 -613 0
-66 -619 613 0
-66 619 -613 0
-67 -619 613 0
-67 619 -613 0
-68 -613 619 0
-68 -610 619 0
-68 -619 613 610 0
-69 -619 613 0
-69 619 -613 0
-70 -619 613 0
-70 619 -613 0
-71 -613 619 0
-71 -611 619 0
-71 -619 613 611 0
-72 -619 613 0
-72 619 -613 0
-73 -613 619 0
-73 -612 619 0
-73 -619 613 612 0
-74 -619 613 0
-74 619 -613 0
-75 -619 613 0
-75 -619 614 0
-75 619 -613 -614 0
-80 -619 613 0
-80 619 -613 0
-61 -620 614 0
-61 620 -614 0
-62 -620 614 0
-62 620 -614 0
-63 -620 614 0
-63 620 -614 0
-64 -620 614 0
-64 620 -614 0
-65 -614 620 0
-65 -609 620 0
-65 -620 614 609 0
-66 -620 614 0
-66 620 -614 0
-67 -620 614 0
-67 620 -614 0
-68 -620 614 0
-68 620 -614 0
-69 -614 620 0
-69 -610 620 0
-69 -620 614 610 0
-70 -620 614 0
-70 620 -614 0
-71 -620 614 0
-71 620 -614 0
-72 -614 620 0
-72 -611 620 0
-72 -620 614 611 0
-73 -620 614 0
-73 620 -614 0
-74 -614 620 0
-74 -612 620 0
-74 -620 614 612 0
-75 -614 620 0
-75 -613 620 0
-75 -620 614 613 0
-80 -620 614 0
-80 620 -614 0
621 0
-1 -627 621 0
-1 -627 622 0
-1 627 -621 -622 0
-2 -627 621 0
-2 -627 623 0
-2 627 -621 -623 0
-3 -627 621 0
-3 -627 624 0
-3 627 -621 -624 0
-4 -627 621 0
-4 -627 625 0
-4 627 -621 -625 0
-5 -627 621 0
-5 -627 626 0
-5 627 -621 -626 0
-6 -627 621 0
-6 627 -621 0
-7 -627 621 0
-7 627 -621 0
-8 -627 621 0
-8 627 -621 0
-9 -627 621 0
-9 627 -621 0
-10 -627 621 0
-10 627 -621 0
-11 -627 621 0
-11 627 -621 0
-12 -627 621 0
-12 627 -621 0
-13 -627 621 0
-13 627 -621 0
-14 -627 621 0
-14 627 -621 0
-15 -627 621 0
-15 627 -621 0
-76 -627 621 0
-76 627 -621 0
622 0
-1 -622 628 0
-1 -621 628 0
-1 -628 622 621 0
-2 -628 622 0
-2 628 -622 0
-3 -628 622 0
-3 628 -622 0
-4 -628 622 0
-4 628 -622 0
-5 -628 622 0
-5 628 -622 0
-6 -628 622 0
-6 -628 623 0
-6 628 -622 -623 0
-7 -628 622 0
-7 -628 624 0
-7 628 -622 -624 0
-8 -628 622 0
-8 -628 625 0
-8 628 -622 -625 0
-9 -628 622 0
-9 -628 626 0
-9 628 -622 -626 0
-10 -628 622 0
-10 628 -622 0
-11 -628 622 0
-11 628 -622 0
-12 -628 622 0
-12 628 -622 0
-13 -628 622 0
-13 628 -622 0
-14 -628 622 0
-14 628 -622 0
-15 -628 622 0
-15 628 -622 0
-76 -628 622 0
-76 628 -622 0
623 0
-1 -629 623 0
-1 629 -623 0
-2 -623 629 0
-2 -621 629 0
-2 -629 623 621 0
-3 -629 623 0
-3 629 -623 0
-4 -629 623 0
-4 629 -623 0
-5 -629 623 0
-5 629 -623 0
-6 -623 629 0
-6 -622 629 0
-6 -629 623 622 0
-7 -629 623 0
-7 629 -623 0
-8 -629 623 0
-8 629 -623 0
-9 -629 623 0
-9 629 -623 0
-10 -629 623 0
-10 -629 624 0
-10 629 -623 -624 0
-11 -629 623 0
-11 -629 625 0
-11 629 -623 -625 0
-12 -629 623 0
-12 -629 626 0
-12 629 -623 -626 0
-13 -629 623 0
-13 629 -623 0
-14 -629 623 0
-14 629 -623 0
-15 -629 623 0
-15 629 -623 0
-76 -629 623 0
-76 629 -623 0
624 0
-1 -630 624 0
-1 630 -624 0
-2 -630 624 0
-2 630 -624 0
-3 -624 630 0
-3 -621 630 0
-3 -630 624 621 0
-4 -630 624 0
-4 630 -624 0
-5 -630 624 0
-5 630 -624 0
-6 -630 624 0
-6 630 -624 0
-7 -624 630 0
-7 -622 630 0
-7 -630 624 622 0
-8 -630 624 0
-8 630 -624 0
-9 -630 624 0
-9 630 -624 0
-10 -624 630 0
-10 -623 630 0
-10 -630 624 623 0
-11 -630 624 0
-11 630 -624 0
-12 -630 624 0
-12 630 -624 0
-13 -630 624 0
-13 -630 625 0
-13 630 -624 -625 0
-14 -630 624 0
-14 -630 626 0
-14 630 -624 -626 0
-15 -630 624 0
-15 630 -624 0
-76 -630 624 0
-76 630 -624 0
625 0
-1 -631 625 0
-1 631 -625 0
-2 -631 625 0
-2 631 -625 0
-3 -631 625 0
-3 631 -625 0
-4 -625 631 0
-4 -621 631 0
-4 -631 625 621 0
-5 -631 625 0
-5 631 -625 0
-6 -631 625 0
-6 631 -625 0
-7 -631 625 0
-7 631 -625 0
-8 -625 631 0
-8 -622 631 0
-8 -631 625 622 0
-9 -631 625 0
-9 631 -625 0
-10 -631 625 0
-10 631 -625 0
-11 -625 631 0
-11 -623 631 0
-11 -631 625 623 0
-12 -631 625 0
-12 631 -625 0
-13 -625 631 0
-13 -624 631 0
-13 -631 625 624 0
-14 -631 625 0
-14 631 -625 0
-15 -631 625 0
-15 -631 626 0
-15 631 -625 -626 0
-76 -631 625 0
-76 631 -625 0
626 0
-1 -632 626 0
-1 632 -626 0
-2 -632 626 0
-2 632 -626 0
-3 -632 626 0
-3 632 -626 0
-4 -632 626 0
-4 632 -626 0
-5 -626 632 0
-5 -621 632 0
-5 -632 626 621 0
-6 -632 626 0
-6 632 -626 0
-7 -632 626 0
-7 632 -626 0
-8 -632 626 0
-8 632 -626 0
-9 -626 632 0
-9 -622 632 0
-9 -632 626 622 0
-10 -632 626 0
-10 632 -626 0
-11 -632 626 0
-11 632 -626 0
-12 -626 632 0
-12 -623 632 0
-12 -632 626 623 0
-13 -632 626 0
-13 632 -626 0
-14 -626 632 0
-14 -624 632 0
-14 -632 626 624 0
-15 -626 632 0
-15 -625 632 0
-15 -632 626 625 0
-76 -632 626 0
-76 632 -626 0
-16 -633 627 0
-16 -633 628 0
-16 633 -627 -628 0
-17 -633 627 0
-17 -633 629 0
-17 633 -627 -629 0
-18 -633 627 0
-18 -633 630 0
-18 633 -627 -630 0
-19 -633 627 0
-19 -633 631 0
-19 633 -627 -631 0
-20 -633 627 0
-20 -633 632 0
-20 633 -627 -632 0
-21 -633 627 0
-21 633 -627 0
-22 -633 627 0
-22 633 -627 0
-23 -633 627 0
-23 633 -627 0
-24 -633 627 0
-24 633 -627 0
-25 -633 627 0
-25 633 -627 0
-26 -633 627 0
-26 633 -627 0
-27 -633 627 0
-27 633 -627 0
-28 -633 627 0
-28 633 -627 0
-29 -633 627 0
-29 633 -627 0
-30 -633 627 0
-30 633 -627 0
-77 -633 627 0
-77 633 -627 0
-16 -628 634 0
-16 -627 634 0
-16 -634 628 627 0
-17 -634 628 0
-17 634 -628 0
-18 -634 628 0
-18 634 -628 0
-19 -634 628 0
-19 634 -628 0
-20 -634 628 0
-20 634 -628 0
-21 -634 628 0
-21 -634 629 0
-21 634 -628 -629 0
-22 -634 628 0
-22 -634 630 0
-22 634 -628 -630 0
-23 -634 628 0
-23 -634 631 0
-23 634 -628 -631 0
-24 -634 628 0
-24 -634 632 0
-24 634 -628 -632 0
-25 -634 628 0
-25 634 -628 0
-26 -634 628 0
-26 634 -628 0
-27 -634 628 0
-27 634 -628 0
-28 -634 628 0
-28 634 -628 0
-29 -634 628 0
-29 634 -628 0
-30 -634 628 0
-30 634 -628 0
-77 -634 628 0
-77 634 -628 0
-16 -635 629 0
-16 635 -629 0
-17 -629 635 0
-17 -627 635 0
-17 -635 629 627 0
-18 -635 629 0
-18 635 -629 0
-19 -635 629 0
-19 635 -629 0
-20 -635 629 0
-20 635 -629 0
-21 -629 635 0
-21 -628 635 0
-21 -635 629 628 0
-22 -635 629 0
-22 635 -629 0
-23 -635 629 0
-23 635 -629 0
-24 -635 629 0
-24 635 -629 0
-25 -635 629 0
-25 -635 630 0
-25 635 -629 -630 0
-26 -635 629 0
-26 -635 631 0
-26 635 -629 -631 0
-27 -635 629 0
-27 -635 632 0
-27 635 -629 -632 0
-28 -635 629 0
-28 635 -629 0
-29 -635 629 0
-29 635 -629 0
-30 -635 629 0
-30 635 -629 0
-77 -635 629 0
-77 635 -629 0
-16 -636 630 0
-16 636 -630 0
-17 -636 630 0
-17 636 -630 0
-18 -630 636 0
-18 -627 636 0
-18 -636 630 627 0
-19 -636 630 0
-19 636 -630 0
-20 -636 630 0
-20 636 -630 0
-21 -636 630 0
-21 636 -630 0
-22 -630 636 0
-22 -628 636 0
-22 -636 630 628 0
-23 -636 630 0
-23 636 -630 0
-24 -636 630 0
-24 636 -630 0
-25 -630 636 0
-25 -629 636 0
-25 -636 630 629 0
-26 -636 630 0
-26 636 -630 0
-27 -636 630 0
-27 636 -630 0
-28 -636 630 0
-28 -636 631 0
-28 636 -630 -631 0
-29 -636 630 0
-29 -636 632 0
-29 636 -630 -632 0
-30 -636 630 0
-30 636 -630 0
-77 -636 630 0
-77 636 -630 0
-16 -637 631 0
-16 637 -631 0
-17 -637 631 0
-17 637 -631 0
-18 -637 631 0
-18 637 -631 0
-19 -631 637 0
-19 -627 637 0
-19 -637 631 627 0
-20 -637 631 0
-20 637 -631 0
-21 -637 631 0
-21 637 -631 0
-22 -637 631 0
-22 637 -631 0
-23 -631 637 0
-23 -628 637 0
-23 -637 631 628 0
-24 -637 631 0
-24 637 -631 0
-25 -637 631 0
-25 637 -631 0
-26 -631 637 0
-26 -629 637 0
-26 -637 631 629 0
-27 -637 631 0
-27 637 -631 0
-28 -631 637 0
-28 -630 637 0
-28 -637 631 630 0
-29 -637 631 0
-29 637 -631 0
-30 -637 631 0
-30 -637 632 0
-30 637 -631 -632 0
-77 -637 631 0
-77 637 -631 0
-16 -638 632 0
-16 638 -632 0
-17 -638 632 0
-17 638 -632 0
-18 -638 632 0
-18 638 -632 0
-19 -638 632 0
-19 638 -632 0
-20 -632 638 0
-20 -627 638 0
-20 -638 632 627 0
-21 -638 632 0
-21 638 -632 0
-22 -638 632 0
-22 638 -632 0
-23 -638 632 0
-23 638 -632 0
-24 -632 638 0
-24 -628 638 0
-24 -638 632 628 0
-25 -638 632 0
-25 638 -632 0
-26 -638 632 0
-26 638 -632 0
-27 -632 638 0
-27 -629 638 0
-27 -638 632 629 0
-28 -638 632 0
-28 638 -632 0
-29 -632 638 0
-29 -630 638 0
-29 -638 632 630 0
-30 -632 638 0
-30 -631 638 0
-30 -638 632 631 0
-77 -638 632 0
-77 638 -632 0
-31 -639 633 0
-31 -639 634 0
-31 639 -633 -634 0
-32 -639 633 0
-32 -639 635 0
-32 639 -633 -635 0
-33 -639 633 0
-33 -639 636 0
-33 639 -633 -636 0
-34 -639 633 0
-34 -639 637 0
-34 639 -633 -637 0
-35 -639 633 0
-35 -639 638 0
-35 639 -633 -638 0
-36 -639 633 0
-36 639 -633 0
-37 -639 633 0
-37 639 -633 0
-38 -639 633 0
-38 639 -633 0
-39 -639 633 0
-39 639 -633 0
-40 -639 633 0
-40 639 -633 0
-41 -639 633 0
-41 639 -633 0
-42 -639 633 0
-42 639 -633 0
-43 -639 633 0
-43 639 -633 0
-44 -639 633 0
-44 639 -633 0
-45 -639 633 0
-45 639 -633 0
-78 -639 633 0
-78 639 -633 0
-31 -634 640 0
-31 -633 640 0
-31 -640 634 633 0
-32 -640 634 0
-32 640 -634 0
-33 -640 634 0
-33 640 -634 0
-34 -640 634 0
-34 640 -634 0
-35 -640 634 0
-35 640 -634 0
-36 -640 634 0
-36 -640 635 0
-36 640 -634 -635 0
-37 -640 634 0
-37 -640 636 0
-37 640 -634 -636 0
-38 -640 634 0
-38 -640 637 0
-38 640 -634 -637 0
-39 -640 634 0
-39 -640 638 0
-39 640 -634 -638 0
-40 -640 634 0
-40 640 -634 0
-41 -640 634 0
-41 640 -634 0
-42 -640 634 0
-42 640 -634 0
-43 -640 634 0
-43 640 -634 0
-44 -640 634 0
-44 640 -634 0
-45 -640 634 0
-45 640 -634 0
-78 -640 634 0
-78 640 -634 0
-31 -641 635 0
-31 641 -635 0
-32 -635 641 0
-32 -633 641 0
-32 -641 635 633 0
-33 -641 635 0
-33 641 -635 0
-34 -641 635 0
-34 641 -635 0
-35 -641 635 0
-35 641 -635 0
-36 -635 641 0
-36 -634 641 0
-36 -641 635 634 0
-37 -641 635 0
-37 641 -635 0
-38 -641 635 0
-38 641 -635 0
-39 -641 635 0
-39 641 -635 0
-40 -641 635 0
-40 -641 636 0
-40 641 -635 -636 0
-41 -641 635 0
-41 -641 637 0
-41 641 -635 -637 0
-42 -641 635 0
-42 -641 638 0
-42 641 -635 -638 0
-43 -641 635 0
-43 641 -635 0
-44 -641 635 0
-44 641 -635 0
-45 -641 635 0
-45 641 -635 0
-78 -641 635 0
-78 641 -635 0
-31 -642 636 0
-31 642 -636 0
-32 -642 636 0
-32 642 -636 0
-33 -636 642 0
-33 -633 642 0
-33 -642 636 633 0
-34 -642 636 0
-34 642 -636 0
-35 -642 636 0
-35 642 -636 0
-36 -642 636 0
-36 642 -636 0
-37 -636 642 0
-37 -634 642 0
-37 -642 636 634 0
-38 -642 636 0
-38 642 -636 0
-39 -642 636 0
-39 642 -636 0
-40 -636 642 0
-40 -635 642 0
-40 -642 636 635 0
-41 -642 636 0
-41 642 -636 0
-42 -642 636 0
-42 642 -636 0
-43 -642 636 0
-43 -642 637 0
-43 642 -636 -637 0
-44 -642 636 0
-44 -642 638 0
-44 642 -636 -638 0
-45 -642 636 0
-45 642 -636 0
-78 -642 636 0
-78 642 -636 0
-31 -643 637 0
-31 643 -637 0
-32 -643 637 0
-32 643 -637 0
-33 -643 637 0
-33 643 -637 0
-34 -637 643 0
-34 -633 643 0
-34 -643 637 633 0
-35 -643 637 0
-35 643 -637 0
-36 -643 637 0
-36 643 -637 0
-37 -643 637 0
-37 643 -637 0
-38 -637 643 0
-38 -634 643 0
-38 -643 637 634 0
-39 -643 637 0
-39 643 -637 0
-40 -643 637 0
-40 643 -637 0
-41 -637 643 0
-41 -635 643 0
-41 -643 637 635 0
-42 -643 637 0
-42 643 -637 0
-43 -637 643 0
-43 -636 643 0
-43 -643 637 636 0
-44 -643 637 0
-44 643 -637 0
-45 -643 637 0
-45 -643 638 0
-45 643 -637 -638 0
-78 -643 637 0
-78 643 -637 0
-31 -644 638 0
-31 644 -638 0
-32 -644 638 0
-32 644 -638 0
-33 -644 638 0
-33 644 -638 0
-34 -644 638 0
-34 644 -638 0
-35 -638 644 0
-35 -633 644 0
-35 -644 638 633 0
-36 -644 638 0
-36 644 -638 0
-37 -644 638 0
-37 644 -638 0
-38 -644 638 0
-38 644 -638 0
-39 -638 644 0
-39 -634 644 0
-39 -644 638 634 0
-40 -644 638 0
-40 644 -638 0
-41 -644 638 0
-41 644 -638 0
-42 -638 644 0
-42 -635 644 0
-42 -644 638 635 0
-43 -644 638 0
-43 644 -638 0
-44 -638 644 0
-44 -636 644 0
-44 -644 638 636 0
-45 -638 644 0
-45 -637 644 0
-45 -644 638 637 0
-78 -644 638 0
-78 644 -638 0
-46 -645 639 0
-46 -645 640 0
-46 645 -639 -640 0
-47 -645 639 0
-47 -645 641 0
-47 645 -639 -641 0
-48 -645 639 0
-48 -645 642 0
-48 645 -639 -642 0
-49 -645 639 0
-49 -645 643 0
-49 645 -639 -643 0
-50 -645 639 0
-50 -645 644 0
-50 645 -639 -644 0
-51 -645 639 0
-51 645 -639 0
-52 -645 639 0
-52 645 -639 0
-53 -645 639 0
-53 645 -639 0
-54 -645 639 0
-54 645 -639 0
-55 -645 639 0
-55 645 -639 0
-56 -645 639 0
-56 645 -639 0
-57 -645 639 0
-57 645 -639 0
-58 -645 639 0
-58 645 -639 0
-59 -645 639 0
-59 645 -639 0
-60 -645 639 0
-60 645 -639 0
-79 -645 639 0
-79 645 -639 0
-46 -640 646 0
-46 -639 646 0
-46 -646 640 639 0
-47 -646 640 0
-47 646 -640 0
-48 -646 640 0
-48 646 -640 0
-49 -646 640 0
-49 646 -640 0
-50 -646 640 0
-50 646 -640 0
-51 -646 640 0
-51 -646 641 0
-51 646 -640 -641 0
-52 -646 640 0
-52 -646 642 0
-52 646 -640 -642 0
-53 -646 640 0
-53 -646 643 0
-53 646 -640 -643 0
-54 -646 640 0
-54 -646 644 0
-54 646 -640 -644 0
-55 -646 640 0
-55 646 -640 0
-56 -646 640 0
-56 646 -640 0
-57 -646 640 0
-57 646 -640 0
-58 -646 640 0
-58 646 -640 0
-59 -646 640 0
-59 646 -640 0
-60 -646 640 0
-60 646 -640 0
-79 -646 640 0
-79 646 -640 0
-46 -647 641 0
-46 647 -641 0
-47 -641 647 0
-47 -639 647 0
-47 -647 641 639 0
-48 -647 641 0
-48 647 -641 0
-49 -647 641 0
-49 647 -641 0
-50 -647 641 0
-50 647 -641 0
-51 -641 647 0
-51 -640 647 0
-51 -647 641 640 0
-52 -647 641 0
-52 647 -641 0
-53 -647 641 0
-53 647 -641 0
-54 -647 641 0
-54 647 -641 0
-55 -647 641 0
-55 -647 642 0
-55 647 -641 -642 0
-56 -647 641 0
-56 -647 643 0
-56 647 -641 -643 0
-57 -647 641 0
-57 -647 644 0
-57 647 -641 -644 0
-58 -647 641 0
-58 647 -641 0
-59 -647 641 0
-59 647 -641 0
-60 -647 641 0
-60 647 -641 0
-79 -647 641 0
-79 647 -641 0
-46 -648 642 0
-46 648 -642 0
-47 -648 642 0
-47 648 -642 0
-48 -642 648 0
-48 -639 648 0
-48 -648 642 639 0
-49 -648 642 0
-49 648 -642 0
-50 -648 642 0
-50 648 -642 0
-51 -648 642 0
-51 648 -642 0
-52 -642 648 0
-52 -640 648 0
-52 -648 642 640 0
-53 -648 642 0
-53 648 -642 0
-54 -648 642 0
-54 648 -642 0
-55 -642 648 0
-55 -641 648 0
-55 -648 642 641 0
-56 -648 642 0
-56 648 -642 0
-57 -648 642 0
-57 648 -642 0
-58 -648 642 0
-58 -648 643 0
-58 648 -642 -643 0
-59 -648 642 0
-59 -648 644 0
-59 648 -642 -644 0
-60 -648 642 0
-60 648 -642 0
-79 -648 642 0
-79 648 -642 0
-46 -649 643 0
-46 649 -643 0
-47 -649 643 0
-47 649 -643 0
-48 -649 643 0
-48 649 -643 0
-49 -643 649 0
-49 -639 649 0
-49 -649 643 639 0
-50 -649 643 0
-50 649 -643 0
-51 -649 643 0
-51 649 -643 0
-52 -649 643 0
-52 649 -643 0
-53 -643 649 0
-53 -640 649 0
-53 -649 643 640 0
-54 -649 643 0
-54 649 -643 0
-55 -649 643 0
-55 649 -643 0
-56 -643 649 0
-56 -641 649 0
-56 -649 643 641 0
-57 -649 643 0
-57 649 -643 0
-58 -643 649 0
-58 -642 649 0
-58 -649 643 642 0
-59 -649 643 0
-59 649 -643 0
-60 -649 643 0
-60 -649 644 0
-60 649 -643 -644 0
-79 -649 643 0
-79 649 -643 0
-46 -650 644 0
-46 650 -644 0
-47 -650 644 0
-47 650 -644 0
-48 -650 644 0
-48 650 -644 0
-49 -650 644 0
-49 650 -644 0
-50 -644 650 0
-50 -639 650 0
-50 -650 644 639 0
-51 -650 644 0
-51 650 -644 0
-52 -650 644 0
-52 650 -644 0
-53 -650 644 0
-53 650 -644 0
-54 -644 650 0
-54 -640 650 0
-54 -650 644 640 0
-55 -650 644 0
-55 650 -644 0
-56 -650 644 0
-56 650 -644 0
-57 -644 650 0
-57 -641 650 0
-57 -650 644 641 0
-58 -650 644 0
-58 650 -644 0
-59 -644 650 0
-59 -642 650 0
-59 -650 644 642 0
-60 -644 650 0
-60 -643 650 0
-60 -650 644 643 0
-79 -650 644 0
-79 650 -644 0
-61 -651 645 0
-61 -651 646 0
-61 651 -645 -646 0
-62 -651 645 0
-62 -651 647 0
-62 651 -645 -647 0
-63 -651 645 0
-63 -651 648 0
-63 651 -645 -648 0
-64 -651 645 0
-64 -651 649 0
-64 651 -645 -649 0
-65 -651 645 0
-65 -651 650 0
-65 651 -645 -650 0
-66 -651 645 0
-66 651 -645 0
-67 -651 645 0
-67 651 -645 0
-68 -651 645 0
-68 651 -645 0
-69 -651 645 0
-69 651 -645 0
-70 -651 645 0
-70 651 -645 0
-71 -651 645 0
-71 651 -645 0
-72 -651 645 0
-72 651 -645 0
-73 -651 645 0
-73 651 -645 0
-74 -651 645 0
-74 651 -645 0
-75 -651 645 0
-75 651 -645 0
-80 -651 645 0
-80 651 -645 0
-61 -646 652 0
-61 -645 652 0
-61 -652 646 645 0
-62 -652 646 0
-62 652 -646 0
-63 -652 646 0
-63 652 -646 0
-64 -652 646 0
-64 652 -646 0
-65 -652 646 0
-65 652 -646 0
-66 -652 646 0
-66 -652 647 0
-66 652 -646 -647 0
-67 -652 646 0
-67 -652 648 0
-67 652 -646 -648 0
-68 -652 646 0
-68 -652 649 0
-68 652 -646 -649 0
-69 -652 646 0
-69 -652 650 0
-69 652 -646 -650 0
-70 -652 646 0
-70 652 -646 0
-71 -652 646 0
-71 652 -646 0
-72 -652 646 0
-72 652 -646 0
-73 -652 646 0
-73 652 -646 0
-74 -652 646 0
-74 652 -646 0
-75 -652 646 0
-75 652 -646 0
-80 -652 646 0
-80 652 -646 0
-61 -653 647 0
-61 653 -647 0
-62 -647 653 0
-62 -645 653 0
-62 -653 647 645 0
-63 -653 647 0
-63 653 -647 0
-64 -653 647 0
-64 653 -647 0
-65 -653 647 0
-65 653 -647 0
-66 -647 653 0
-66 -646 653 0
-66 -653 647 646 0
-67 -653 647 0
-67 653 -647 0
-68 -653 647 0
-68 653 -647 0
-69 -653 647 0
-69 653 -647 0
-70 -653 647 0
-70 -653 648 0
-70 653 -647 -648 0
-71 -653 647 0
-71 -653 649 0
-71 653 -647 -649 0
-72 -653 647 0
-72 -653 650 0
-72 653 -647 -650 0
-73 -653 647 0
-73 653 -647 0
-74 -653 647 0
-74 653 -647 0
-75 -653 647 0
-75 653 -647 0
-80 -653 647 0
-80 653 -647 0
-61 -654 648 0
-61 654 -648 0
-62 -654 648 0
-62 654 -648 0
-63 -648 654 0
-63 -645 654 0
-63 -654 648 645 0
-64 -654 648 0
-64 654 -648 0
-65 -654 648 0
-65 654 -648 0
-66 -654 648 0
-66 654 -648 0
-67 -648 654 0
-67 -646 654 0
-67 -654 648 646 0
-68 -654 648 0
-68 654 -648 0
-69 -654 648 0
-69 654 -648 0
-70 -648 654 0
-70 -647 654 0
-70 -654 648 647 0
-71 -654 648 0
-71 654 -648 0
-72 -654 648 0
-72 654 -648 0
-73 -654 648 0
-73 -654 649 0
-73 654 -648 -649 0
-74 -654 648 0
-74 -654 650 0
-74 654 -648 -650 0
-75 -654 648 0
-75 654 -648 0
-80 -654 648 0
-80 654 -648 0
-61 -655 649 0
-61 655 -649 0
-62 -655 649 0
-62 655 -649 0
-63 -655 649 0
-63 655 -649 0
-64 -649 655 0
-64 -645 655 0
-64 -655 649 645 0
-65 -655 649 0
-65 655 -649 0
-66 -655 649 0
-66 655 -649 0
-67 -655 649 0
-67 655 -649 0
-68 -649 655 0
-68 -646 655 0
-68 -655 649 646 0
-69 -655 649 0
-69 655 -649 0
-70 -655 649 0
-70 655 -649 0
-71 -649 655 0
-71 -647 655 0
-71 -655 649 647 0
-72 -655 649 0
-72 655 -649 0
-73 -649 655 0
-73 -648 655 0
-73 -655 649 648 0
-74 -655 649 0
-74 655 -649 0
-75 -655 649 0
-75 -655 650 0
-75 655 -649 -650 0
-80 -655 649 0
-80 655 -649 0
-61 -656 650 0
-61 656 -650 0
-62 -656 650 0
-62 656 -650 0
-63 -656 650 0
-63 656 -650 0
-64 -656 650 0
-64 656 -650 0
-65 -650 656 0
-65 -645 656 0
-65 -656 650 645 0
-66 -656 650 0
-66 656 -650 0
-67 -656 650 0
-67 656 -650 0
-68 -656 650 0
-68 656 -650 0
-69 -650 656 0
-69 -646 656 0
-69 -656 650 646 0
-70 -656 650 0
-70 656 -650 0
-71 -656 650 0
-71 656 -650 0
-72 -650 656 0
-72 -647 656 0
-72 -656 650 647 0
-73 -656 650 0
-73 656 -650 0
-74 -650 656 0
-74 -648 656 0
-74 -656 650 648 0
-75 -650 656 0
-75 -649 656 0
-75 -656 650 649 0
-80 -656 650 0
-80 656 -650 0
-111 112 0
-112 113 0
-113 114 0
-114 115 0
-115 116 0
-147 148 0
-148 149 0
-149 150 0
-150 151 0
-151 152 0
-183 184 0
-184 185 0
-185 186 0
-186 187 0
-187 188 0
-219 220 0
-220 221 0
-221 222 0
-222 223 0
-223 224 0
-255 256 0
-256 257 0
-257 258 0
-258 259 0
-259 260 0
-291 292 0
-292 293 0
-293 294 0
-294 295 0
-295 296 0
-327 328 0
-328 329 0
-329 330 0
-330 331 0
-331 332 0
-363 364 0
-364 365 0
-365 366 0
-366 367 0
-367 368 0
-399 400 0
-400 401 0
-401 402 0
-402 403 0
-403 404 0
-435 436 0
-436 437 0
-437 438 0
-438 439 0
-439 440 0
-471 472 0
-472 473 0
-473 474 0
-474 475 0
-475 476 0
-507 508 0
-508 509 0
-509 510 0
-510 511 0
-511 512 0
-543 544 0
-544 545 0
-545 546 0
-546 547 0
-547 548 0
-579 580 0
-580 581 0
-581 582 0
-582 583 0
-583 584 0
-615 616 0
-616 617 0
-617 618 0
-618 619 0
-619 620 0
-651 652 0
-652 653 0
-653 654 0
-654 655 0
-655 656 0
