p cnf 694 13975
1 2 3 4 5 6 7 8 9 10 41 0
-1 -2 0
-1 -3 0
-1 -4 0
-1 -5 0
-1 -6 0
-1 -7 0
-1 -8 0
-1 -9 0
-1 -10 0
-1 -41 0
-2 -3 0
-2 -4 0
-2 -5 0
-2 -6 0
-2 -7 0
-2 -8 0
-2 -9 0
-2 -10 0
-2 -41 0
-3 -4 0
-3 -5 0
-3 -6 0
-3 -7 0
-3 -8 0
-3 -9 0
-3 -10 0
-3 -41 0
-4 -5 0
-4 -6 0
-4 -7 0
-4 -8 0
-4 -9 0
-4 -10 0
-4 -41 0
-5 -6 0
-5 -7 0
-5 -8 0
-5 -9 0
-5 -10 0
-5 -41 0
-6 -7 0
-6 -8 0
-6 -9 0
-6 -10 0
-6 -41 0
-7 -8 0
-7 -9 0
-7 -10 0
-7 -41 0
-8 -9 0
-8 -10 0
-8 -41 0
-9 -10 0
-9 -41 0
-10 -41 0
11 12 13 14 15 16 17 18 19 20 42 0
-11 -12 0
-11 -13 0
-11 -14 0
-11 -15 0
-11 -16 0
-11 -17 0
-11 -18 0
-11 -19 0
-11 -20 0
-11 -42 0
-12 -13 0
-12 -14 0
-12 -15 0
-12 -16 0
-12 -17 0
-12 -18 0
-12 -19 0
-12 -20 0
-12 -42 0
-13 -14 0
-13 -15 0
-13 -16 0
-13 -17 0
-13 -18 0
-13 -19 0
-13 -20 0
-13 -42 0
-14 -15 0
-14 -16 0
-14 -17 0
-14 -18 0
-14 -19 0
-14 -20 0
-14 -42 0
-15 -16 0
-15 -17 0
-15 -18 0
-15 -19 0
-15 -20 0
-15 -42 0
-16 -17 0
-16 -18 0
-16 -19 0
-16 -20 0
-16 -42 0
-17 -18 0
-17 -19 0
-17 -20 0
-17 -42 0
-18 -19 0
-18 -20 0
-18 -42 0
-19 -20 0
-19 -42 0
-20 -42 0
21 22 23 24 25 26 27 28 29 30 43 0
-21 -22 0
-21 -23 0
-21 -24 0
-21 -25 0
-21 -26 0
-21 -27 0
-21 -28 0
-21 -29 0
-21 -30 0
-21 -43 0
-22 -23 0
-22 -24 0
-22 -25 0
-22 -26 0
-22 -27 0
-22 -28 0
-22 -29 0
-22 -30 0
-22 -43 0
-23 -24 0
-23 -25 0
-23 -26 0
-23 -27 0
-23 -28 0
-23 -29 0
-23 -30 0
-23 -43 0
-24 -25 0
-24 -26 0
-24 -27 0
-24 -28 0
-24 -29 0
-24 -30 0
-24 -43 0
-25 -26 0
-25 -27 0
-25 -28 0
-25 -29 0
-25 -30 0
-25 -43 0
-26 -27 0
-26 -28 0
-26 -29 0
-26 -30 0
-26 -43 0
-27 -28 0
-27 -29 0
-27 -30 0
-27 -43 0
-28 -29 0
-28 -30 0
-28 -43 0
-29 -30 0
-29 -43 0
-30 -43 0
31 32 33 34 35 36 37 38 39 40 44 0
-31 -32 0
-31 -33 0
-31 -34 0
-31 -35 0
-31 -36 0
-31 -37 0
-31 -38 0
-31 -39 0
-31 -40 0
-31 -44 0
-32 -33 0
-32 -34 0
-32 -35 0
-32 -36 0
-32 -37 0
-32 -38 0
-32 -39 0
-32 -40 0
-32 -44 0
-33 -34 0
-33 -35 0
-33 -36 0
-33 -37 0
-33 -38 0
-33 -39 0
-33 -40 0
-33 -44 0
-34 -35 0
-34 -36 0
-34 -37 0
-34 -38 0
-34 -39 0
-34 -40 0
-34 -44 0
-35 -36 0
-35 -37 0
-35 -38 0
-35 -39 0
-35 -40 0
-35 -44 0
-36 -37 0
-36 -38 0
-36 -39 0
-36 -40 0
-36 -44 0
-37 -38 0
-37 -39 0
-37 -40 0
-37 -44 0
-38 -39 0
-38 -40 0
-38 -44 0
-39 -40 0
-39 -44 0
-40 -44 0
-1 -11 0
-2 -12 0
-3 -13 0
-4 -14 0
-5 -15 0
-6 -16 0
-7 -17 0
-8 -18 0
-9 -19 0
-10 -20 0
-11 -21 0
-12 -22 0
-13 -23 0
-14 -24 0
-15 -25 0
-16 -26 0
-17 -27 0
-18 -28 0
-19 -29 0
-20 -30 0
-21 -31 0
-22 -32 0
-23 -33 0
-24 -34 0
-25 -35 0
-26 -36 0
-27 -37 0
-28 -38 0
-29 -39 0
-30 -40 0
-5 -13 0
-5 -14 0
-6 -12 0
-6 -14 0
-7 -12 0
-7 -13 0
-8 -11 0
-8 -14 0
-8 -17 0
-9 -11 0
-9 -13 0
-9 -16 0
-10 -11 0
-10 -12 0
-10 -15 0
-15 -23 0
-15 -24 0
-16 -22 0
-16 -24 0
-17 -22 0
-17 -23 0
-18 -21 0
-18 -24 0
-18 -27 0
-19 -21 0
-19 -23 0
-19 -26 0
-20 -21 0
-20 -22 0
-20 -25 0
-25 -33 0
-25 -34 0
-26 -32 0
-26 -34 0
-27 -32 0
-27 -33 0
-28 -31 0
-28 -34 0
-28 -37 0
-29 -31 0
-29 -33 0
-29 -36 0
-30 -31 0
-30 -32 0
-30 -35 0
-45 0
-1 -50 45 0
-1 -50 46 0
-1 50 -45 -46 0
-2 -50 45 0
-2 -50 47 0
-2 50 -45 -47 0
-3 -50 45 0
-3 -50 48 0
-3 50 -45 -48 0
-4 -50 45 0
-4 -50 49 0
-4 50 -45 -49 0
-5 -50 45 0
-5 50 -45 0
-6 -50 45 0
-6 50 -45 0
-7 -50 45 0
-7 50 -45 0
-8 -50 45 0
-8 50 -45 0
-9 -50 45 0
-9 50 -45 0
-10 -50 45 0
-10 50 -45 0
-41 -50 45 0
-41 50 -45 0
-46 0
-1 -46 51 0
-1 -45 51 0
-1 -51 46 45 0
-2 -51 46 0
-2 51 -46 0
-3 -51 46 0
-3 51 -46 0
-4 -51 46 0
-4 51 -46 0
-5 -51 46 0
-5 -51 47 0
-5 51 -46 -47 0
-6 -51 46 0
-6 -51 48 0
-6 51 -46 -48 0
-7 -51 46 0
-7 -51 49 0
-7 51 -46 -49 0
-8 -51 46 0
-8 51 -46 0
-9 -51 46 0
-9 51 -46 0
-10 -51 46 0
-10 51 -46 0
-41 -51 46 0
-41 51 -46 0
-47 0
-1 -52 47 0
-1 52 -47 0
-2 -47 52 0
-2 -45 52 0
-2 -52 47 45 0
-3 -52 47 0
-3 52 -47 0
-4 -52 47 0
-4 52 -47 0
-5 -47 52 0
-5 -46 52 0
-5 -52 47 46 0
-6 -52 47 0
-6 52 -47 0
-7 -52 47 0
-7 52 -47 0
-8 -52 47 0
-8 -52 48 0
-8 52 -47 -48 0
-9 -52 47 0
-9 -52 49 0
-9 52 -47 -49 0
-10 -52 47 0
-10 52 -47 0
-41 -52 47 0
-41 52 -47 0
48 0
-1 -53 48 0
-1 53 -48 0
-2 -53 48 0
-2 53 -48 0
-3 -48 53 0
-3 -45 53 0
-3 -53 48 45 0
-4 -53 48 0
-4 53 -48 0
-5 -53 48 0
-5 53 -48 0
-6 -48 53 0
-6 -46 53 0
-6 -53 48 46 0
-7 -53 48 0
-7 53 -48 0
-8 -48 53 0
-8 -47 53 0
-8 -53 48 47 0
-9 -53 48 0
-9 53 -48 0
-10 -53 48 0
-10 -53 49 0
-10 53 -48 -49 0
-41 -53 48 0
-41 53 -48 0
-49 0
-1 -54 49 0
-1 54 -49 0
-2 -54 49 0
-2 54 -49 0
-3 -54 49 0
-3 54 -49 0
-4 -49 54 0
-4 -45 54 0
-4 -54 49 45 0
-5 -54 49 0
-5 54 -49 0
-6 -54 49 0
-6 54 -49 0
-7 -49 54 0
-7 -46 54 0
-7 -54 49 46 0
-8 -54 49 0
-8 54 -49 0
-9 -49 54 0
-9 -47 54 0
-9 -54 49 47 0
-10 -49 54 0
-10 -48 54 0
-10 -54 49 48 0
-41 -54 49 0
-41 54 -49 0
-11 -55 50 0
-11 -55 51 0
-11 55 -50 -51 0
-12 -55 50 0
-12 -55 52 0
-12 55 -50 -52 0
-13 -55 50 0
-13 -55 53 0
-13 55 -50 -53 0
-14 -55 50 0
-14 -55 54 0
-14 55 -50 -54 0
-15 -55 50 0
-15 55 -50 0
-16 -55 50 0
-16 55 -50 0
-17 -55 50 0
-17 55 -50 0
-18 -55 50 0
-18 55 -50 0
-19 -55 50 0
-19 55 -50 0
-20 -55 50 0
-20 55 -50 0
-42 -55 50 0
-42 55 -50 0
-11 -51 56 0
-11 -50 56 0
-11 -56 51 50 0
-12 -56 51 0
-12 56 -51 0
-13 -56 51 0
-13 56 -51 0
-14 -56 51 0
-14 56 -51 0
-15 -56 51 0
-15 -56 52 0
-15 56 -51 -52 0
-16 -56 51 0
-16 -56 53 0
-16 56 -51 -53 0
-17 -56 51 0
-17 -56 54 0
-17 56 -51 -54 0
-18 -56 51 0
-18 56 -51 0
-19 -56 51 0
-19 56 -51 0
-20 -56 51 0
-20 56 -51 0
-42 -56 51 0
-42 56 -51 0
-11 -57 52 0
-11 57 -52 0
-12 -52 57 0
-12 -50 57 0
-12 -57 52 50 0
-13 -57 52 0
-13 57 -52 0
-14 -57 52 0
-14 57 -52 0
-15 -52 57 0
-15 -51 57 0
-15 -57 52 51 0
-16 -57 52 0
-16 57 -52 0
-17 -57 52 0
-17 57 -52 0
-18 -57 52 0
-18 -57 53 0
-18 57 -52 -53 0
-19 -57 52 0
-19 -57 54 0
-19 57 -52 -54 0
-20 -57 52 0
-20 57 -52 0
-42 -57 52 0
-42 57 -52 0
-11 -58 53 0
-11 58 -53 0
-12 -58 53 0
-12 58 -53 0
-13 -53 58 0
-13 -50 58 0
-13 -58 53 50 0
-14 -58 53 0
-14 58 -53 0
-15 -58 53 0
-15 58 -53 0
-16 -53 58 0
-16 -51 58 0
-16 -58 53 51 0
-17 -58 53 0
-17 58 -53 0
-18 -53 58 0
-18 -52 58 0
-18 -58 53 52 0
-19 -58 53 0
-19 58 -53 0
-20 -58 53 0
-20 -58 54 0
-20 58 -53 -54 0
-42 -58 53 0
-42 58 -53 0
-11 -59 54 0
-11 59 -54 0
-12 -59 54 0
-12 59 -54 0
-13 -59 54 0
-13 59 -54 0
-14 -54 59 0
-14 -50 59 0
-14 -59 54 50 0
-15 -59 54 0
-15 59 -54 0
-16 -59 54 0
-16 59 -54 0
-17 -54 59 0
-17 -51 59 0
-17 -59 54 51 0
-18 -59 54 0
-18 59 -54 0
-19 -54 59 0
-19 -52 59 0
-19 -59 54 52 0
-20 -54 59 0
-20 -53 59 0
-20 -59 54 53 0
-42 -59 54 0
-42 59 -54 0
-21 -60 55 0
-21 -60 56 0
-21 60 -55 -56 0
-22 -60 55 0
-22 -60 57 0
-22 60 -55 -57 0
-23 -60 55 0
-23 -60 58 0
-23 60 -55 -58 0
-24 -60 55 0
-24 -60 59 0
-24 60 -55 -59 0
-25 -60 55 0
-25 60 -55 0
-26 -60 55 0
-26 60 -55 0
-27 -60 55 0
-27 60 -55 0
-28 -60 55 0
-28 60 -55 0
-29 -60 55 0
-29 60 -55 0
-30 -60 55 0
-30 60 -55 0
-43 -60 55 0
-43 60 -55 0
-21 -56 61 0
-21 -55 61 0
-21 -61 56 55 0
-22 -61 56 0
-22 61 -56 0
-23 -61 56 0
-23 61 -56 0
-24 -61 56 0
-24 61 -56 0
-25 -61 56 0
-25 -61 57 0
-25 61 -56 -57 0
-26 -61 56 0
-26 -61 58 0
-26 61 -56 -58 0
-27 -61 56 0
-27 -61 59 0
-27 61 -56 -59 0
-28 -61 56 0
-28 61 -56 0
-29 -61 56 0
-29 61 -56 0
-30 -61 56 0
-30 61 -56 0
-43 -61 56 0
-43 61 -56 0
-21 -62 57 0
-21 62 -57 0
-22 -57 62 0
-22 -55 62 0
-22 -62 57 55 0
-23 -62 57 0
-23 62 -57 0
-24 -62 57 0
-24 62 -57 0
-25 -57 62 0
-25 -56 62 0
-25 -62 57 56 0
-26 -62 57 0
-26 62 -57 0
-27 -62 57 0
-27 62 -57 0
-28 -62 57 0
-28 -62 58 0
-28 62 -57 -58 0
-29 -62 57 0
-29 -62 59 0
-29 62 -57 -59 0
-30 -62 57 0
-30 62 -57 0
-43 -62 57 0
-43 62 -57 0
-21 -63 58 0
-21 63 -58 0
-22 -63 58 0
-22 63 -58 0
-23 -58 63 0
-23 -55 63 0
-23 -63 58 55 0
-24 -63 58 0
-24 63 -58 0
-25 -63 58 0
-25 63 -58 0
-26 -58 63 0
-26 -56 63 0
-26 -63 58 56 0
-27 -63 58 0
-27 63 -58 0
-28 -58 63 0
-28 -57 63 0
-28 -63 58 57 0
-29 -63 58 0
-29 63 -58 0
-30 -63 58 0
-30 -63 59 0
-30 63 -58 -59 0
-43 -63 58 0
-43 63 -58 0
-21 -64 59 0
-21 64 -59 0
-22 -64 59 0
-22 64 -59 0
-23 -64 59 0
-23 64 -59 0
-24 -59 64 0
-24 -55 64 0
-24 -64 59 55 0
-25 -64 59 0
-25 64 -59 0
-26 -64 59 0
-26 64 -59 0
-27 -59 64 0
-27 -56 64 0
-27 -64 59 56 0
-28 -64 59 0
-28 64 -59 0
-29 -59 64 0
-29 -57 64 0
-29 -64 59 57 0
-30 -59 64 0
-30 -58 64 0
-30 -64 59 58 0
-43 -64 59 0
-43 64 -59 0
-31 -65 60 0
-31 -65 61 0
-31 65 -60 -61 0
-32 -65 60 0
-32 -65 62 0
-32 65 -60 -62 0
-33 -65 60 0
-33 -65 63 0
-33 65 -60 -63 0
-34 -65 60 0
-34 -65 64 0
-34 65 -60 -64 0
-35 -65 60 0
-35 65 -60 0
-36 -65 60 0
-36 65 -60 0
-37 -65 60 0
-37 65 -60 0
-38 -65 60 0
-38 65 -60 0
-39 -65 60 0
-39 65 -60 0
-40 -65 60 0
-40 65 -60 0
-44 -65 60 0
-44 65 -60 0
-31 -61 66 0
-31 -60 66 0
-31 -66 61 60 0
-32 -66 61 0
-32 66 -61 0
-33 -66 61 0
-33 66 -61 0
-34 -66 61 0
-34 66 -61 0
-35 -66 61 0
-35 -66 62 0
-35 66 -61 -62 0
-36 -66 61 0
-36 -66 63 0
-36 66 -61 -63 0
-37 -66 61 0
-37 -66 64 0
-37 66 -61 -64 0
-38 -66 61 0
-38 66 -61 0
-39 -66 61 0
-39 66 -61 0
-40 -66 61 0
-40 66 -61 0
-44 -66 61 0
-44 66 -61 0
-31 -67 62 0
-31 67 -62 0
-32 -62 67 0
-32 -60 67 0
-32 -67 62 60 0
-33 -67 62 0
-33 67 -62 0
-34 -67 62 0
-34 67 -62 0
-35 -62 67 0
-35 -61 67 0
-35 -67 62 61 0
-36 -67 62 0
-36 67 -62 0
-37 -67 62 0
-37 67 -62 0
-38 -67 62 0
-38 -67 63 0
-38 67 -62 -63 0
-39 -67 62 0
-39 -67 64 0
-39 67 -62 -64 0
-40 -67 62 0
-40 67 -62 0
-44 -67 62 0
-44 67 -62 0
-31 -68 63 0
-31 68 -63 0
-32 -68 63 0
-32 68 -63 0
-33 -63 68 0
-33 -60 68 0
-33 -68 63 60 0
-34 -68 63 0
-34 68 -63 0
-35 -68 63 0
-35 68 -63 0
-36 -63 68 0
-36 -61 68 0
-36 -68 63 61 0
-37 -68 63 0
-37 68 -63 0
-38 -63 68 0
-38 -62 68 0
-38 -68 63 62 0
-39 -68 63 0
-39 68 -63 0
-40 -68 63 0
-40 -68 64 0
-40 68 -63 -64 0
-44 -68 63 0
-44 68 -63 0
-31 -69 64 0
-31 69 -64 0
-32 -69 64 0
-32 69 -64 0
-33 -69 64 0
-33 69 -64 0
-34 -64 69 0
-34 -60 69 0
-34 -69 64 60 0
-35 -69 64 0
-35 69 -64 0
-36 -69 64 0
-36 69 -64 0
-37 -64 69 0
-37 -61 69 0
-37 -69 64 61 0
-38 -69 64 0
-38 69 -64 0
-39 -64 69 0
-39 -62 69 0
-39 -69 64 62 0
-40 -64 69 0
-40 -63 69 0
-40 -69 64 63 0
-44 -69 64 0
-44 69 -64 0
-70 0
-1 -75 70 0
-1 -75 71 0
-1 75 -70 -71 0
-2 -75 70 0
-2 -75 72 0
-2 75 -70 -72 0
-3 -75 70 0
-3 -75 73 0
-3 75 -70 -73 0
-4 -75 70 0
-4 -75 74 0
-4 75 -70 -74 0
-5 -75 70 0
-5 75 -70 0
-6 -75 70 0
-6 75 -70 0
-7 -75 70 0
-7 75 -70 0
-8 -75 70 0
-8 75 -70 0
-9 -75 70 0
-9 75 -70 0
-10 -75 70 0
-10 75 -70 0
-41 -75 70 0
-41 75 -70 0
-71 0
-1 -71 76 0
-1 -70 76 0
-1 -76 71 70 0
-2 -76 71 0
-2 76 -71 0
-3 -76 71 0
-3 76 -71 0
-4 -76 71 0
-4 76 -71 0
-5 -76 71 0
-5 -76 72 0
-5 76 -71 -72 0
-6 -76 71 0
-6 -76 73 0
-6 76 -71 -73 0
-7 -76 71 0
-7 -76 74 0
-7 76 -71 -74 0
-8 -76 71 0
-8 76 -71 0
-9 -76 71 0
-9 76 -71 0
-10 -76 71 0
-10 76 -71 0
-41 -76 71 0
-41 76 -71 0
72 0
-1 -77 72 0
-1 77 -72 0
-2 -72 77 0
-2 -70 77 0
-2 -77 72 70 0
-3 -77 72 0
-3 77 -72 0
-4 -77 72 0
-4 77 -72 0
-5 -72 77 0
-5 -71 77 0
-5 -77 72 71 0
-6 -77 72 0
-6 77 -72 0
-7 -77 72 0
-7 77 -72 0
-8 -77 72 0
-8 -77 73 0
-8 77 -72 -73 0
-9 -77 72 0
-9 -77 74 0
-9 77 -72 -74 0
-10 -77 72 0
-10 77 -72 0
-41 -77 72 0
-41 77 -72 0
-73 0
-1 -78 73 0
-1 78 -73 0
-2 -78 73 0
-2 78 -73 0
-3 -73 78 0
-3 -70 78 0
-3 -78 73 70 0
-4 -78 73 0
-4 78 -73 0
-5 -78 73 0
-5 78 -73 0
-6 -73 78 0
-6 -71 78 0
-6 -78 73 71 0
-7 -78 73 0
-7 78 -73 0
-8 -73 78 0
-8 -72 78 0
-8 -78 73 72 0
-9 -78 73 0
-9 78 -73 0
-10 -78 73 0
-10 -78 74 0
-10 78 -73 -74 0
-41 -78 73 0
-41 78 -73 0
-74 0
-1 -79 74 0
-1 79 -74 0
-2 -79 74 0
-2 79 -74 0
-3 -79 74 0
-3 79 -74 0
-4 -74 79 0
-4 -70 79 0
-4 -79 74 70 0
-5 -79 74 0
-5 79 -74 0
-6 -79 74 0
-6 79 -74 0
-7 -74 79 0
-7 -71 79 0
-7 -79 74 71 0
-8 -79 74 0
-8 79 -74 0
-9 -74 79 0
-9 -72 79 0
-9 -79 74 72 0
-10 -74 79 0
-10 -73 79 0
-10 -79 74 73 0
-41 -79 74 0
-41 79 -74 0
-11 -80 75 0
-11 -80 76 0
-11 80 -75 -76 0
-12 -80 75 0
-12 -80 77 0
-12 80 -75 -77 0
-13 -80 75 0
-13 -80 78 0
-13 80 -75 -78 0
-14 -80 75 0
-14 -80 79 0
-14 80 -75 -79 0
-15 -80 75 0
-15 80 -75 0
-16 -80 75 0
-16 80 -75 0
-17 -80 75 0
-17 80 -75 0
-18 -80 75 0
-18 80 -75 0
-19 -80 75 0
-19 80 -75 0
-20 -80 75 0
-20 80 -75 0
-42 -80 75 0
-42 80 -75 0
-11 -76 81 0
-11 -75 81 0
-11 -81 76 75 0
-12 -81 76 0
-12 81 -76 0
-13 -81 76 0
-13 81 -76 0
-14 -81 76 0
-14 81 -76 0
-15 -81 76 0
-15 -81 77 0
-15 81 -76 -77 0
-16 -81 76 0
-16 -81 78 0
-16 81 -76 -78 0
-17 -81 76 0
-17 -81 79 0
-17 81 -76 -79 0
-18 -81 76 0
-18 81 -76 0
-19 -81 76 0
-19 81 -76 0
-20 -81 76 0
-20 81 -76 0
-42 -81 76 0
-42 81 -76 0
-11 -82 77 0
-11 82 -77 0
-12 -77 82 0
-12 -75 82 0
-12 -82 77 75 0
-13 -82 77 0
-13 82 -77 0
-14 -82 77 0
-14 82 -77 0
-15 -77 82 0
-15 -76 82 0
-15 -82 77 76 0
-16 -82 77 0
-16 82 -77 0
-17 -82 77 0
-17 82 -77 0
-18 -82 77 0
-18 -82 78 0
-18 82 -77 -78 0
-19 -82 77 0
-19 -82 79 0
-19 82 -77 -79 0
-20 -82 77 0
-20 82 -77 0
-42 -82 77 0
-42 82 -77 0
-11 -83 78 0
-11 83 -78 0
-12 -83 78 0
-12 83 -78 0
-13 -78 83 0
-13 -75 83 0
-13 -83 78 75 0
-14 -83 78 0
-14 83 -78 0
-15 -83 78 0
-15 83 -78 0
-16 -78 83 0
-16 -76 83 0
-16 -83 78 76 0
-17 -83 78 0
-17 83 -78 0
-18 -78 83 0
-18 -77 83 0
-18 -83 78 77 0
-19 -83 78 0
-19 83 -78 0
-20 -83 78 0
-20 -83 79 0
-20 83 -78 -79 0
-42 -83 78 0
-42 83 -78 0
-11 -84 79 0
-11 84 -79 0
-12 -84 79 0
-12 84 -79 0
-13 -84 79 0
-13 84 -79 0
-14 -79 84 0
-14 -75 84 0
-14 -84 79 75 0
-15 -84 79 0
-15 84 -79 0
-16 -84 79 0
-16 84 -79 0
-17 -79 84 0
-17 -76 84 0
-17 -84 79 76 0
-18 -84 79 0
-18 84 -79 0
-19 -79 84 0
-19 -77 84 0
-19 -84 79 77 0
-20 -79 84 0
-20 -78 84 0
-20 -84 79 78 0
-42 -84 79 0
-42 84 -79 0
-21 -85 80 0
-21 -85 81 0
-21 85 -80 -81 0
-22 -85 80 0
-22 -85 82 0
-22 85 -80 -82 0
-23 -85 80 0
-23 -85 83 0
-23 85 -80 -83 0
-24 -85 80 0
-24 -85 84 0
-24 85 -80 -84 0
-25 -85 80 0
-25 85 -80 0
-26 -85 80 0
-26 85 -80 0
-27 -85 80 0
-27 85 -80 0
-28 -85 80 0
-28 85 -80 0
-29 -85 80 0
-29 85 -80 0
-30 -85 80 0
-30 85 -80 0
-43 -85 80 0
-43 85 -80 0
-21 -81 86 0
-21 -80 86 0
-21 -86 81 80 0
-22 -86 81 0
-22 86 -81 0
-23 -86 81 0
-23 86 -81 0
-24 -86 81 0
-24 86 -81 0
-25 -86 81 0
-25 -86 82 0
-25 86 -81 -82 0
-26 -86 81 0
-26 -86 83 0
-26 86 -81 -83 0
-27 -86 81 0
-27 -86 84 0
-27 86 -81 -84 0
-28 -86 81 0
-28 86 -81 0
-29 -86 81 0
-29 86 -81 0
-30 -86 81 0
-30 86 -81 0
-43 -86 81 0
-43 86 -81 0
-21 -87 82 0
-21 87 -82 0
-22 -82 87 0
-22 -80 87 0
-22 -87 82 80 0
-23 -87 82 0
-23 87 -82 0
-24 -87 82 0
-24 87 -82 0
-25 -82 87 0
-25 -81 87 0
-25 -87 82 81 0
-26 -87 82 0
-26 87 -82 0
-27 -87 82 0
-27 87 -82 0
-28 -87 82 0
-28 -87 83 0
-28 87 -82 -83 0
-29 -87 82 0
-29 -87 84 0
-29 87 -82 -84 0
-30 -87 82 0
-30 87 -82 0
-43 -87 82 0
-43 87 -82 0
-21 -88 83 0
-21 88 -83 0
-22 -88 83 0
-22 88 -83 0
-23 -83 88 0
-23 -80 88 0
-23 -88 83 80 0
-24 -88 83 0
-24 88 -83 0
-25 -88 83 0
-25 88 -83 0
-26 -83 88 0
-26 -81 88 0
-26 -88 83 81 0
-27 -88 83 0
-27 88 -83 0
-28 -83 88 0
-28 -82 88 0
-28 -88 83 82 0
-29 -88 83 0
-29 88 -83 0
-30 -88 83 0
-30 -88 84 0
-30 88 -83 -84 0
-43 -88 83 0
-43 88 -83 0
-21 -89 84 0
-21 89 -84 0
-22 -89 84 0
-22 89 -84 0
-23 -89 84 0
-23 89 -84 0
-24 -84 89 0
-24 -80 89 0
-24 -89 84 80 0
-25 -89 84 0
-25 89 -84 0
-26 -89 84 0
-26 89 -84 0
-27 -84 89 0
-27 -81 89 0
-27 -89 84 81 0
-28 -89 84 0
-28 89 -84 0
-29 -84 89 0
-29 -82 89 0
-29 -89 84 82 0
-30 -84 89 0
-30 -83 89 0
-30 -89 84 83 0
-43 -89 84 0
-43 89 -84 0
-31 -90 85 0
-31 -90 86 0
-31 90 -85 -86 0
-32 -90 85 0
-32 -90 87 0
-32 90 -85 -87 0
-33 -90 85 0
-33 -90 88 0
-33 90 -85 -88 0
-34 -90 85 0
-34 -90 89 0
-34 90 -85 -89 0
-35 -90 85 0
-35 90 -85 0
-36 -90 85 0
-36 90 -85 0
-37 -90 85 0
-37 90 -85 0
-38 -90 85 0
-38 90 -85 0
-39 -90 85 0
-39 90 -85 0
-40 -90 85 0
-40 90 -85 0
-44 -90 85 0
-44 90 -85 0
-31 -86 91 0
-31 -85 91 0
-31 -91 86 85 0
-32 -91 86 0
-32 91 -86 0
-33 -91 86 0
-33 91 -86 0
-34 -91 86 0
-34 91 -86 0
-35 -91 86 0
-35 -91 87 0
-35 91 -86 -87 0
-36 -91 86 0
-36 -91 88 0
-36 91 -86 -88 0
-37 -91 86 0
-37 -91 89 0
-37 91 -86 -89 0
-38 -91 86 0
-38 91 -86 0
-39 -91 86 0
-39 91 -86 0
-40 -91 86 0
-40 91 -86 0
-44 -91 86 0
-44 91 -86 0
-31 -92 87 0
-31 92 -87 0
-32 -87 92 0
-32 -85 92 0
-32 -92 87 85 0
-33 -92 87 0
-33 92 -87 0
-34 -92 87 0
-34 92 -87 0
-35 -87 92 0
-35 -86 92 0
-35 -92 87 86 0
-36 -92 87 0
-36 92 -87 0
-37 -92 87 0
-37 92 -87 0
-38 -92 87 0
-38 -92 88 0
-38 92 -87 -88 0
-39 -92 87 0
-39 -92 89 0
-39 92 -87 -89 0
-40 -92 87 0
-40 92 -87 0
-44 -92 87 0
-44 92 -87 0
-31 -93 88 0
-31 93 -88 0
-32 -93 88 0
-32 93 -88 0
-33 -88 93 0
-33 -85 93 0
-33 -93 88 85 0
-34 -93 88 0
-34 93 -88 0
-35 -93 88 0
-35 93 -88 0
-36 -88 93 0
-36 -86 93 0
-36 -93 88 86 0
-37 -93 88 0
-37 93 -88 0
-38 -88 93 0
-38 -87 93 0
-38 -93 88 87 0
-39 -93 88 0
-39 93 -88 0
-40 -93 88 0
-40 -93 89 0
-40 93 -88 -89 0
-44 -93 88 0
-44 93 -88 0
-31 -94 89 0
-31 94 -89 0
-32 -94 89 0
-32 94 -89 0
-33 -94 89 0
-33 94 -89 0
-34 -89 94 0
-34 -85 94 0
-34 -94 89 85 0
-35 -94 89 0
-35 94 -89 0
-36 -94 89 0
-36 94 -89 0
-37 -89 94 0
-37 -86 94 0
-37 -94 89 86 0
-38 -94 89 0
-38 94 -89 0
-39 -89 94 0
-39 -87 94 0
-39 -94 89 87 0
-40 -89 94 0
-40 -88 94 0
-40 -94 89 88 0
-44 -94 89 0
-44 94 -89 0
-95 0
-1 -100 95 0
-1 -100 96 0
-1 100 -95 -96 0
-2 -100 95 0
-2 -100 97 0
-2 100 -95 -97 0
-3 -100 95 0
-3 -100 98 0
-3 100 -95 -98 0
-4 -100 95 0
-4 -100 99 0
-4 100 -95 -99 0
-5 -100 95 0
-5 100 -95 0
-6 -100 95 0
-6 100 -95 0
-7 -100 95 0
-7 100 -95 0
-8 -100 95 0
-8 100 -95 0
-9 -100 95 0
-9 100 -95 0
-10 -100 95 0
-10 100 -95 0
-41 -100 95 0
-41 100 -95 0
-96 0
-1 -96 101 0
-1 -95 101 0
-1 -101 96 95 0
-2 -101 96 0
-2 101 -96 0
-3 -101 96 0
-3 101 -96 0
-4 -101 96 0
-4 101 -96 0
-5 -101 96 0
-5 -101 97 0
-5 101 -96 -97 0
-6 -101 96 0
-6 -101 98 0
-6 101 -96 -98 0
-7 -101 96 0
-7 -101 99 0
-7 101 -96 -99 0
-8 -101 96 0
-8 101 -96 0
-9 -101 96 0
-9 101 -96 0
-10 -101 96 0
-10 101 -96 0
-41 -101 96 0
-41 101 -96 0
97 0
-1 -102 97 0
-1 102 -97 0
-2 -97 102 0
-2 -95 102 0
-2 -102 97 95 0
-3 -102 97 0
-3 102 -97 0
-4 -102 97 0
-4 102 -97 0
-5 -97 102 0
-5 -96 102 0
-5 -102 97 96 0
-6 -102 97 0
-6 102 -97 0
-7 -102 97 0
-7 102 -97 0
-8 -102 97 0
-8 -102 98 0
-8 102 -97 -98 0
-9 -102 97 0
-9 -102 99 0
-9 102 -97 -99 0
-10 -102 97 0
-10 102 -97 0
-41 -102 97 0
-41 102 -97 0
-98 0
-1 -103 98 0
-1 103 -98 0
-2 -103 98 0
-2 103 -98 0
-3 -98 103 0
-3 -95 103 0
-3 -103 98 95 0
-4 -103 98 0
-4 103 -98 0
-5 -103 98 0
-5 103 -98 0
-6 -98 103 0
-6 -96 103 0
-6 -103 98 96 0
-7 -103 98 0
-7 103 -98 0
-8 -98 103 0
-8 -97 103 0
-8 -103 98 97 0
-9 -103 98 0
-9 103 -98 0
-10 -103 98 0
-10 -103 99 0
-10 103 -98 -99 0
-41 -103 98 0
-41 103 -98 0
99 0
-1 -104 99 0
-1 104 -99 0
-2 -104 99 0
-2 104 -99 0
-3 -104 99 0
-3 104 -99 0
-4 -99 104 0
-4 -95 104 0
-4 -104 99 95 0
-5 -104 99 0
-5 104 -99 0
-6 -104 99 0
-6 104 -99 0
-7 -99 104 0
-7 -96 104 0
-7 -104 99 96 0
-8 -104 99 0
-8 104 -99 0
-9 -99 104 0
-9 -97 104 0
-9 -104 99 97 0
-10 -99 104 0
-10 -98 104 0
-10 -104 99 98 0
-41 -104 99 0
-41 104 -99 0
-11 -105 100 0
-11 -105 101 0
-11 105 -100 -101 0
-12 -105 100 0
-12 -105 102 0
-12 105 -100 -102 0
-13 -105 100 0
-13 -105 103 0
-13 105 -100 -103 0
-14 -105 100 0
-14 -105 104 0
-14 105 -100 -104 0
-15 -105 100 0
-15 105 -100 0
-16 -105 100 0
-16 105 -100 0
-17 -105 100 0
-17 105 -100 0
-18 -105 100 0
-18 105 -100 0
-19 -105 100 0
-19 105 -100 0
-20 -105 100 0
-20 105 -100 0
-42 -105 100 0
-42 105 -100 0
-11 -101 106 0
-11 -100 106 0
-11 -106 101 100 0
-12 -106 101 0
-12 106 -101 0
-13 -106 101 0
-13 106 -101 0
-14 -106 101 0
-14 106 -101 0
-15 -106 101 0
-15 -106 102 0
-15 106 -101 -102 0
-16 -106 101 0
-16 -106 103 0
-16 106 -101 -103 0
-17 -106 101 0
-17 -106 104 0
-17 106 -101 -104 0
-18 -106 101 0
-18 106 -101 0
-19 -106 101 0
-19 106 -101 0
-20 -106 101 0
-20 106 -101 0
-42 -106 101 0
-42 106 -101 0
-11 -107 102 0
-11 107 -102 0
-12 -102 107 0
-12 -100 107 0
-12 -107 102 100 0
-13 -107 102 0
-13 107 -102 0
-14 -107 102 0
-14 107 -102 0
-15 -102 107 0
-15 -101 107 0
-15 -107 102 101 0
-16 -107 102 0
-16 107 -102 0
-17 -107 102 0
-17 107 -102 0
-18 -107 102 0
-18 -107 103 0
-18 107 -102 -103 0
-19 -107 102 0
-19 -107 104 0
-19 107 -102 -104 0
-20 -107 102 0
-20 107 -102 0
-42 -107 102 0
-42 107 -102 0
-11 -108 103 0
-11 108 -103 0
-12 -108 103 0
-12 108 -103 0
-13 -103 108 0
-13 -100 108 0
-13 -108 103 100 0
-14 -108 103 0
-14 108 -103 0
-15 -108 103 0
-15 108 -103 0
-16 -103 108 0
-16 -101 108 0
-16 -108 103 101 0
-17 -108 103 0
-17 108 -103 0
-18 -103 108 0
-18 -102 108 0
-18 -108 103 102 0
-19 -108 103 0
-19 108 -103 0
-20 -108 103 0
-20 -108 104 0
-20 108 -103 -104 0
-42 -108 103 0
-42 108 -103 0
-11 -109 104 0
-11 109 -104 0
-12 -109 104 0
-12 109 -104 0
-13 -109 104 0
-13 109 -104 0
-14 -104 109 0
-14 -100 109 0
-14 -109 104 100 0
-15 -109 104 0
-15 109 -104 0
-16 -109 104 0
-16 109 -104 0
-17 -104 109 0
-17 -101 109 0
-17 -109 104 101 0
-18 -109 104 0
-18 109 -104 0
-19 -104 109 0
-19 -102 109 0
-19 -109 104 102 0
-20 -104 109 0
-20 -103 109 0
-20 -109 104 103 0
-42 -109 104 0
-42 109 -104 0
-21 -110 105 0
-21 -110 106 0
-21 110 -105 -106 0
-22 -110 105 0
-22 -110 107 0
-22 110 -105 -107 0
-23 -110 105 0
-23 -110 108 0
-23 110 -105 -108 0
-24 -110 105 0
-24 -110 109 0
-24 110 -105 -109 0
-25 -110 105 0
-25 110 -105 0
-26 -110 105 0
-26 110 -105 0
-27 -110 105 0
-27 110 -105 0
-28 -110 105 0
-28 110 -105 0
-29 -110 105 0
-29 110 -105 0
-30 -110 105 0
-30 110 -105 0
-43 -110 105 0
-43 110 -105 0
-21 -106 111 0
-21 -105 111 0
-21 -111 106 105 0
-22 -111 106 0
-22 111 -106 0
-23 -111 106 0
-23 111 -106 0
-24 -111 106 0
-24 111 -106 0
-25 -111 106 0
-25 -111 107 0
-25 111 -106 -107 0
-26 -111 106 0
-26 -111 108 0
-26 111 -106 -108 0
-27 -111 106 0
-27 -111 109 0
-27 111 -106 -109 0
-28 -111 106 0
-28 111 -106 0
-29 -111 106 0
-29 111 -106 0
-30 -111 106 0
-30 111 -106 0
-43 -111 106 0
-43 111 -106 0
-21 -112 107 0
-21 112 -107 0
-22 -107 112 0
-22 -105 112 0
-22 -112 107 105 0
-23 -112 107 0
-23 112 -107 0
-24 -112 107 0
-24 112 -107 0
-25 -107 112 0
-25 -106 112 0
-25 -112 107 106 0
-26 -112 107 0
-26 112 -107 0
-27 -112 107 0
-27 112 -107 0
-28 -112 107 0
-28 -112 108 0
-28 112 -107 -108 0
-29 -112 107 0
-29 -112 109 0
-29 112 -107 -109 0
-30 -112 107 0
-30 112 -107 0
-43 -112 107 0
-43 112 -107 0
-21 -113 108 0
-21 113 -108 0
-22 -113 108 0
-22 113 -108 0
-23 -108 113 0
-23 -105 113 0
-23 -113 108 105 0
-24 -113 108 0
-24 113 -108 0
-25 -113 108 0
-25 113 -108 0
-26 -108 113 0
-26 -106 113 0
-26 -113 108 106 0
-27 -113 108 0
-27 113 -108 0
-28 -108 113 0
-28 -107 113 0
-28 -113 108 107 0
-29 -113 108 0
-29 113 -108 0
-30 -113 108 0
-30 -113 109 0
-30 113 -108 -109 0
-43 -113 108 0
-43 113 -108 0
-21 -114 109 0
-21 114 -109 0
-22 -114 109 0
-22 114 -109 0
-23 -114 109 0
-23 114 -109 0
-24 -109 114 0
-24 -105 114 0
-24 -114 109 105 0
-25 -114 109 0
-25 114 -109 0
-26 -114 109 0
-26 114 -109 0
-27 -109 114 0
-27 -106 114 0
-27 -114 109 106 0
-28 -114 109 0
-28 114 -109 0
-29 -109 114 0
-29 -107 114 0
-29 -114 109 107 0
-30 -109 114 0
-30 -108 114 0
-30 -114 109 108 0
-43 -114 109 0
-43 114 -109 0
-31 -115 110 0
-31 -115 111 0
-31 115 -110 -111 0
-32 -115 110 0
-32 -115 112 0
-32 115 -110 -112 0
-33 -115 110 0
-33 -115 113 0
-33 115 -110 -113 0
-34 -115 110 0
-34 -115 114 0
-34 115 -110 -114 0
-35 -115 110 0
-35 115 -110 0
-36 -115 110 0
-36 115 -110 0
-37 -115 110 0
-37 115 -110 0
-38 -115 110 0
-38 115 -110 0
-39 -115 110 0
-39 115 -110 0
-40 -115 110 0
-40 115 -110 0
-44 -115 110 0
-44 115 -110 0
-31 -111 116 0
-31 -110 116 0
-31 -116 111 110 0
-32 -116 111 0
-32 116 -111 0
-33 -116 111 0
-33 116 -111 0
-34 -116 111 0
-34 116 -111 0
-35 -116 111 0
-35 -116 112 0
-35 116 -111 -112 0
-36 -116 111 0
-36 -116 113 0
-36 116 -111 -113 0
-37 -116 111 0
-37 -116 114 0
-37 116 -111 -114 0
-38 -116 111 0
-38 116 -111 0
-39 -116 111 0
-39 116 -111 0
-40 -116 111 0
-40 116 -111 0
-44 -116 111 0
-44 116 -111 0
-31 -117 112 0
-31 117 -112 0
-32 -112 117 0
-32 -110 117 0
-32 -117 112 110 0
-33 -117 112 0
-33 117 -112 0
-34 -117 112 0
-34 117 -112 0
-35 -112 117 0
-35 -111 117 0
-35 -117 112 111 0
-36 -117 112 0
-36 117 -112 0
-37 -117 112 0
-37 117 -112 0
-38 -117 112 0
-38 -117 113 0
-38 117 -112 -113 0
-39 -117 112 0
-39 -117 114 0
-39 117 -112 -114 0
-40 -117 112 0
-40 117 -112 0
-44 -117 112 0
-44 117 -112 0
-31 -118 113 0
-31 118 -113 0
-32 -118 113 0
-32 118 -113 0
-33 -113 118 0
-33 -110 118 0
-33 -118 113 110 0
-34 -118 113 0
-34 118 -113 0
-35 -118 113 0
-35 118 -113 0
-36 -113 118 0
-36 -111 118 0
-36 -118 113 111 0
-37 -118 113 0
-37 118 -113 0
-38 -113 118 0
-38 -112 118 0
-38 -118 113 112 0
-39 -118 113 0
-39 118 -113 0
-40 -118 113 0
-40 -118 114 0
-40 118 -113 -114 0
-44 -118 113 0
-44 118 -113 0
-31 -119 114 0
-31 119 -114 0
-32 -119 114 0
-32 119 -114 0
-33 -119 114 0
-33 119 -114 0
-34 -114 119 0
-34 -110 119 0
-34 -119 114 110 0
-35 -119 114 0
-35 119 -114 0
-36 -119 114 0
-36 119 -114 0
-37 -114 119 0
-37 -111 119 0
-37 -119 114 111 0
-38 -119 114 0
-38 119 -114 0
-39 -114 119 0
-39 -112 119 0
-39 -119 114 112 0
-40 -114 119 0
-40 -113 119 0
-40 -119 114 113 0
-44 -119 114 0
-44 119 -114 0
-120 0
-1 -125 120 0
-1 -125 121 0
-1 125 -120 -121 0
-2 -125 120 0
-2 -125 122 0
-2 125 -120 -122 0
-3 -125 120 0
-3 -125 123 0
-3 125 -120 -123 0
-4 -125 120 0
-4 -125 124 0
-4 125 -120 -124 0
-5 -125 120 0
-5 125 -120 0
-6 -125 120 0
-6 125 -120 0
-7 -125 120 0
-7 125 -120 0
-8 -125 120 0
-8 125 -120 0
-9 -125 120 0
-9 125 -120 0
-10 -125 120 0
-10 125 -120 0
-41 -125 120 0
-41 125 -120 0
-121 0
-1 -121 126 0
-1 -120 126 0
-1 -126 121 120 0
-2 -126 121 0
-2 126 -121 0
-3 -126 121 0
-3 126 -121 0
-4 -126 121 0
-4 126 -121 0
-5 -126 121 0
-5 -126 122 0
-5 126 -121 -122 0
-6 -126 121 0
-6 -126 123 0
-6 126 -121 -123 0
-7 -126 121 0
-7 -126 124 0
-7 126 -121 -124 0
-8 -126 121 0
-8 126 -121 0
-9 -126 121 0
-9 126 -121 0
-10 -126 121 0
-10 126 -121 0
-41 -126 121 0
-41 126 -121 0
122 0
-1 -127 122 0
-1 127 -122 0
-2 -122 127 0
-2 -120 127 0
-2 -127 122 120 0
-3 -127 122 0
-3 127 -122 0
-4 -127 122 0
-4 127 -122 0
-5 -122 127 0
-5 -121 127 0
-5 -127 122 121 0
-6 -127 122 0
-6 127 -122 0
-7 -127 122 0
-7 127 -122 0
-8 -127 122 0
-8 -127 123 0
-8 127 -122 -123 0
-9 -127 122 0
-9 -127 124 0
-9 127 -122 -124 0
-10 -127 122 0
-10 127 -122 0
-41 -127 122 0
-41 127 -122 0
123 0
-1 -128 123 0
-1 128 -123 0
-2 -128 123 0
-2 128 -123 0
-3 -123 128 0
-3 -120 128 0
-3 -128 123 120 0
-4 -128 123 0
-4 128 -123 0
-5 -128 123 0
-5 128 -123 0
-6 -123 128 0
-6 -121 128 0
-6 -128 123 121 0
-7 -128 123 0
-7 128 -123 0
-8 -123 128 0
-8 -122 128 0
-8 -128 123 122 0
-9 -128 123 0
-9 128 -123 0
-10 -128 123 0
-10 -128 124 0
-10 128 -123 -124 0
-41 -128 123 0
-41 128 -123 0
-124 0
-1 -129 124 0
-1 129 -124 0
-2 -129 124 0
-2 129 -124 0
-3 -129 124 0
-3 129 -124 0
-4 -124 129 0
-4 -120 129 0
-4 -129 124 120 0
-5 -129 124 0
-5 129 -124 0
-6 -129 124 0
-6 129 -124 0
-7 -124 129 0
-7 -121 129 0
-7 -129 124 121 0
-8 -129 124 0
-8 129 -124 0
-9 -124 129 0
-9 -122 129 0
-9 -129 124 122 0
-10 -124 129 0
-10 -123 129 0
-10 -129 124 123 0
-41 -129 124 0
-41 129 -124 0
-11 -130 125 0
-11 -130 126 0
-11 130 -125 -126 0
-12 -130 125 0
-12 -130 127 0
-12 130 -125 -127 0
-13 -130 125 0
-13 -130 128 0
-13 130 -125 -128 0
-14 -130 125 0
-14 -130 129 0
-14 130 -125 -129 0
-15 -130 125 0
-15 130 -125 0
-16 -130 125 0
-16 130 -125 0
-17 -130 125 0
-17 130 -125 0
-18 -130 125 0
-18 130 -125 0
-19 -130 125 0
-19 130 -125 0
-20 -130 125 0
-20 130 -125 0
-42 -130 125 0
-42 130 -125 0
-11 -126 131 0
-11 -125 131 0
-11 -131 126 125 0
-12 -131 126 0
-12 131 -126 0
-13 -131 126 0
-13 131 -126 0
-14 -131 126 0
-14 131 -126 0
-15 -131 126 0
-15 -131 127 0
-15 131 -126 -127 0
-16 -131 126 0
-16 -131 128 0
-16 131 -126 -128 0
-17 -131 126 0
-17 -131 129 0
-17 131 -126 -129 0
-18 -131 126 0
-18 131 -126 0
-19 -131 126 0
-19 131 -126 0
-20 -131 126 0
-20 131 -126 0
-42 -131 126 0
-42 131 -126 0
-11 -132 127 0
-11 132 -127 0
-12 -127 132 0
-12 -125 132 0
-12 -132 127 125 0
-13 -132 127 0
-13 132 -127 0
-14 -132 127 0
-14 132 -127 0
-15 -127 132 0
-15 -126 132 0
-15 -132 127 126 0
-16 -132 127 0
-16 132 -127 0
-17 -132 127 0
-17 132 -127 0
-18 -132 127 0
-18 -132 128 0
-18 132 -127 -128 0
-19 -132 127 0
-19 -132 129 0
-19 132 -127 -129 0
-20 -132 127 0
-20 132 -127 0
-42 -132 127 0
-42 132 -127 0
-11 -133 128 0
-11 133 -128 0
-12 -133 128 0
-12 133 -128 0
-13 -128 133 0
-13 -125 133 0
-13 -133 128 125 0
-14 -133 128 0
-14 133 -128 0
-15 -133 128 0
-15 133 -128 0
-16 -128 133 0
-16 -126 133 0
-16 -133 128 126 0
-17 -133 128 0
-17 133 -128 0
-18 -128 133 0
-18 -127 133 0
-18 -133 128 127 0
-19 -133 128 0
-19 133 -128 0
-20 -133 128 0
-20 -133 129 0
-20 133 -128 -129 0
-42 -133 128 0
-42 133 -128 0
-11 -134 129 0
-11 134 -129 0
-12 -134 129 0
-12 134 -129 0
-13 -134 129 0
-13 134 -129 0
-14 -129 134 0
-14 -125 134 0
-14 -134 129 125 0
-15 -134 129 0
-15 134 -129 0
-16 -134 129 0
-16 134 -129 0
-17 -129 134 0
-17 -126 134 0
-17 -134 129 126 0
-18 -134 129 0
-18 134 -129 0
-19 -129 134 0
-19 -127 134 0
-19 -134 129 127 0
-20 -129 134 0
-20 -128 134 0
-20 -134 129 128 0
-42 -134 129 0
-42 134 -129 0
-21 -135 130 0
-21 -135 131 0
-21 135 -130 -131 0
-22 -135 130 0
-22 -135 132 0
-22 135 -130 -132 0
-23 -135 130 0
-23 -135 133 0
-23 135 -130 -133 0
-24 -135 130 0
-24 -135 134 0
-24 135 -130 -134 0
-25 -135 130 0
-25 135 -130 0
-26 -135 130 0
-26 135 -130 0
-27 -135 130 0
-27 135 -130 0
-28 -135 130 0
-28 135 -130 0
-29 -135 130 0
-29 135 -130 0
-30 -135 130 0
-30 135 -130 0
-43 -135 130 0
-43 135 -130 0
-21 -131 136 0
-21 -130 136 0
-21 -136 131 130 0
-22 -136 131 0
-22 136 -131 0
-23 -136 131 0
-23 136 -131 0
-24 -136 131 0
-24 136 -131 0
-25 -136 131 0
-25 -136 132 0
-25 136 -131 -132 0
-26 -136 131 0
-26 -136 133 0
-26 136 -131 -133 0
-27 -136 131 0
-27 -136 134 0
-27 136 -131 -134 0
-28 -136 131 0
-28 136 -131 0
-29 -136 131 0
-29 136 -131 0
-30 -136 131 0
-30 136 -131 0
-43 -136 131 0
-43 136 -131 0
-21 -137 132 0
-21 137 -132 0
-22 -132 137 0
-22 -130 137 0
-22 -137 132 130 0
-23 -137 132 0
-23 137 -132 0
-24 -137 132 0
-24 137 -132 0
-25 -132 137 0
-25 -131 137 0
-25 -137 132 131 0
-26 -137 132 0
-26 137 -132 0
-27 -137 132 0
-27 137 -132 0
-28 -137 132 0
-28 -137 133 0
-28 137 -132 -133 0
-29 -137 132 0
-29 -137 134 0
-29 137 -132 -134 0
-30 -137 132 0
-30 137 -132 0
-43 -137 132 0
-43 137 -132 0
-21 -138 133 0
-21 138 -133 0
-22 -138 133 0
-22 138 -133 0
-23 -133 138 0
-23 -130 138 0
-23 -138 133 130 0
-24 -138 133 0
-24 138 -133 0
-25 -138 133 0
-25 138 -133 0
-26 -133 138 0
-26 -131 138 0
-26 -138 133 131 0
-27 -138 133 0
-27 138 -133 0
-28 -133 138 0
-28 -132 138 0
-28 -138 133 132 0
-29 -138 133 0
-29 138 -133 0
-30 -138 133 0
-30 -138 134 0
-30 138 -133 -134 0
-43 -138 133 0
-43 138 -133 0
-21 -139 134 0
-21 139 -134 0
-22 -139 134 0
-22 139 -134 0
-23 -139 134 0
-23 139 -134 0
-24 -134 139 0
-24 -130 139 0
-24 -139 134 130 0
-25 -139 134 0
-25 139 -134 0
-26 -139 134 0
-26 139 -134 0
-27 -134 139 0
-27 -131 139 0
-27 -139 134 131 0
-28 -139 134 0
-28 139 -134 0
-29 -134 139 0
-29 -132 139 0
-29 -139 134 132 0
-30 -134 139 0
-30 -133 139 0
-30 -139 134 133 0
-43 -139 134 0
-43 139 -134 0
-31 -140 135 0
-31 -140 136 0
-31 140 -135 -136 0
-32 -140 135 0
-32 -140 137 0
-32 140 -135 -137 0
-33 -140 135 0
-33 -140 138 0
-33 140 -135 -138 0
-34 -140 135 0
-34 -140 139 0
-34 140 -135 -139 0
-35 -140 135 0
-35 140 -135 0
-36 -140 135 0
-36 140 -135 0
-37 -140 135 0
-37 140 -135 0
-38 -140 135 0
-38 140 -135 0
-39 -140 135 0
-39 140 -135 0
-40 -140 135 0
-40 140 -135 0
-44 -140 135 0
-44 140 -135 0
-31 -136 141 0
-31 -135 141 0
-31 -141 136 135 0
-32 -141 136 0
-32 141 -136 0
-33 -141 136 0
-33 141 -136 0
-34 -141 136 0
-34 141 -136 0
-35 -141 136 0
-35 -141 137 0
-35 141 -136 -137 0
-36 -141 136 0
-36 -141 138 0
-36 141 -136 -138 0
-37 -141 136 0
-37 -141 139 0
-37 141 -136 -139 0
-38 -141 136 0
-38 141 -136 0
-39 -141 136 0
-39 141 -136 0
-40 -141 136 0
-40 141 -136 0
-44 -141 136 0
-44 141 -136 0
-31 -142 137 0
-31 142 -137 0
-32 -137 142 0
-32 -135 142 0
-32 -142 137 135 0
-33 -142 137 0
-33 142 -137 0
-34 -142 137 0
-34 142 -137 0
-35 -137 142 0
-35 -136 142 0
-35 -142 137 136 0
-36 -142 137 0
-36 142 -137 0
-37 -142 137 0
-37 142 -137 0
-38 -142 137 0
-38 -142 138 0
-38 142 -137 -138 0
-39 -142 137 0
-39 -142 139 0
-39 142 -137 -139 0
-40 -142 137 0
-40 142 -137 0
-44 -142 137 0
-44 142 -137 0
-31 -143 138 0
-31 143 -138 0
-32 -143 138 0
-32 143 -138 0
-33 -138 143 0
-33 -135 143 0
-33 -143 138 135 0
-34 -143 138 0
-34 143 -138 0
-35 -143 138 0
-35 143 -138 0
-36 -138 143 0
-36 -136 143 0
-36 -143 138 136 0
-37 -143 138 0
-37 143 -138 0
-38 -138 143 0
-38 -137 143 0
-38 -143 138 137 0
-39 -143 138 0
-39 143 -138 0
-40 -143 138 0
-40 -143 139 0
-40 143 -138 -139 0
-44 -143 138 0
-44 143 -138 0
-31 -144 139 0
-31 144 -139 0
-32 -144 139 0
-32 144 -139 0
-33 -144 139 0
-33 144 -139 0
-34 -139 144 0
-34 -135 144 0
-34 -144 139 135 0
-35 -144 139 0
-35 144 -139 0
-36 -144 139 0
-36 144 -139 0
-37 -139 144 0
-37 -136 144 0
-37 -144 139 136 0
-38 -144 139 0
-38 144 -139 0
-39 -139 144 0
-39 -137 144 0
-39 -144 139 137 0
-40 -139 144 0
-40 -138 144 0
-40 -144 139 138 0
-44 -144 139 0
-44 144 -139 0
-145 0
-1 -150 145 0
-1 -150 146 0
-1 150 -145 -146 0
-2 -150 145 0
-2 -150 147 0
-2 150 -145 -147 0
-3 -150 145 0
-3 -150 148 0
-3 150 -145 -148 0
-4 -150 145 0
-4 -150 149 0
-4 150 -145 -149 0
-5 -150 145 0
-5 150 -145 0
-6 -150 145 0
-6 150 -145 0
-7 -150 145 0
-7 150 -145 0
-8 -150 145 0
-8 150 -145 0
-9 -150 145 0
-9 150 -145 0
-10 -150 145 0
-10 150 -145 0
-41 -150 145 0
-41 150 -145 0
146 0
-1 -146 151 0
-1 -145 151 0
-1 -151 146 145 0
-2 -151 146 0
-2 151 -146 0
-3 -151 146 0
-3 151 -146 0
-4 -151 146 0
-4 151 -146 0
-5 -151 146 0
-5 -151 147 0
-5 151 -146 -147 0
-6 -151 146 0
-6 -151 148 0
-6 151 -146 -148 0
-7 -151 146 0
-7 -151 149 0
-7 151 -146 -149 0
-8 -151 146 0
-8 151 -146 0
-9 -151 146 0
-9 151 -146 0
-10 -151 146 0
-10 151 -146 0
-41 -151 146 0
-41 151 -146 0
-147 0
-1 -152 147 0
-1 152 -147 0
-2 -147 152 0
-2 -145 152 0
-2 -152 147 145 0
-3 -152 147 0
-3 152 -147 0
-4 -152 147 0
-4 152 -147 0
-5 -147 152 0
-5 -146 152 0
-5 -152 147 146 0
-6 -152 147 0
-6 152 -147 0
-7 -152 147 0
-7 152 -147 0
-8 -152 147 0
-8 -152 148 0
-8 152 -147 -148 0
-9 -152 147 0
-9 -152 149 0
-9 152 -147 -149 0
-10 -152 147 0
-10 152 -147 0
-41 -152 147 0
-41 152 -147 0
-148 0
-1 -153 148 0
-1 153 -148 0
-2 -153 148 0
-2 153 -148 0
-3 -148 153 0
-3 -145 153 0
-3 -153 148 145 0
-4 -153 148 0
-4 153 -148 0
-5 -153 148 0
-5 153 -148 0
-6 -148 153 0
-6 -146 153 0
-6 -153 148 146 0
-7 -153 148 0
-7 153 -148 0
-8 -148 153 0
-8 -147 153 0
-8 -153 148 147 0
-9 -153 148 0
-9 153 -148 0
-10 -153 148 0
-10 -153 149 0
-10 153 -148 -149 0
-41 -153 148 0
-41 153 -148 0
-149 0
-1 -154 149 0
-1 154 -149 0
-2 -154 149 0
-2 154 -149 0
-3 -154 149 0
-3 154 -149 0
-4 -149 154 0
-4 -145 154 0
-4 -154 149 145 0
-5 -154 149 0
-5 154 -149 0
-6 -154 149 0
-6 154 -149 0
-7 -149 154 0
-7 -146 154 0
-7 -154 149 146 0
-8 -154 149 0
-8 154 -149 0
-9 -149 154 0
-9 -147 154 0
-9 -154 149 147 0
-10 -149 154 0
-10 -148 154 0
-10 -154 149 148 0
-41 -154 149 0
-41 154 -149 0
-11 -155 150 0
-11 -155 151 0
-11 155 -150 -151 0
-12 -155 150 0
-12 -155 152 0
-12 155 -150 -152 0
-13 -155 150 0
-13 -155 153 0
-13 155 -150 -153 0
-14 -155 150 0
-14 -155 154 0
-14 155 -150 -154 0
-15 -155 150 0
-15 155 -150 0
-16 -155 150 0
-16 155 -150 0
-17 -155 150 0
-17 155 -150 0
-18 -155 150 0
-18 155 -150 0
-19 -155 150 0
-19 155 -150 0
-20 -155 150 0
-20 155 -150 0
-42 -155 150 0
-42 155 -150 0
-11 -151 156 0
-11 -150 156 0
-11 -156 151 150 0
-12 -156 151 0
-12 156 -151 0
-13 -156 151 0
-13 156 -151 0
-14 -156 151 0
-14 156 -151 0
-15 -156 151 0
-15 -156 152 0
-15 156 -151 -152 0
-16 -156 151 0
-16 -156 153 0
-16 156 -151 -153 0
-17 -156 151 0
-17 -156 154 0
-17 156 -151 -154 0
-18 -156 151 0
-18 156 -151 0
-19 -156 151 0
-19 156 -151 0
-20 -156 151 0
-20 156 -151 0
-42 -156 151 0
-42 156 -151 0
-11 -157 152 0
-11 157 -152 0
-12 -152 157 0
-12 -150 157 0
-12 -157 152 150 0
-13 -157 152 0
-13 157 -152 0
-14 -157 152 0
-14 157 -152 0
-15 -152 157 0
-15 -151 157 0
-15 -157 152 151 0
-16 -157 152 0
-16 157 -152 0
-17 -157 152 0
-17 157 -152 0
-18 -157 152 0
-18 -157 153 0
-18 157 -152 -153 0
-19 -157 152 0
-19 -157 154 0
-19 157 -152 -154 0
-20 -157 152 0
-20 157 -152 0
-42 -157 152 0
-42 157 -152 0
-11 -158 153 0
-11 158 -153 0
-12 -158 153 0
-12 158 -153 0
-13 -153 158 0
-13 -150 158 0
-13 -158 153 150 0
-14 -158 153 0
-14 158 -153 0
-15 -158 153 0
-15 158 -153 0
-16 -153 158 0
-16 -151 158 0
-16 -158 153 151 0
-17 -158 153 0
-17 158 -153 0
-18 -153 158 0
-18 -152 158 0
-18 -158 153 152 0
-19 -158 153 0
-19 158 -153 0
-20 -158 153 0
-20 -158 154 0
-20 158 -153 -154 0
-42 -158 153 0
-42 158 -153 0
-11 -159 154 0
-11 159 -154 0
-12 -159 154 0
-12 159 -154 0
-13 -159 154 0
-13 159 -154 0
-14 -154 159 0
-14 -150 159 0
-14 -159 154 150 0
-15 -159 154 0
-15 159 -154 0
-16 -159 154 0
-16 159 -154 0
-17 -154 159 0
-17 -151 159 0
-17 -159 154 151 0
-18 -159 154 0
-18 159 -154 0
-19 -154 159 0
-19 -152 159 0
-19 -159 154 152 0
-20 -154 159 0
-20 -153 159 0
-20 -159 154 153 0
-42 -159 154 0
-42 159 -154 0
-21 -160 155 0
-21 -160 156 0
-21 160 -155 -156 0
-22 -160 155 0
-22 -160 157 0
-22 160 -155 -157 0
-23 -160 155 0
-23 -160 158 0
-23 160 -155 -158 0
-24 -160 155 0
-24 -160 159 0
-24 160 -155 -159 0
-25 -160 155 0
-25 160 -155 0
-26 -160 155 0
-26 160 -155 0
-27 -160 155 0
-27 160 -155 0
-28 -160 155 0
-28 160 -155 0
-29 -160 155 0
-29 160 -155 0
-30 -160 155 0
-30 160 -155 0
-43 -160 155 0
-43 160 -155 0
-21 -156 161 0
-21 -155 161 0
-21 -161 156 155 0
-22 -161 156 0
-22 161 -156 0
-23 -161 156 0
-23 161 -156 0
-24 -161 156 0
-24 161 -156 0
-25 -161 156 0
-25 -161 157 0
-25 161 -156 -157 0
-26 -161 156 0
-26 -161 158 0
-26 161 -156 -158 0
-27 -161 156 0
-27 -161 159 0
-27 161 -156 -159 0
-28 -161 156 0
-28 161 -156 0
-29 -161 156 0
-29 161 -156 0
-30 -161 156 0
-30 161 -156 0
-43 -161 156 0
-43 161 -156 0
-21 -162 157 0
-21 162 -157 0
-22 -157 162 0
-22 -155 162 0
-22 -162 157 155 0
-23 -162 157 0
-23 162 -157 0
-24 -162 157 0
-24 162 -157 0
-25 -157 162 0
-25 -156 162 0
-25 -162 157 156 0
-26 -162 157 0
-26 162 -157 0
-27 -162 157 0
-27 162 -157 0
-28 -162 157 0
-28 -162 158 0
-28 162 -157 -158 0
-29 -162 157 0
-29 -162 159 0
-29 162 -157 -159 0
-30 -162 157 0
-30 162 -157 0
-43 -162 157 0
-43 162 -157 0
-21 -163 158 0
-21 163 -158 0
-22 -163 158 0
-22 163 -158 0
-23 -158 163 0
-23 -155 163 0
-23 -163 158 155 0
-24 -163 158 0
-24 163 -158 0
-25 -163 158 0
-25 163 -158 0
-26 -158 163 0
-26 -156 163 0
-26 -163 158 156 0
-27 -163 158 0
-27 163 -158 0
-28 -158 163 0
-28 -157 163 0
-28 -163 158 157 0
-29 -163 158 0
-29 163 -158 0
-30 -163 158 0
-30 -163 159 0
-30 163 -158 -159 0
-43 -163 158 0
-43 163 -158 0
-21 -164 159 0
-21 164 -159 0
-22 -164 159 0
-22 164 -159 0
-23 -164 159 0
-23 164 -159 0
-24 -159 164 0
-24 -155 164 0
-24 -164 159 155 0
-25 -164 159 0
-25 164 -159 0
-26 -164 159 0
-26 164 -159 0
-27 -159 164 0
-27 -156 164 0
-27 -164 159 156 0
-28 -164 159 0
-28 164 -159 0
-29 -159 164 0
-29 -157 164 0
-29 -164 159 157 0
-30 -159 164 0
-30 -158 164 0
-30 -164 159 158 0
-43 -164 159 0
-43 164 -159 0
-31 -165 160 0
-31 -165 161 0
-31 165 -160 -161 0
-32 -165 160 0
-32 -165 162 0
-32 165 -160 -162 0
-33 -165 160 0
-33 -165 163 0
-33 165 -160 -163 0
-34 -165 160 0
-34 -165 164 0
-34 165 -160 -164 0
-35 -165 160 0
-35 165 -160 0
-36 -165 160 0
-36 165 -160 0
-37 -165 160 0
-37 165 -160 0
-38 -165 160 0
-38 165 -160 0
-39 -165 160 0
-39 165 -160 0
-40 -165 160 0
-40 165 -160 0
-44 -165 160 0
-44 165 -160 0
-31 -161 166 0
-31 -160 166 0
-31 -166 161 160 0
-32 -166 161 0
-32 166 -161 0
-33 -166 161 0
-33 166 -161 0
-34 -166 161 0
-34 166 -161 0
-35 -166 161 0
-35 -166 162 0
-35 166 -161 -162 0
-36 -166 161 0
-36 -166 163 0
-36 166 -161 -163 0
-37 -166 161 0
-37 -166 164 0
-37 166 -161 -164 0
-38 -166 161 0
-38 166 -161 0
-39 -166 161 0
-39 166 -161 0
-40 -166 161 0
-40 166 -161 0
-44 -166 161 0
-44 166 -161 0
-31 -167 162 0
-31 167 -162 0
-32 -162 167 0
-32 -160 167 0
-32 -167 162 160 0
-33 -167 162 0
-33 167 -162 0
-34 -167 162 0
-34 167 -162 0
-35 -162 167 0
-35 -161 167 0
-35 -167 162 161 0
-36 -167 162 0
-36 167 -162 0
-37 -167 162 0
-37 167 -162 0
-38 -167 162 0
-38 -167 163 0
-38 167 -162 -163 0
-39 -167 162 0
-39 -167 164 0
-39 167 -162 -164 0
-40 -167 162 0
-40 167 -162 0
-44 -167 162 0
-44 167 -162 0
-31 -168 163 0
-31 168 -163 0
-32 -168 163 0
-32 168 -163 0
-33 -163 168 0
-33 -160 168 0
-33 -168 163 160 0
-34 -168 163 0
-34 168 -163 0
-35 -168 163 0
-35 168 -163 0
-36 -163 168 0
-36 -161 168 0
-36 -168 163 161 0
-37 -168 163 0
-37 168 -163 0
-38 -163 168 0
-38 -162 168 0
-38 -168 163 162 0
-39 -168 163 0
-39 168 -163 0
-40 -168 163 0
-40 -168 164 0
-40 168 -163 -164 0
-44 -168 163 0
-44 168 -163 0
-31 -169 164 0
-31 169 -164 0
-32 -169 164 0
-32 169 -164 0
-33 -169 164 0
-33 169 -164 0
-34 -164 169 0
-34 -160 169 0
-34 -169 164 160 0
-35 -169 164 0
-35 169 -164 0
-36 -169 164 0
-36 169 -164 0
-37 -164 169 0
-37 -161 169 0
-37 -169 164 161 0
-38 -169 164 0
-38 169 -164 0
-39 -164 169 0
-39 -162 169 0
-39 -169 164 162 0
-40 -164 169 0
-40 -163 169 0
-40 -169 164 163 0
-44 -169 164 0
-44 169 -164 0
-170 0
-1 -175 170 0
-1 -175 171 0
-1 175 -170 -171 0
-2 -175 170 0
-2 -175 172 0
-2 175 -170 -172 0
-3 -175 170 0
-3 -175 173 0
-3 175 -170 -173 0
-4 -175 170 0
-4 -175 174 0
-4 175 -170 -174 0
-5 -175 170 0
-5 175 -170 0
-6 -175 170 0
-6 175 -170 0
-7 -175 170 0
-7 175 -170 0
-8 -175 170 0
-8 175 -170 0
-9 -175 170 0
-9 175 -170 0
-10 -175 170 0
-10 175 -170 0
-41 -175 170 0
-41 175 -170 0
171 0
-1 -171 176 0
-1 -170 176 0
-1 -176 171 170 0
-2 -176 171 0
-2 176 -171 0
-3 -176 171 0
-3 176 -171 0
-4 -176 171 0
-4 176 -171 0
-5 -176 171 0
-5 -176 172 0
-5 176 -171 -172 0
-6 -176 171 0
-6 -176 173 0
-6 176 -171 -173 0
-7 -176 171 0
-7 -176 174 0
-7 176 -171 -174 0
-8 -176 171 0
-8 176 -171 0
-9 -176 171 0
-9 176 -171 0
-10 -176 171 0
-10 176 -171 0
-41 -176 171 0
-41 176 -171 0
-172 0
-1 -177 172 0
-1 177 -172 0
-2 -172 177 0
-2 -170 177 0
-2 -177 172 170 0
-3 -177 172 0
-3 177 -172 0
-4 -177 172 0
-4 177 -172 0
-5 -172 177 0
-5 -171 177 0
-5 -177 172 171 0
-6 -177 172 0
-6 177 -172 0
-7 -177 172 0
-7 177 -172 0
-8 -177 172 0
-8 -177 173 0
-8 177 -172 -173 0
-9 -177 172 0
-9 -177 174 0
-9 177 -172 -174 0
-10 -177 172 0
-10 177 -172 0
-41 -177 172 0
-41 177 -172 0
-173 0
-1 -178 173 0
-1 178 -173 0
-2 -178 173 0
-2 178 -173 0
-3 -173 178 0
-3 -170 178 0
-3 -178 173 170 0
-4 -178 173 0
-4 178 -173 0
-5 -178 173 0
-5 178 -173 0
-6 -173 178 0
-6 -171 178 0
-6 -178 173 171 0
-7 -178 173 0
-7 178 -173 0
-8 -173 178 0
-8 -172 178 0
-8 -178 173 172 0
-9 -178 173 0
-9 178 -173 0
-10 -178 173 0
-10 -178 174 0
-10 178 -173 -174 0
-41 -178 173 0
-41 178 -173 0
174 0
-1 -179 174 0
-1 179 -174 0
-2 -179 174 0
-2 179 -174 0
-3 -179 174 0
-3 179 -174 0
-4 -174 179 0
-4 -170 179 0
-4 -179 174 170 0
-5 -179 174 0
-5 179 -174 0
-6 -179 174 0
-6 179 -174 0
-7 -174 179 0
-7 -171 179 0
-7 -179 174 171 0
-8 -179 174 0
-8 179 -174 0
-9 -174 179 0
-9 -172 179 0
-9 -179 174 172 0
-10 -174 179 0
-10 -173 179 0
-10 -179 174 173 0
-41 -179 174 0
-41 179 -174 0
-11 -180 175 0
-11 -180 176 0
-11 180 -175 -176 0
-12 -180 175 0
-12 -180 177 0
-12 180 -175 -177 0
-13 -180 175 0
-13 -180 178 0
-13 180 -175 -178 0
-14 -180 175 0
-14 -180 179 0
-14 180 -175 -179 0
-15 -180 175 0
-15 180 -175 0
-16 -180 175 0
-16 180 -175 0
-17 -180 175 0
-17 180 -175 0
-18 -180 175 0
-18 180 -175 0
-19 -180 175 0
-19 180 -175 0
-20 -180 175 0
-20 180 -175 0
-42 -180 175 0
-42 180 -175 0
-11 -176 181 0
-11 -175 181 0
-11 -181 176 175 0
-12 -181 176 0
-12 181 -176 0
-13 -181 176 0
-13 181 -176 0
-14 -181 176 0
-14 181 -176 0
-15 -181 176 0
-15 -181 177 0
-15 181 -176 -177 0
-16 -181 176 0
-16 -181 178 0
-16 181 -176 -178 0
-17 -181 176 0
-17 -181 179 0
-17 181 -176 -179 0
-18 -181 176 0
-18 181 -176 0
-19 -181 176 0
-19 181 -176 0
-20 -181 176 0
-20 181 -176 0
-42 -181 176 0
-42 181 -176 0
-11 -182 177 0
-11 182 -177 0
-12 -177 182 0
-12 -175 182 0
-12 -182 177 175 0
-13 -182 177 0
-13 182 -177 0
-14 -182 177 0
-14 182 -177 0
-15 -177 182 0
-15 -176 182 0
-15 -182 177 176 0
-16 -182 177 0
-16 182 -177 0
-17 -182 177 0
-17 182 -177 0
-18 -182 177 0
-18 -182 178 0
-18 182 -177 -178 0
-19 -182 177 0
-19 -182 179 0
-19 182 -177 -179 0
-20 -182 177 0
-20 182 -177 0
-42 -182 177 0
-42 182 -177 0
-11 -183 178 0
-11 183 -178 0
-12 -183 178 0
-12 183 -178 0
-13 -178 183 0
-13 -175 183 0
-13 -183 178 175 0
-14 -183 178 0
-14 183 -178 0
-15 -183 178 0
-15 183 -178 0
-16 -178 183 0
-16 -176 183 0
-16 -183 178 176 0
-17 -183 178 0
-17 183 -178 0
-18 -178 183 0
-18 -177 183 0
-18 -183 178 177 0
-19 -183 178 0
-19 183 -178 0
-20 -183 178 0
-20 -183 179 0
-20 183 -178 -179 0
-42 -183 178 0
-42 183 -178 0
-11 -184 179 0
-11 184 -179 0
-12 -184 179 0
-12 184 -179 0
-13 -184 179 0
-13 184 -179 0
-14 -179 184 0
-14 -175 184 0
-14 -184 179 175 0
-15 -184 179 0
-15 184 -179 0
-16 -184 179 0
-16 184 -179 0
-17 -179 184 0
-17 -176 184 0
-17 -184 179 176 0
-18 -184 179 0
-18 184 -179 0
-19 -179 184 0
-19 -177 184 0
-19 -184 179 177 0
-20 -179 184 0
-20 -178 184 0
-20 -184 179 178 0
-42 -184 179 0
-42 184 -179 0
-21 -185 180 0
-21 -185 181 0
-21 185 -180 -181 0
-22 -185 180 0
-22 -185 182 0
-22 185 -180 -182 0
-23 -185 180 0
-23 -185 183 0
-23 185 -180 -183 0
-24 -185 180 0
-24 -185 184 0
-24 185 -180 -184 0
-25 -185 180 0
-25 185 -180 0
-26 -185 180 0
-26 185 -180 0
-27 -185 180 0
-27 185 -180 0
-28 -185 180 0
-28 185 -180 0
-29 -185 180 0
-29 185 -180 0
-30 -185 180 0
-30 185 -180 0
-43 -185 180 0
-43 185 -180 0
-21 -181 186 0
-21 -180 186 0
-21 -186 181 180 0
-22 -186 181 0
-22 186 -181 0
-23 -186 181 0
-23 186 -181 0
-24 -186 181 0
-24 186 -181 0
-25 -186 181 0
-25 -186 182 0
-25 186 -181 -182 0
-26 -186 181 0
-26 -186 183 0
-26 186 -181 -183 0
-27 -186 181 0
-27 -186 184 0
-27 186 -181 -184 0
-28 -186 181 0
-28 186 -181 0
-29 -186 181 0
-29 186 -181 0
-30 -186 181 0
-30 186 -181 0
-43 -186 181 0
-43 186 -181 0
-21 -187 182 0
-21 187 -182 0
-22 -182 187 0
-22 -180 187 0
-22 -187 182 180 0
-23 -187 182 0
-23 187 -182 0
-24 -187 182 0
-24 187 -182 0
-25 -182 187 0
-25 -181 187 0
-25 -187 182 181 0
-26 -187 182 0
-26 187 -182 0
-27 -187 182 0
-27 187 -182 0
-28 -187 182 0
-28 -187 183 0
-28 187 -182 -183 0
-29 -187 182 0
-29 -187 184 0
-29 187 -182 -184 0
-30 -187 182 0
-30 187 -182 0
-43 -187 182 0
-43 187 -182 0
-21 -188 183 0
-21 188 -183 0
-22 -188 183 0
-22 188 -183 0
-23 -183 188 0
-23 -180 188 0
-23 -188 183 180 0
-24 -188 183 0
-24 188 -183 0
-25 -188 183 0
-25 188 -183 0
-26 -183 188 0
-26 -181 188 0
-26 -188 183 181 0
-27 -188 183 0
-27 188 -183 0
-28 -183 188 0
-28 -182 188 0
-28 -188 183 182 0
-29 -188 183 0
-29 188 -183 0
-30 -188 183 0
-30 -188 184 0
-30 188 -183 -184 0
-43 -188 183 0
-43 188 -183 0
-21 -189 184 0
-21 189 -184 0
-22 -189 184 0
-22 189 -184 0
-23 -189 184 0
-23 189 -184 0
-24 -184 189 0
-24 -180 189 0
-24 -189 184 180 0
-25 -189 184 0
-25 189 -184 0
-26 -189 184 0
-26 189 -184 0
-27 -184 189 0
-27 -181 189 0
-27 -189 184 181 0
-28 -189 184 0
-28 189 -184 0
-29 -184 189 0
-29 -182 189 0
-29 -189 184 182 0
-30 -184 189 0
-30 -183 189 0
-30 -189 184 183 0
-43 -189 184 0
-43 189 -184 0
-31 -190 185 0
-31 -190 186 0
-31 190 -185 -186 0
-32 -190 185 0
-32 -190 187 0
-32 190 -185 -187 0
-33 -190 185 0
-33 -190 188 0
-33 190 -185 -188 0
-34 -190 185 0
-34 -190 189 0
-34 190 -185 -189 0
-35 -190 185 0
-35 190 -185 0
-36 -190 185 0
-36 190 -185 0
-37 -190 185 0
-37 190 -185 0
-38 -190 185 0
-38 190 -185 0
-39 -190 185 0
-39 190 -185 0
-40 -190 185 0
-40 190 -185 0
-44 -190 185 0
-44 190 -185 0
-31 -186 191 0
-31 -185 191 0
-31 -191 186 185 0
-32 -191 186 0
-32 191 -186 0
-33 -191 186 0
-33 191 -186 0
-34 -191 186 0
-34 191 -186 0
-35 -191 186 0
-35 -191 187 0
-35 191 -186 -187 0
-36 -191 186 0
-36 -191 188 0
-36 191 -186 -188 0
-37 -191 186 0
-37 -191 189 0
-37 191 -186 -189 0
-38 -191 186 0
-38 191 -186 0
-39 -191 186 0
-39 191 -186 0
-40 -191 186 0
-40 191 -186 0
-44 -191 186 0
-44 191 -186 0
-31 -192 187 0
-31 192 -187 0
-32 -187 192 0
-32 -185 192 0
-32 -192 187 185 0
-33 -192 187 0
-33 192 -187 0
-34 -192 187 0
-34 192 -187 0
-35 -187 192 0
-35 -186 192 0
-35 -192 187 186 0
-36 -192 187 0
-36 192 -187 0
-37 -192 187 0
-37 192 -187 0
-38 -192 187 0
-38 -192 188 0
-38 192 -187 -188 0
-39 -192 187 0
-39 -192 189 0
-39 192 -187 -189 0
-40 -192 187 0
-40 192 -187 0
-44 -192 187 0
-44 192 -187 0
-31 -193 188 0
-31 193 -188 0
-32 -193 188 0
-32 193 -188 0
-33 -188 193 0
-33 -185 193 0
-33 -193 188 185 0
-34 -193 188 0
-34 193 -188 0
-35 -193 188 0
-35 193 -188 0
-36 -188 193 0
-36 -186 193 0
-36 -193 188 186 0
-37 -193 188 0
-37 193 -188 0
-38 -188 193 0
-38 -187 193 0
-38 -193 188 187 0
-39 -193 188 0
-39 193 -188 0
-40 -193 188 0
-40 -193 189 0
-40 193 -188 -189 0
-44 -193 188 0
-44 193 -188 0
-31 -194 189 0
-31 194 -189 0
-32 -194 189 0
-32 194 -189 0
-33 -194 189 0
-33 194 -189 0
-34 -189 194 0
-34 -185 194 0
-34 -194 189 185 0
-35 -194 189 0
-35 194 -189 0
-36 -194 189 0
-36 194 -189 0
-37 -189 194 0
-37 -186 194 0
-37 -194 189 186 0
-38 -194 189 0
-38 194 -189 0
-39 -189 194 0
-39 -187 194 0
-39 -194 189 187 0
-40 -189 194 0
-40 -188 194 0
-40 -194 189 188 0
-44 -194 189 0
-44 194 -189 0
-195 0
-1 -200 195 0
-1 -200 196 0
-1 200 -195 -196 0
-2 -200 195 0
-2 -200 197 0
-2 200 -195 -197 0
-3 -200 195 0
-3 -200 198 0
-3 200 -195 -198 0
-4 -200 195 0
-4 -200 199 0
-4 200 -195 -199 0
-5 -200 195 0
-5 200 -195 0
-6 -200 195 0
-6 200 -195 0
-7 -200 195 0
-7 200 -195 0
-8 -200 195 0
-8 200 -195 0
-9 -200 195 0
-9 200 -195 0
-10 -200 195 0
-10 200 -195 0
-41 -200 195 0
-41 200 -195 0
196 0
-1 -196 201 0
-1 -195 201 0
-1 -201 196 195 0
-2 -201 196 0
-2 201 -196 0
-3 -201 196 0
-3 201 -196 0
-4 -201 196 0
-4 201 -196 0
-5 -201 196 0
-5 -201 197 0
-5 201 -196 -197 0
-6 -201 196 0
-6 -201 198 0
-6 201 -196 -198 0
-7 -201 196 0
-7 -201 199 0
-7 201 -196 -199 0
-8 -201 196 0
-8 201 -196 0
-9 -201 196 0
-9 201 -196 0
-10 -201 196 0
-10 201 -196 0
-41 -201 196 0
-41 201 -196 0
-197 0
-1 -202 197 0
-1 202 -197 0
-2 -197 202 0
-2 -195 202 0
-2 -202 197 195 0
-3 -202 197 0
-3 202 -197 0
-4 -202 197 0
-4 202 -197 0
-5 -197 202 0
-5 -196 202 0
-5 -202 197 196 0
-6 -202 197 0
-6 202 -197 0
-7 -202 197 0
-7 202 -197 0
-8 -202 197 0
-8 -202 198 0
-8 202 -197 -198 0
-9 -202 197 0
-9 -202 199 0
-9 202 -197 -199 0
-10 -202 197 0
-10 202 -197 0
-41 -202 197 0
-41 202 -197 0
198 0
-1 -203 198 0
-1 203 -198 0
-2 -203 198 0
-2 203 -198 0
-3 -198 203 0
-3 -195 203 0
-3 -203 198 195 0
-4 -203 198 0
-4 203 -198 0
-5 -203 198 0
-5 203 -198 0
-6 -198 203 0
-6 -196 203 0
-6 -203 198 196 0
-7 -203 198 0
-7 203 -198 0
-8 -198 203 0
-8 -197 203 0
-8 -203 198 197 0
-9 -203 198 0
-9 203 -198 0
-10 -203 198 0
-10 -203 199 0
-10 203 -198 -199 0
-41 -203 198 0
-41 203 -198 0
-199 0
-1 -204 199 0
-1 204 -199 0
-2 -204 199 0
-2 204 -199 0
-3 -204 199 0
-3 204 -199 0
-4 -199 204 0
-4 -195 204 0
-4 -204 199 195 0
-5 -204 199 0
-5 204 -199 0
-6 -204 199 0
-6 204 -199 0
-7 -199 204 0
-7 -196 204 0
-7 -204 199 196 0
-8 -204 199 0
-8 204 -199 0
-9 -199 204 0
-9 -197 204 0
-9 -204 199 197 0
-10 -199 204 0
-10 -198 204 0
-10 -204 199 198 0
-41 -204 199 0
-41 204 -199 0
-11 -205 200 0
-11 -205 201 0
-11 205 -200 -201 0
-12 -205 200 0
-12 -205 202 0
-12 205 -200 -202 0
-13 -205 200 0
-13 -205 203 0
-13 205 -200 -203 0
-14 -205 200 0
-14 -205 204 0
-14 205 -200 -204 0
-15 -205 200 0
-15 205 -200 0
-16 -205 200 0
-16 205 -200 0
-17 -205 200 0
-17 205 -200 0
-18 -205 200 0
-18 205 -200 0
-19 -205 200 0
-19 205 -200 0
-20 -205 200 0
-20 205 -200 0
-42 -205 200 0
-42 205 -200 0
-11 -201 206 0
-11 -200 206 0
-11 -206 201 200 0
-12 -206 201 0
-12 206 -201 0
-13 -206 201 0
-13 206 -201 0
-14 -206 201 0
-14 206 -201 0
-15 -206 201 0
-15 -206 202 0
-15 206 -201 -202 0
-16 -206 201 0
-16 -206 203 0
-16 206 -201 -203 0
-17 -206 201 0
-17 -206 204 0
-17 206 -201 -204 0
-18 -206 201 0
-18 206 -201 0
-19 -206 201 0
-19 206 -201 0
-20 -206 201 0
-20 206 -201 0
-42 -206 201 0
-42 206 -201 0
-11 -207 202 0
-11 207 -202 0
-12 -202 207 0
-12 -200 207 0
-12 -207 202 200 0
-13 -207 202 0
-13 207 -202 0
-14 -207 202 0
-14 207 -202 0
-15 -202 207 0
-15 -201 207 0
-15 -207 202 201 0
-16 -207 202 0
-16 207 -202 0
-17 -207 202 0
-17 207 -202 0
-18 -207 202 0
-18 -207 203 0
-18 207 -202 -203 0
-19 -207 202 0
-19 -207 204 0
-19 207 -202 -204 0
-20 -207 202 0
-20 207 -202 0
-42 -207 202 0
-42 207 -202 0
-11 -208 203 0
-11 208 -203 0
-12 -208 203 0
-12 208 -203 0
-13 -203 208 0
-13 -200 208 0
-13 -208 203 200 0
-14 -208 203 0
-14 208 -203 0
-15 -208 203 0
-15 208 -203 0
-16 -203 208 0
-16 -201 208 0
-16 -208 203 201 0
-17 -208 203 0
-17 208 -203 0
-18 -203 208 0
-18 -202 208 0
-18 -208 203 202 0
-19 -208 203 0
-19 208 -203 0
-20 -208 203 0
-20 -208 204 0
-20 208 -203 -204 0
-42 -208 203 0
-42 208 -203 0
-11 -209 204 0
-11 209 -204 0
-12 -209 204 0
-12 209 -204 0
-13 -209 204 0
-13 209 -204 0
-14 -204 209 0
-14 -200 209 0
-14 -209 204 200 0
-15 -209 204 0
-15 209 -204 0
-16 -209 204 0
-16 209 -204 0
-17 -204 209 0
-17 -201 209 0
-17 -209 204 201 0
-18 -209 204 0
-18 209 -204 0
-19 -204 209 0
-19 -202 209 0
-19 -209 204 202 0
-20 -204 209 0
-20 -203 209 0
-20 -209 204 203 0
-42 -209 204 0
-42 209 -204 0
-21 -210 205 0
-21 -210 206 0
-21 210 -205 -206 0
-22 -210 205 0
-22 -210 207 0
-22 210 -205 -207 0
-23 -210 205 0
-23 -210 208 0
-23 210 -205 -208 0
-24 -210 205 0
-24 -210 209 0
-24 210 -205 -209 0
-25 -210 205 0
-25 210 -205 0
-26 -210 205 0
-26 210 -205 0
-27 -210 205 0
-27 210 -205 0
-28 -210 205 0
-28 210 -205 0
-29 -210 205 0
-29 210 -205 0
-30 -210 205 0
-30 210 -205 0
-43 -210 205 0
-43 210 -205 0
-21 -206 211 0
-21 -205 211 0
-21 -211 206 205 0
-22 -211 206 0
-22 211 -206 0
-23 -211 206 0
-23 211 -206 0
-24 -211 206 0
-24 211 -206 0
-25 -211 206 0
-25 -211 207 0
-25 211 -206 -207 0
-26 -211 206 0
-26 -211 208 0
-26 211 -206 -208 0
-27 -211 206 0
-27 -211 209 0
-27 211 -206 -209 0
-28 -211 206 0
-28 211 -206 0
-29 -211 206 0
-29 211 -206 0
-30 -211 206 0
-30 211 -206 0
-43 -211 206 0
-43 211 -206 0
-21 -212 207 0
-21 212 -207 0
-22 -207 212 0
-22 -205 212 0
-22 -212 207 205 0
-23 -212 207 0
-23 212 -207 0
-24 -212 207 0
-24 212 -207 0
-25 -207 212 0
-25 -206 212 0
-25 -212 207 206 0
-26 -212 207 0
-26 212 -207 0
-27 -212 207 0
-27 212 -207 0
-28 -212 207 0
-28 -212 208 0
-28 212 -207 -208 0
-29 -212 207 0
-29 -212 209 0
-29 212 -207 -209 0
-30 -212 207 0
-30 212 -207 0
-43 -212 207 0
-43 212 -207 0
-21 -213 208 0
-21 213 -208 0
-22 -213 208 0
-22 213 -208 0
-23 -208 213 0
-23 -205 213 0
-23 -213 208 205 0
-24 -213 208 0
-24 213 -208 0
-25 -213 208 0
-25 213 -208 0
-26 -208 213 0
-26 -206 213 0
-26 -213 208 206 0
-27 -213 208 0
-27 213 -208 0
-28 -208 213 0
-28 -207 213 0
-28 -213 208 207 0
-29 -213 208 0
-29 213 -208 0
-30 -213 208 0
-30 -213 209 0
-30 213 -208 -209 0
-43 -213 208 0
-43 213 -208 0
-21 -214 209 0
-21 214 -209 0
-22 -214 209 0
-22 214 -209 0
-23 -214 209 0
-23 214 -209 0
-24 -209 214 0
-24 -205 214 0
-24 -214 209 205 0
-25 -214 209 0
-25 214 -209 0
-26 -214 209 0
-26 214 -209 0
-27 -209 214 0
-27 -206 214 0
-27 -214 209 206 0
-28 -214 209 0
-28 214 -209 0
-29 -209 214 0
-29 -207 214 0
-29 -214 209 207 0
-30 -209 214 0
-30 -208 214 0
-30 -214 209 208 0
-43 -214 209 0
-43 214 -209 0
-31 -215 210 0
-31 -215 211 0
-31 215 -210 -211 0
-32 -215 210 0
-32 -215 212 0
-32 215 -210 -212 0
-33 -215 210 0
-33 -215 213 0
-33 215 -210 -213 0
-34 -215 210 0
-34 -215 214 0
-34 215 -210 -214 0
-35 -215 210 0
-35 215 -210 0
-36 -215 210 0
-36 215 -210 0
-37 -215 210 0
-37 215 -210 0
-38 -215 210 0
-38 215 -210 0
-39 -215 210 0
-39 215 -210 0
-40 -215 210 0
-40 215 -210 0
-44 -215 210 0
-44 215 -210 0
-31 -211 216 0
-31 -210 216 0
-31 -216 211 210 0
-32 -216 211 0
-32 216 -211 0
-33 -216 211 0
-33 216 -211 0
-34 -216 211 0
-34 216 -211 0
-35 -216 211 0
-35 -216 212 0
-35 216 -211 -212 0
-36 -216 211 0
-36 -216 213 0
-36 216 -211 -213 0
-37 -216 211 0
-37 -216 214 0
-37 216 -211 -214 0
-38 -216 211 0
-38 216 -211 0
-39 -216 211 0
-39 216 -211 0
-40 -216 211 0
-40 216 -211 0
-44 -216 211 0
-44 216 -211 0
-31 -217 212 0
-31 217 -212 0
-32 -212 217 0
-32 -210 217 0
-32 -217 212 210 0
-33 -217 212 0
-33 217 -212 0
-34 -217 212 0
-34 217 -212 0
-35 -212 217 0
-35 -211 217 0
-35 -217 212 211 0
-36 -217 212 0
-36 217 -212 0
-37 -217 212 0
-37 217 -212 0
-38 -217 212 0
-38 -217 213 0
-38 217 -212 -213 0
-39 -217 212 0
-39 -217 214 0
-39 217 -212 -214 0
-40 -217 212 0
-40 217 -212 0
-44 -217 212 0
-44 217 -212 0
-31 -218 213 0
-31 218 -213 0
-32 -218 213 0
-32 218 -213 0
-33 -213 218 0
-33 -210 218 0
-33 -218 213 210 0
-34 -218 213 0
-34 218 -213 0
-35 -218 213 0
-35 218 -213 0
-36 -213 218 0
-36 -211 218 0
-36 -218 213 211 0
-37 -218 213 0
-37 218 -213 0
-38 -213 218 0
-38 -212 218 0
-38 -218 213 212 0
-39 -218 213 0
-39 218 -213 0
-40 -218 213 0
-40 -218 214 0
-40 218 -213 -214 0
-44 -218 213 0
-44 218 -213 0
-31 -219 214 0
-31 219 -214 0
-32 -219 214 0
-32 219 -214 0
-33 -219 214 0
-33 219 -214 0
-34 -214 219 0
-34 -210 219 0
-34 -219 214 210 0
-35 -219 214 0
-35 219 -214 0
-36 -219 214 0
-36 219 -214 0
-37 -214 219 0
-37 -211 219 0
-37 -219 214 211 0
-38 -219 214 0
-38 219 -214 0
-39 -214 219 0
-39 -212 219 0
-39 -219 214 212 0
-40 -214 219 0
-40 -213 219 0
-40 -219 214 213 0
-44 -219 214 0
-44 219 -214 0
-220 0
-1 -225 220 0
-1 -225 221 0
-1 225 -220 -221 0
-2 -225 220 0
-2 -225 222 0
-2 225 -220 -222 0
-3 -225 220 0
-3 -225 223 0
-3 225 -220 -223 0
-4 -225 220 0
-4 -225 224 0
-4 225 -220 -224 0
-5 -225 220 0
-5 225 -220 0
-6 -225 220 0
-6 225 -220 0
-7 -225 220 0
-7 225 -220 0
-8 -225 220 0
-8 225 -220 0
-9 -225 220 0
-9 225 -220 0
-10 -225 220 0
-10 225 -220 0
-41 -225 220 0
-41 225 -220 0
221 0
-1 -221 226 0
-1 -220 226 0
-1 -226 221 220 0
-2 -226 221 0
-2 226 -221 0
-3 -226 221 0
-3 226 -221 0
-4 -226 221 0
-4 226 -221 0
-5 -226 221 0
-5 -226 222 0
-5 226 -221 -222 0
-6 -226 221 0
-6 -226 223 0
-6 226 -221 -223 0
-7 -226 221 0
-7 -226 224 0
-7 226 -221 -224 0
-8 -226 221 0
-8 226 -221 0
-9 -226 221 0
-9 226 -221 0
-10 -226 221 0
-10 226 -221 0
-41 -226 221 0
-41 226 -221 0
-222 0
-1 -227 222 0
-1 227 -222 0
-2 -222 227 0
-2 -220 227 0
-2 -227 222 220 0
-3 -227 222 0
-3 227 -222 0
-4 -227 222 0
-4 227 -222 0
-5 -222 227 0
-5 -221 227 0
-5 -227 222 221 0
-6 -227 222 0
-6 227 -222 0
-7 -227 222 0
-7 227 -222 0
-8 -227 222 0
-8 -227 223 0
-8 227 -222 -223 0
-9 -227 222 0
-9 -227 224 0
-9 227 -222 -224 0
-10 -227 222 0
-10 227 -222 0
-41 -227 222 0
-41 227 -222 0
223 0
-1 -228 223 0
-1 228 -223 0
-2 -228 223 0
-2 228 -223 0
-3 -223 228 0
-3 -220 228 0
-3 -228 223 220 0
-4 -228 223 0
-4 228 -223 0
-5 -228 223 0
-5 228 -223 0
-6 -223 228 0
-6 -221 228 0
-6 -228 223 221 0
-7 -228 223 0
-7 228 -223 0
-8 -223 228 0
-8 -222 228 0
-8 -228 223 222 0
-9 -228 223 0
-9 228 -223 0
-10 -228 223 0
-10 -228 224 0
-10 228 -223 -224 0
-41 -228 223 0
-41 228 -223 0
224 0
-1 -229 224 0
-1 229 -224 0
-2 -229 224 0
-2 229 -224 0
-3 -229 224 0
-3 229 -224 0
-4 -224 229 0
-4 -220 229 0
-4 -229 224 220 0
-5 -229 224 0
-5 229 -224 0
-6 -229 224 0
-6 229 -224 0
-7 -224 229 0
-7 -221 229 0
-7 -229 224 221 0
-8 -229 224 0
-8 229 -224 0
-9 -224 229 0
-9 -222 229 0
-9 -229 224 222 0
-10 -224 229 0
-10 -223 229 0
-10 -229 224 223 0
-41 -229 224 0
-41 229 -224 0
-11 -230 225 0
-11 -230 226 0
-11 230 -225 -226 0
-12 -230 225 0
-12 -230 227 0
-12 230 -225 -227 0
-13 -230 225 0
-13 -230 228 0
-13 230 -225 -228 0
-14 -230 225 0
-14 -230 229 0
-14 230 -225 -229 0
-15 -230 225 0
-15 230 -225 0
-16 -230 225 0
-16 230 -225 0
-17 -230 225 0
-17 230 -225 0
-18 -230 225 0
-18 230 -225 0
-19 -230 225 0
-19 230 -225 0
-20 -230 225 0
-20 230 -225 0
-42 -230 225 0
-42 230 -225 0
-11 -226 231 0
-11 -225 231 0
-11 -231 226 225 0
-12 -231 226 0
-12 231 -226 0
-13 -231 226 0
-13 231 -226 0
-14 -231 226 0
-14 231 -226 0
-15 -231 226 0
-15 -231 227 0
-15 231 -226 -227 0
-16 -231 226 0
-16 -231 228 0
-16 231 -226 -228 0
-17 -231 226 0
-17 -231 229 0
-17 231 -226 -229 0
-18 -231 226 0
-18 231 -226 0
-19 -231 226 0
-19 231 -226 0
-20 -231 226 0
-20 231 -226 0
-42 -231 226 0
-42 231 -226 0
-11 -232 227 0
-11 232 -227 0
-12 -227 232 0
-12 -225 232 0
-12 -232 227 225 0
-13 -232 227 0
-13 232 -227 0
-14 -232 227 0
-14 232 -227 0
-15 -227 232 0
-15 -226 232 0
-15 -232 227 226 0
-16 -232 227 0
-16 232 -227 0
-17 -232 227 0
-17 232 -227 0
-18 -232 227 0
-18 -232 228 0
-18 232 -227 -228 0
-19 -232 227 0
-19 -232 229 0
-19 232 -227 -229 0
-20 -232 227 0
-20 232 -227 0
-42 -232 227 0
-42 232 -227 0
-11 -233 228 0
-11 233 -228 0
-12 -233 228 0
-12 233 -228 0
-13 -228 233 0
-13 -225 233 0
-13 -233 228 225 0
-14 -233 228 0
-14 233 -228 0
-15 -233 228 0
-15 233 -228 0
-16 -228 233 0
-16 -226 233 0
-16 -233 228 226 0
-17 -233 228 0
-17 233 -228 0
-18 -228 233 0
-18 -227 233 0
-18 -233 228 227 0
-19 -233 228 0
-19 233 -228 0
-20 -233 228 0
-20 -233 229 0
-20 233 -228 -229 0
-42 -233 228 0
-42 233 -228 0
-11 -234 229 0
-11 234 -229 0
-12 -234 229 0
-12 234 -229 0
-13 -234 229 0
-13 234 -229 0
-14 -229 234 0
-14 -225 234 0
-14 -234 229 225 0
-15 -234 229 0
-15 234 -229 0
-16 -234 229 0
-16 234 -229 0
-17 -229 234 0
-17 -226 234 0
-17 -234 229 226 0
-18 -234 229 0
-18 234 -229 0
-19 -229 234 0
-19 -227 234 0
-19 -234 229 227 0
-20 -229 234 0
-20 -228 234 0
-20 -234 229 228 0
-42 -234 229 0
-42 234 -229 0
-21 -235 230 0
-21 -235 231 0
-21 235 -230 -231 0
-22 -235 230 0
-22 -235 232 0
-22 235 -230 -232 0
-23 -235 230 0
-23 -235 233 0
-23 235 -230 -233 0
-24 -235 230 0
-24 -235 234 0
-24 235 -230 -234 0
-25 -235 230 0
-25 235 -230 0
-26 -235 230 0
-26 235 -230 0
-27 -235 230 0
-27 235 -230 0
-28 -235 230 0
-28 235 -230 0
-29 -235 230 0
-29 235 -230 0
-30 -235 230 0
-30 235 -230 0
-43 -235 230 0
-43 235 -230 0
-21 -231 236 0
-21 -230 236 0
-21 -236 231 230 0
-22 -236 231 0
-22 236 -231 0
-23 -236 231 0
-23 236 -231 0
-24 -236 231 0
-24 236 -231 0
-25 -236 231 0
-25 -236 232 0
-25 236 -231 -232 0
-26 -236 231 0
-26 -236 233 0
-26 236 -231 -233 0
-27 -236 231 0
-27 -236 234 0
-27 236 -231 -234 0
-28 -236 231 0
-28 236 -231 0
-29 -236 231 0
-29 236 -231 0
-30 -236 231 0
-30 236 -231 0
-43 -236 231 0
-43 236 -231 0
-21 -237 232 0
-21 237 -232 0
-22 -232 237 0
-22 -230 237 0
-22 -237 232 230 0
-23 -237 232 0
-23 237 -232 0
-24 -237 232 0
-24 237 -232 0
-25 -232 237 0
-25 -231 237 0
-25 -237 232 231 0
-26 -237 232 0
-26 237 -232 0
-27 -237 232 0
-27 237 -232 0
-28 -237 232 0
-28 -237 233 0
-28 237 -232 -233 0
-29 -237 232 0
-29 -237 234 0
-29 237 -232 -234 0
-30 -237 232 0
-30 237 -232 0
-43 -237 232 0
-43 237 -232 0
-21 -238 233 0
-21 238 -233 0
-22 -238 233 0
-22 238 -233 0
-23 -233 238 0
-23 -230 238 0
-23 -238 233 230 0
-24 -238 233 0
-24 238 -233 0
-25 -238 233 0
-25 238 -233 0
-26 -233 238 0
-26 -231 238 0
-26 -238 233 231 0
-27 -238 233 0
-27 238 -233 0
-28 -233 238 0
-28 -232 238 0
-28 -238 233 232 0
-29 -238 233 0
-29 238 -233 0
-30 -238 233 0
-30 -238 234 0
-30 238 -233 -234 0
-43 -238 233 0
-43 238 -233 0
-21 -239 234 0
-21 239 -234 0
-22 -239 234 0
-22 239 -234 0
-23 -239 234 0
-23 239 -234 0
-24 -234 239 0
-24 -230 239 0
-24 -239 234 230 0
-25 -239 234 0
-25 239 -234 0
-26 -239 234 0
-26 239 -234 0
-27 -234 239 0
-27 -231 239 0
-27 -239 234 231 0
-28 -239 234 0
-28 239 -234 0
-29 -234 239 0
-29 -232 239 0
-29 -239 234 232 0
-30 -234 239 0
-30 -233 239 0
-30 -239 234 233 0
-43 -239 234 0
-43 239 -234 0
-31 -240 235 0
-31 -240 236 0
-31 240 -235 -236 0
-32 -240 235 0
-32 -240 237 0
-32 240 -235 -237 0
-33 -240 235 0
-33 -240 238 0
-33 240 -235 -238 0
-34 -240 235 0
-34 -240 239 0
-34 240 -235 -239 0
-35 -240 235 0
-35 240 -235 0
-36 -240 235 0
-36 240 -235 0
-37 -240 235 0
-37 240 -235 0
-38 -240 235 0
-38 240 -235 0
-39 -240 235 0
-39 240 -235 0
-40 -240 235 0
-40 240 -235 0
-44 -240 235 0
-44 240 -235 0
-31 -236 241 0
-31 -235 241 0
-31 -241 236 235 0
-32 -241 236 0
-32 241 -236 0
-33 -241 236 0
-33 241 -236 0
-34 -241 236 0
-34 241 -236 0
-35 -241 236 0
-35 -241 237 0
-35 241 -236 -237 0
-36 -241 236 0
-36 -241 238 0
-36 241 -236 -238 0
-37 -241 236 0
-37 -241 239 0
-37 241 -236 -239 0
-38 -241 236 0
-38 241 -236 0
-39 -241 236 0
-39 241 -236 0
-40 -241 236 0
-40 241 -236 0
-44 -241 236 0
-44 241 -236 0
-31 -242 237 0
-31 242 -237 0
-32 -237 242 0
-32 -235 242 0
-32 -242 237 235 0
-33 -242 237 0
-33 242 -237 0
-34 -242 237 0
-34 242 -237 0
-35 -237 242 0
-35 -236 242 0
-35 -242 237 236 0
-36 -242 237 0
-36 242 -237 0
-37 -242 237 0
-37 242 -237 0
-38 -242 237 0
-38 -242 238 0
-38 242 -237 -238 0
-39 -242 237 0
-39 -242 239 0
-39 242 -237 -239 0
-40 -242 237 0
-40 242 -237 0
-44 -242 237 0
-44 242 -237 0
-31 -243 238 0
-31 243 -238 0
-32 -243 238 0
-32 243 -238 0
-33 -238 243 0
-33 -235 243 0
-33 -243 238 235 0
-34 -243 238 0
-34 243 -238 0
-35 -243 238 0
-35 243 -238 0
-36 -238 243 0
-36 -236 243 0
-36 -243 238 236 0
-37 -243 238 0
-37 243 -238 0
-38 -238 243 0
-38 -237 243 0
-38 -243 238 237 0
-39 -243 238 0
-39 243 -238 0
-40 -243 238 0
-40 -243 239 0
-40 243 -238 -239 0
-44 -243 238 0
-44 243 -238 0
-31 -244 239 0
-31 244 -239 0
-32 -244 239 0
-32 244 -239 0
-33 -244 239 0
-33 244 -239 0
-34 -239 244 0
-34 -235 244 0
-34 -244 239 235 0
-35 -244 239 0
-35 244 -239 0
-36 -244 239 0
-36 244 -239 0
-37 -239 244 0
-37 -236 244 0
-37 -244 239 236 0
-38 -244 239 0
-38 244 -239 0
-39 -239 244 0
-39 -237 244 0
-39 -244 239 237 0
-40 -239 244 0
-40 -238 244 0
-40 -244 239 238 0
-44 -244 239 0
-44 244 -239 0
-245 0
-1 -250 245 0
-1 -250 246 0
-1 250 -245 -246 0
-2 -250 245 0
-2 -250 247 0
-2 250 -245 -247 0
-3 -250 245 0
-3 -250 248 0
-3 250 -245 -248 0
-4 -250 245 0
-4 -250 249 0
-4 250 -245 -249 0
-5 -250 245 0
-5 250 -245 0
-6 -250 245 0
-6 250 -245 0
-7 -250 245 0
-7 250 -245 0
-8 -250 245 0
-8 250 -245 0
-9 -250 245 0
-9 250 -245 0
-10 -250 245 0
-10 250 -245 0
-41 -250 245 0
-41 250 -245 0
246 0
-1 -246 251 0
-1 -245 251 0
-1 -251 246 245 0
-2 -251 246 0
-2 251 -246 0
-3 -251 246 0
-3 251 -246 0
-4 -251 246 0
-4 251 -246 0
-5 -251 246 0
-5 -251 247 0
-5 251 -246 -247 0
-6 -251 246 0
-6 -251 248 0
-6 251 -246 -248 0
-7 -251 246 0
-7 -251 249 0
-7 251 -246 -249 0
-8 -251 246 0
-8 251 -246 0
-9 -251 246 0
-9 251 -246 0
-10 -251 246 0
-10 251 -246 0
-41 -251 246 0
-41 251 -246 0
247 0
-1 -252 247 0
-1 252 -247 0
-2 -247 252 0
-2 -245 252 0
-2 -252 247 245 0
-3 -252 247 0
-3 252 -247 0
-4 -252 247 0
-4 252 -247 0
-5 -247 252 0
-5 -246 252 0
-5 -252 247 246 0
-6 -252 247 0
-6 252 -247 0
-7 -252 247 0
-7 252 -247 0
-8 -252 247 0
-8 -252 248 0
-8 252 -247 -248 0
-9 -252 247 0
-9 -252 249 0
-9 252 -247 -249 0
-10 -252 247 0
-10 252 -247 0
-41 -252 247 0
-41 252 -247 0
-248 0
-1 -253 248 0
-1 253 -248 0
-2 -253 248 0
-2 253 -248 0
-3 -248 253 0
-3 -245 253 0
-3 -253 248 245 0
-4 -253 248 0
-4 253 -248 0
-5 -253 248 0
-5 253 -248 0
-6 -248 253 0
-6 -246 253 0
-6 -253 248 246 0
-7 -253 248 0
-7 253 -248 0
-8 -248 253 0
-8 -247 253 0
-8 -253 248 247 0
-9 -253 248 0
-9 253 -248 0
-10 -253 248 0
-10 -253 249 0
-10 253 -248 -249 0
-41 -253 248 0
-41 253 -248 0
-249 0
-1 -254 249 0
-1 254 -249 0
-2 -254 249 0
-2 254 -249 0
-3 -254 249 0
-3 254 -249 0
-4 -249 254 0
-4 -245 254 0
-4 -254 249 245 0
-5 -254 249 0
-5 254 -249 0
-6 -254 249 0
-6 254 -249 0
-7 -249 254 0
-7 -246 254 0
-7 -254 249 246 0
-8 -254 249 0
-8 254 -249 0
-9 -249 254 0
-9 -247 254 0
-9 -254 249 247 0
-10 -249 254 0
-10 -248 254 0
-10 -254 249 248 0
-41 -254 249 0
-41 254 -249 0
-11 -255 250 0
-11 -255 251 0
-11 255 -250 -251 0
-12 -255 250 0
-12 -255 252 0
-12 255 -250 -252 0
-13 -255 250 0
-13 -255 253 0
-13 255 -250 -253 0
-14 -255 250 0
-14 -255 254 0
-14 255 -250 -254 0
-15 -255 250 0
-15 255 -250 0
-16 -255 250 0
-16 255 -250 0
-17 -255 250 0
-17 255 -250 0
-18 -255 250 0
-18 255 -250 0
-19 -255 250 0
-19 255 -250 0
-20 -255 250 0
-20 255 -250 0
-42 -255 250 0
-42 255 -250 0
-11 -251 256 0
-11 -250 256 0
-11 -256 251 250 0
-12 -256 251 0
-12 256 -251 0
-13 -256 251 0
-13 256 -251 0
-14 -256 251 0
-14 256 -251 0
-15 -256 251 0
-15 -256 252 0
-15 256 -251 -252 0
-16 -256 251 0
-16 -256 253 0
-16 256 -251 -253 0
-17 -256 251 0
-17 -256 254 0
-17 256 -251 -254 0
-18 -256 251 0
-18 256 -251 0
-19 -256 251 0
-19 256 -251 0
-20 -256 251 0
-20 256 -251 0
-42 -256 251 0
-42 256 -251 0
-11 -257 252 0
-11 257 -252 0
-12 -252 257 0
-12 -250 257 0
-12 -257 252 250 0
-13 -257 252 0
-13 257 -252 0
-14 -257 252 0
-14 257 -252 0
-15 -252 257 0
-15 -251 257 0
-15 -257 252 251 0
-16 -257 252 0
-16 257 -252 0
-17 -257 252 0
-17 257 -252 0
-18 -257 252 0
-18 -257 253 0
-18 257 -252 -253 0
-19 -257 252 0
-19 -257 254 0
-19 257 -252 -254 0
-20 -257 252 0
-20 257 -252 0
-42 -257 252 0
-42 257 -252 0
-11 -258 253 0
-11 258 -253 0
-12 -258 253 0
-12 258 -253 0
-13 -253 258 0
-13 -250 258 0
-13 -258 253 250 0
-14 -258 253 0
-14 258 -253 0
-15 -258 253 0
-15 258 -253 0
-16 -253 258 0
-16 -251 258 0
-16 -258 253 251 0
-17 -258 253 0
-17 258 -253 0
-18 -253 258 0
-18 -252 258 0
-18 -258 253 252 0
-19 -258 253 0
-19 258 -253 0
-20 -258 253 0
-20 -258 254 0
-20 258 -253 -254 0
-42 -258 253 0
-42 258 -253 0
-11 -259 254 0
-11 259 -254 0
-12 -259 254 0
-12 259 -254 0
-13 -259 254 0
-13 259 -254 0
-14 -254 259 0
-14 -250 259 0
-14 -259 254 250 0
-15 -259 254 0
-15 259 -254 0
-16 -259 254 0
-16 259 -254 0
-17 -254 259 0
-17 -251 259 0
-17 -259 254 251 0
-18 -259 254 0
-18 259 -254 0
-19 -254 259 0
-19 -252 259 0
-19 -259 254 252 0
-20 -254 259 0
-20 -253 259 0
-20 -259 254 253 0
-42 -259 254 0
-42 259 -254 0
-21 -260 255 0
-21 -260 256 0
-21 260 -255 -256 0
-22 -260 255 0
-22 -260 257 0
-22 260 -255 -257 0
-23 -260 255 0
-23 -260 258 0
-23 260 -255 -258 0
-24 -260 255 0
-24 -260 259 0
-24 260 -255 -259 0
-25 -260 255 0
-25 260 -255 0
-26 -260 255 0
-26 260 -255 0
-27 -260 255 0
-27 260 -255 0
-28 -260 255 0
-28 260 -255 0
-29 -260 255 0
-29 260 -255 0
-30 -260 255 0
-30 260 -255 0
-43 -260 255 0
-43 260 -255 0
-21 -256 261 0
-21 -255 261 0
-21 -261 256 255 0
-22 -261 256 0
-22 261 -256 0
-23 -261 256 0
-23 261 -256 0
-24 -261 256 0
-24 261 -256 0
-25 -261 256 0
-25 -261 257 0
-25 261 -256 -257 0
-26 -261 256 0
-26 -261 258 0
-26 261 -256 -258 0
-27 -261 256 0
-27 -261 259 0
-27 261 -256 -259 0
-28 -261 256 0
-28 261 -256 0
-29 -261 256 0
-29 261 -256 0
-30 -261 256 0
-30 261 -256 0
-43 -261 256 0
-43 261 -256 0
-21 -262 257 0
-21 262 -257 0
-22 -257 262 0
-22 -255 262 0
-22 -262 257 255 0
-23 -262 257 0
-23 262 -257 0
-24 -262 257 0
-24 262 -257 0
-25 -257 262 0
-25 -256 262 0
-25 -262 257 256 0
-26 -262 257 0
-26 262 -257 0
-27 -262 257 0
-27 262 -257 0
-28 -262 257 0
-28 -262 258 0
-28 262 -257 -258 0
-29 -262 257 0
-29 -262 259 0
-29 262 -257 -259 0
-30 -262 257 0
-30 262 -257 0
-43 -262 257 0
-43 262 -257 0
-21 -263 258 0
-21 263 -258 0
-22 -263 258 0
-22 263 -258 0
-23 -258 263 0
-23 -255 263 0
-23 -263 258 255 0
-24 -263 258 0
-24 263 -258 0
-25 -263 258 0
-25 263 -258 0
-26 -258 263 0
-26 -256 263 0
-26 -263 258 256 0
-27 -263 258 0
-27 263 -258 0
-28 -258 263 0
-28 -257 263 0
-28 -263 258 257 0
-29 -263 258 0
-29 263 -258 0
-30 -263 258 0
-30 -263 259 0
-30 263 -258 -259 0
-43 -263 258 0
-43 263 -258 0
-21 -264 259 0
-21 264 -259 0
-22 -264 259 0
-22 264 -259 0
-23 -264 259 0
-23 264 -259 0
-24 -259 264 0
-24 -255 264 0
-24 -264 259 255 0
-25 -264 259 0
-25 264 -259 0
-26 -264 259 0
-26 264 -259 0
-27 -259 264 0
-27 -256 264 0
-27 -264 259 256 0
-28 -264 259 0
-28 264 -259 0
-29 -259 264 0
-29 -257 264 0
-29 -264 259 257 0
-30 -259 264 0
-30 -258 264 0
-30 -264 259 258 0
-43 -264 259 0
-43 264 -259 0
-31 -265 260 0
-31 -265 261 0
-31 265 -260 -261 0
-32 -265 260 0
-32 -265 262 0
-32 265 -260 -262 0
-33 -265 260 0
-33 -265 263 0
-33 265 -260 -263 0
-34 -265 260 0
-34 -265 264 0
-34 265 -260 -264 0
-35 -265 260 0
-35 265 -260 0
-36 -265 260 0
-36 265 -260 0
-37 -265 260 0
-37 265 -260 0
-38 -265 260 0
-38 265 -260 0
-39 -265 260 0
-39 265 -260 0
-40 -265 260 0
-40 265 -260 0
-44 -265 260 0
-44 265 -260 0
-31 -261 266 0
-31 -260 266 0
-31 -266 261 260 0
-32 -266 261 0
-32 266 -261 0
-33 -266 261 0
-33 266 -261 0
-34 -266 261 0
-34 266 -261 0
-35 -266 261 0
-35 -266 262 0
-35 266 -261 -262 0
-36 -266 261 0
-36 -266 263 0
-36 266 -261 -263 0
-37 -266 261 0
-37 -266 264 0
-37 266 -261 -264 0
-38 -266 261 0
-38 266 -261 0
-39 -266 261 0
-39 266 -261 0
-40 -266 261 0
-40 266 -261 0
-44 -266 261 0
-44 266 -261 0
-31 -267 262 0
-31 267 -262 0
-32 -262 267 0
-32 -260 267 0
-32 -267 262 260 0
-33 -267 262 0
-33 267 -262 0
-34 -267 262 0
-34 267 -262 0
-35 -262 267 0
-35 -261 267 0
-35 -267 262 261 0
-36 -267 262 0
-36 267 -262 0
-37 -267 262 0
-37 267 -262 0
-38 -267 262 0
-38 -267 263 0
-38 267 -262 -263 0
-39 -267 262 0
-39 -267 264 0
-39 267 -262 -264 0
-40 -267 262 0
-40 267 -262 0
-44 -267 262 0
-44 267 -262 0
-31 -268 263 0
-31 268 -263 0
-32 -268 263 0
-32 268 -263 0
-33 -263 268 0
-33 -260 268 0
-33 -268 263 260 0
-34 -268 263 0
-34 268 -263 0
-35 -268 263 0
-35 268 -263 0
-36 -263 268 0
-36 -261 268 0
-36 -268 263 261 0
-37 -268 263 0
-37 268 -263 0
-38 -263 268 0
-38 -262 268 0
-38 -268 263 262 0
-39 -268 263 0
-39 268 -263 0
-40 -268 263 0
-40 -268 264 0
-40 268 -263 -264 0
-44 -268 263 0
-44 268 -263 0
-31 -269 264 0
-31 269 -264 0
-32 -269 264 0
-32 269 -264 0
-33 -269 264 0
-33 269 -264 0
-34 -264 269 0
-34 -260 269 0
-34 -269 264 260 0
-35 -269 264 0
-35 269 -264 0
-36 -269 264 0
-36 269 -264 0
-37 -264 269 0
-37 -261 269 0
-37 -269 264 261 0
-38 -269 264 0
-38 269 -264 0
-39 -264 269 0
-39 -262 269 0
-39 -269 264 262 0
-40 -264 269 0
-40 -263 269 0
-40 -269 264 263 0
-44 -269 264 0
-44 269 -264 0
-270 0
-1 -275 270 0
-1 -275 271 0
-1 275 -270 -271 0
-2 -275 270 0
-2 -275 272 0
-2 275 -270 -272 0
-3 -275 270 0
-3 -275 273 0
-3 275 -270 -273 0
-4 -275 270 0
-4 -275 274 0
-4 275 -270 -274 0
-5 -275 270 0
-5 275 -270 0
-6 -275 270 0
-6 275 -270 0
-7 -275 270 0
-7 275 -270 0
-8 -275 270 0
-8 275 -270 0
-9 -275 270 0
-9 275 -270 0
-10 -275 270 0
-10 275 -270 0
-41 -275 270 0
-41 275 -270 0
271 0
-1 -271 276 0
-1 -270 276 0
-1 -276 271 270 0
-2 -276 271 0
-2 276 -271 0
-3 -276 271 0
-3 276 -271 0
-4 -276 271 0
-4 276 -271 0
-5 -276 271 0
-5 -276 272 0
-5 276 -271 -272 0
-6 -276 271 0
-6 -276 273 0
-6 276 -271 -273 0
-7 -276 271 0
-7 -276 274 0
-7 276 -271 -274 0
-8 -276 271 0
-8 276 -271 0
-9 -276 271 0
-9 276 -271 0
-10 -276 271 0
-10 276 -271 0
-41 -276 271 0
-41 276 -271 0
272 0
-1 -277 272 0
-1 277 -272 0
-2 -272 277 0
-2 -270 277 0
-2 -277 272 270 0
-3 -277 272 0
-3 277 -272 0
-4 -277 272 0
-4 277 -272 0
-5 -272 277 0
-5 -271 277 0
-5 -277 272 271 0
-6 -277 272 0
-6 277 -272 0
-7 -277 272 0
-7 277 -272 0
-8 -277 272 0
-8 -277 273 0
-8 277 -272 -273 0
-9 -277 272 0
-9 -277 274 0
-9 277 -272 -274 0
-10 -277 272 0
-10 277 -272 0
-41 -277 272 0
-41 277 -272 0
-273 0
-1 -278 273 0
-1 278 -273 0
-2 -278 273 0
-2 278 -273 0
-3 -273 278 0
-3 -270 278 0
-3 -278 273 270 0
-4 -278 273 0
-4 278 -273 0
-5 -278 273 0
-5 278 -273 0
-6 -273 278 0
-6 -271 278 0
-6 -278 273 271 0
-7 -278 273 0
-7 278 -273 0
-8 -273 278 0
-8 -272 278 0
-8 -278 273 272 0
-9 -278 273 0
-9 278 -273 0
-10 -278 273 0
-10 -278 274 0
-10 278 -273 -274 0
-41 -278 273 0
-41 278 -273 0
274 0
-1 -279 274 0
-1 279 -274 0
-2 -279 274 0
-2 279 -274 0
-3 -279 274 0
-3 279 -274 0
-4 -274 279 0
-4 -270 279 0
-4 -279 274 270 0
-5 -279 274 0
-5 279 -274 0
-6 -279 274 0
-6 279 -274 0
-7 -274 279 0
-7 -271 279 0
-7 -279 274 271 0
-8 -279 274 0
-8 279 -274 0
-9 -274 279 0
-9 -272 279 0
-9 -279 274 272 0
-10 -274 279 0
-10 -273 279 0
-10 -279 274 273 0
-41 -279 274 0
-41 279 -274 0
-11 -280 275 0
-11 -280 276 0
-11 280 -275 -276 0
-12 -280 275 0
-12 -280 277 0
-12 280 -275 -277 0
-13 -280 275 0
-13 -280 278 0
-13 280 -275 -278 0
-14 -280 275 0
-14 -280 279 0
-14 280 -275 -279 0
-15 -280 275 0
-15 280 -275 0
-16 -280 275 0
-16 280 -275 0
-17 -280 275 0
-17 280 -275 0
-18 -280 275 0
-18 280 -275 0
-19 -280 275 0
-19 280 -275 0
-20 -280 275 0
-20 280 -275 0
-42 -280 275 0
-42 280 -275 0
-11 -276 281 0
-11 -275 281 0
-11 -281 276 275 0
-12 -281 276 0
-12 281 -276 0
-13 -281 276 0
-13 281 -276 0
-14 -281 276 0
-14 281 -276 0
-15 -281 276 0
-15 -281 277 0
-15 281 -276 -277 0
-16 -281 276 0
-16 -281 278 0
-16 281 -276 -278 0
-17 -281 276 0
-17 -281 279 0
-17 281 -276 -279 0
-18 -281 276 0
-18 281 -276 0
-19 -281 276 0
-19 281 -276 0
-20 -281 276 0
-20 281 -276 0
-42 -281 276 0
-42 281 -276 0
-11 -282 277 0
-11 282 -277 0
-12 -277 282 0
-12 -275 282 0
-12 -282 277 275 0
-13 -282 277 0
-13 282 -277 0
-14 -282 277 0
-14 282 -277 0
-15 -277 282 0
-15 -276 282 0
-15 -282 277 276 0
-16 -282 277 0
-16 282 -277 0
-17 -282 277 0
-17 282 -277 0
-18 -282 277 0
-18 -282 278 0
-18 282 -277 -278 0
-19 -282 277 0
-19 -282 279 0
-19 282 -277 -279 0
-20 -282 277 0
-20 282 -277 0
-42 -282 277 0
-42 282 -277 0
-11 -283 278 0
-11 283 -278 0
-12 -283 278 0
-12 283 -278 0
-13 -278 283 0
-13 -275 283 0
-13 -283 278 275 0
-14 -283 278 0
-14 283 -278 0
-15 -283 278 0
-15 283 -278 0
-16 -278 283 0
-16 -276 283 0
-16 -283 278 276 0
-17 -283 278 0
-17 283 -278 0
-18 -278 283 0
-18 -277 283 0
-18 -283 278 277 0
-19 -283 278 0
-19 283 -278 0
-20 -283 278 0
-20 -283 279 0
-20 283 -278 -279 0
-42 -283 278 0
-42 283 -278 0
-11 -284 279 0
-11 284 -279 0
-12 -284 279 0
-12 284 -279 0
-13 -284 279 0
-13 284 -279 0
-14 -279 284 0
-14 -275 284 0
-14 -284 279 275 0
-15 -284 279 0
-15 284 -279 0
-16 -284 279 0
-16 284 -279 0
-17 -279 284 0
-17 -276 284 0
-17 -284 279 276 0
-18 -284 279 0
-18 284 -279 0
-19 -279 284 0
-19 -277 284 0
-19 -284 279 277 0
-20 -279 284 0
-20 -278 284 0
-20 -284 279 278 0
-42 -284 279 0
-42 284 -279 0
-21 -285 280 0
-21 -285 281 0
-21 285 -280 -281 0
-22 -285 280 0
-22 -285 282 0
-22 285 -280 -282 0
-23 -285 280 0
-23 -285 283 0
-23 285 -280 -283 0
-24 -285 280 0
-24 -285 284 0
-24 285 -280 -284 0
-25 -285 280 0
-25 285 -280 0
-26 -285 280 0
-26 285 -280 0
-27 -285 280 0
-27 285 -280 0
-28 -285 280 0
-28 285 -280 0
-29 -285 280 0
-29 285 -280 0
-30 -285 280 0
-30 285 -280 0
-43 -285 280 0
-43 285 -280 0
-21 -281 286 0
-21 -280 286 0
-21 -286 281 280 0
-22 -286 281 0
-22 286 -281 0
-23 -286 281 0
-23 286 -281 0
-24 -286 281 0
-24 286 -281 0
-25 -286 281 0
-25 -286 282 0
-25 286 -281 -282 0
-26 -286 281 0
-26 -286 283 0
-26 286 -281 -283 0
-27 -286 281 0
-27 -286 284 0
-27 286 -281 -284 0
-28 -286 281 0
-28 286 -281 0
-29 -286 281 0
-29 286 -281 0
-30 -286 281 0
-30 286 -281 0
-43 -286 281 0
-43 286 -281 0
-21 -287 282 0
-21 287 -282 0
-22 -282 287 0
-22 -280 287 0
-22 -287 282 280 0
-23 -287 282 0
-23 287 -282 0
-24 -287 282 0
-24 287 -282 0
-25 -282 287 0
-25 -281 287 0
-25 -287 282 281 0
-26 -287 282 0
-26 287 -282 0
-27 -287 282 0
-27 287 -282 0
-28 -287 282 0
-28 -287 283 0
-28 287 -282 -283 0
-29 -287 282 0
-29 -287 284 0
-29 287 -282 -284 0
-30 -287 282 0
-30 287 -282 0
-43 -287 282 0
-43 287 -282 0
-21 -288 283 0
-21 288 -283 0
-22 -288 283 0
-22 288 -283 0
-23 -283 288 0
-23 -280 288 0
-23 -288 283 280 0
-24 -288 283 0
-24 288 -283 0
-25 -288 283 0
-25 288 -283 0
-26 -283 288 0
-26 -281 288 0
-26 -288 283 281 0
-27 -288 283 0
-27 288 -283 0
-28 -283 288 0
-28 -282 288 0
-28 -288 283 282 0
-29 -288 283 0
-29 288 -283 0
-30 -288 283 0
-30 -288 284 0
-30 288 -283 -284 0
-43 -288 283 0
-43 288 -283 0
-21 -289 284 0
-21 289 -284 0
-22 -289 284 0
-22 289 -284 0
-23 -289 284 0
-23 289 -284 0
-24 -284 289 0
-24 -280 289 0
-24 -289 284 280 0
-25 -289 284 0
-25 289 -284 0
-26 -289 284 0
-26 289 -284 0
-27 -284 289 0
-27 -281 289 0
-27 -289 284 281 0
-28 -289 284 0
-28 289 -284 0
-29 -284 289 0
-29 -282 289 0
-29 -289 284 282 0
-30 -284 289 0
-30 -283 289 0
-30 -289 284 283 0
-43 -289 284 0
-43 289 -284 0
-31 -290 285 0
-31 -290 286 0
-31 290 -285 -286 0
-32 -290 285 0
-32 -290 287 0
-32 290 -285 -287 0
-33 -290 285 0
-33 -290 288 0
-33 290 -285 -288 0
-34 -290 285 0
-34 -290 289 0
-34 290 -285 -289 0
-35 -290 285 0
-35 290 -285 0
-36 -290 285 0
-36 290 -285 0
-37 -290 285 0
-37 290 -285 0
-38 -290 285 0
-38 290 -285 0
-39 -290 285 0
-39 290 -285 0
-40 -290 285 0
-40 290 -285 0
-44 -290 285 0
-44 290 -285 0
-31 -286 291 0
-31 -285 291 0
-31 -291 286 285 0
-32 -291 286 0
-32 291 -286 0
-33 -291 286 0
-33 291 -286 0
-34 -291 286 0
-34 291 -286 0
-35 -291 286 0
-35 -291 287 0
-35 291 -286 -287 0
-36 -291 286 0
-36 -291 288 0
-36 291 -286 -288 0
-37 -291 286 0
-37 -291 289 0
-37 291 -286 -289 0
-38 -291 286 0
-38 291 -286 0
-39 -291 286 0
-39 291 -286 0
-40 -291 286 0
-40 291 -286 0
-44 -291 286 0
-44 291 -286 0
-31 -292 287 0
-31 292 -287 0
-32 -287 292 0
-32 -285 292 0
-32 -292 287 285 0
-33 -292 287 0
-33 292 -287 0
-34 -292 287 0
-34 292 -287 0
-35 -287 292 0
-35 -286 292 0
-35 -292 287 286 0
-36 -292 287 0
-36 292 -287 0
-37 -292 287 0
-37 292 -287 0
-38 -292 287 0
-38 -292 288 0
-38 292 -287 -288 0
-39 -292 287 0
-39 -292 289 0
-39 292 -287 -289 0
-40 -292 287 0
-40 292 -287 0
-44 -292 287 0
-44 292 -287 0
-31 -293 288 0
-31 293 -288 0
-32 -293 288 0
-32 293 -288 0
-33 -288 293 0
-33 -285 293 0
-33 -293 288 285 0
-34 -293 288 0
-34 293 -288 0
-35 -293 288 0
-35 293 -288 0
-36 -288 293 0
-36 -286 293 0
-36 -293 288 286 0
-37 -293 288 0
-37 293 -288 0
-38 -288 293 0
-38 -287 293 0
-38 -293 288 287 0
-39 -293 288 0
-39 293 -288 0
-40 -293 288 0
-40 -293 289 0
-40 293 -288 -289 0
-44 -293 288 0
-44 293 -288 0
-31 -294 289 0
-31 294 -289 0
-32 -294 289 0
-32 294 -289 0
-33 -294 289 0
-33 294 -289 0
-34 -289 294 0
-34 -285 294 0
-34 -294 289 285 0
-35 -294 289 0
-35 294 -289 0
-36 -294 289 0
-36 294 -289 0
-37 -289 294 0
-37 -286 294 0
-37 -294 289 286 0
-38 -294 289 0
-38 294 -289 0
-39 -289 294 0
-39 -287 294 0
-39 -294 289 287 0
-40 -289 294 0
-40 -288 294 0
-40 -294 289 288 0
-44 -294 289 0
-44 294 -289 0
-295 0
-1 -300 295 0
-1 -300 296 0
-1 300 -295 -296 0
-2 -300 295 0
-2 -300 297 0
-2 300 -295 -297 0
-3 -300 295 0
-3 -300 298 0
-3 300 -295 -298 0
-4 -300 295 0
-4 -300 299 0
-4 300 -295 -299 0
-5 -300 295 0
-5 300 -295 0
-6 -300 295 0
-6 300 -295 0
-7 -300 295 0
-7 300 -295 0
-8 -300 295 0
-8 300 -295 0
-9 -300 295 0
-9 300 -295 0
-10 -300 295 0
-10 300 -295 0
-41 -300 295 0
-41 300 -295 0
296 0
-1 -296 301 0
-1 -295 301 0
-1 -301 296 295 0
-2 -301 296 0
-2 301 -296 0
-3 -301 296 0
-3 301 -296 0
-4 -301 296 0
-4 301 -296 0
-5 -301 296 0
-5 -301 297 0
-5 301 -296 -297 0
-6 -301 296 0
-6 -301 298 0
-6 301 -296 -298 0
-7 -301 296 0
-7 -301 299 0
-7 301 -296 -299 0
-8 -301 296 0
-8 301 -296 0
-9 -301 296 0
-9 301 -296 0
-10 -301 296 0
-10 301 -296 0
-41 -301 296 0
-41 301 -296 0
297 0
-1 -302 297 0
-1 302 -297 0
-2 -297 302 0
-2 -295 302 0
-2 -302 297 295 0
-3 -302 297 0
-3 302 -297 0
-4 -302 297 0
-4 302 -297 0
-5 -297 302 0
-5 -296 302 0
-5 -302 297 296 0
-6 -302 297 0
-6 302 -297 0
-7 -302 297 0
-7 302 -297 0
-8 -302 297 0
-8 -302 298 0
-8 302 -297 -298 0
-9 -302 297 0
-9 -302 299 0
-9 302 -297 -299 0
-10 -302 297 0
-10 302 -297 0
-41 -302 297 0
-41 302 -297 0
298 0
-1 -303 298 0
-1 303 -298 0
-2 -303 298 0
-2 303 -298 0
-3 -298 303 0
-3 -295 303 0
-3 -303 298 295 0
-4 -303 298 0
-4 303 -298 0
-5 -303 298 0
-5 303 -298 0
-6 -298 303 0
-6 -296 303 0
-6 -303 298 296 0
-7 -303 298 0
-7 303 -298 0
-8 -298 303 0
-8 -297 303 0
-8 -303 298 297 0
-9 -303 298 0
-9 303 -298 0
-10 -303 298 0
-10 -303 299 0
-10 303 -298 -299 0
-41 -303 298 0
-41 303 -298 0
-299 0
-1 -304 299 0
-1 304 -299 0
-2 -304 299 0
-2 304 -299 0
-3 -304 299 0
-3 304 -299 0
-4 -299 304 0
-4 -295 304 0
-4 -304 299 295 0
-5 -304 299 0
-5 304 -299 0
-6 -304 299 0
-6 304 -299 0
-7 -299 304 0
-7 -296 304 0
-7 -304 299 296 0
-8 -304 299 0
-8 304 -299 0
-9 -299 304 0
-9 -297 304 0
-9 -304 299 297 0
-10 -299 304 0
-10 -298 304 0
-10 -304 299 298 0
-41 -304 299 0
-41 304 -299 0
-11 -305 300 0
-11 -305 301 0
-11 305 -300 -301 0
-12 -305 300 0
-12 -305 302 0
-12 305 -300 -302 0
-13 -305 300 0
-13 -305 303 0
-13 305 -300 -303 0
-14 -305 300 0
-14 -305 304 0
-14 305 -300 -304 0
-15 -305 300 0
-15 305 -300 0
-16 -305 300 0
-16 305 -300 0
-17 -305 300 0
-17 305 -300 0
-18 -305 300 0
-18 305 -300 0
-19 -305 300 0
-19 305 -300 0
-20 -305 300 0
-20 305 -300 0
-42 -305 300 0
-42 305 -300 0
-11 -301 306 0
-11 -300 306 0
-11 -306 301 300 0
-12 -306 301 0
-12 306 -301 0
-13 -306 301 0
-13 306 -301 0
-14 -306 301 0
-14 306 -301 0
-15 -306 301 0
-15 -306 302 0
-15 306 -301 -302 0
-16 -306 301 0
-16 -306 303 0
-16 306 -301 -303 0
-17 -306 301 0
-17 -306 304 0
-17 306 -301 -304 0
-18 -306 301 0
-18 306 -301 0
-19 -306 301 0
-19 306 -301 0
-20 -306 301 0
-20 306 -301 0
-42 -306 301 0
-42 306 -301 0
-11 -307 302 0
-11 307 -302 0
-12 -302 307 0
-12 -300 307 0
-12 -307 302 300 0
-13 -307 302 0
-13 307 -302 0
-14 -307 302 0
-14 307 -302 0
-15 -302 307 0
-15 -301 307 0
-15 -307 302 301 0
-16 -307 302 0
-16 307 -302 0
-17 -307 302 0
-17 307 -302 0
-18 -307 302 0
-18 -307 303 0
-18 307 -302 -303 0
-19 -307 302 0
-19 -307 304 0
-19 307 -302 -304 0
-20 -307 302 0
-20 307 -302 0
-42 -307 302 0
-42 307 -302 0
-11 -308 303 0
-11 308 -303 0
-12 -308 303 0
-12 308 -303 0
-13 -303 308 0
-13 -300 308 0
-13 -308 303 300 0
-14 -308 303 0
-14 308 -303 0
-15 -308 303 0
-15 308 -303 0
-16 -303 308 0
-16 -301 308 0
-16 -308 303 301 0
-17 -308 303 0
-17 308 -303 0
-18 -303 308 0
-18 -302 308 0
-18 -308 303 302 0
-19 -308 303 0
-19 308 -303 0
-20 -308 303 0
-20 -308 304 0
-20 308 -303 -304 0
-42 -308 303 0
-42 308 -303 0
-11 -309 304 0
-11 309 -304 0
-12 -309 304 0
-12 309 -304 0
-13 -309 304 0
-13 309 -304 0
-14 -304 309 0
-14 -300 309 0
-14 -309 304 300 0
-15 -309 304 0
-15 309 -304 0
-16 -309 304 0
-16 309 -304 0
-17 -304 309 0
-17 -301 309 0
-17 -309 304 301 0
-18 -309 304 0
-18 309 -304 0
-19 -304 309 0
-19 -302 309 0
-19 -309 304 302 0
-20 -304 309 0
-20 -303 309 0
-20 -309 304 303 0
-42 -309 304 0
-42 309 -304 0
-21 -310 305 0
-21 -310 306 0
-21 310 -305 -306 0
-22 -310 305 0
-22 -310 307 0
-22 310 -305 -307 0
-23 -310 305 0
-23 -310 308 0
-23 310 -305 -308 0
-24 -310 305 0
-24 -310 309 0
-24 310 -305 -309 0
-25 -310 305 0
-25 310 -305 0
-26 -310 305 0
-26 310 -305 0
-27 -310 305 0
-27 310 -305 0
-28 -310 305 0
-28 310 -305 0
-29 -310 305 0
-29 310 -305 0
-30 -310 305 0
-30 310 -305 0
-43 -310 305 0
-43 310 -305 0
-21 -306 311 0
-21 -305 311 0
-21 -311 306 305 0
-22 -311 306 0
-22 311 -306 0
-23 -311 306 0
-23 311 -306 0
-24 -311 306 0
-24 311 -306 0
-25 -311 306 0
-25 -311 307 0
-25 311 -306 -307 0
-26 -311 306 0
-26 -311 308 0
-26 311 -306 -308 0
-27 -311 306 0
-27 -311 309 0
-27 311 -306 -309 0
-28 -311 306 0
-28 311 -306 0
-29 -311 306 0
-29 311 -306 0
-30 -311 306 0
-30 311 -306 0
-43 -311 306 0
-43 311 -306 0
-21 -312 307 0
-21 312 -307 0
-22 -307 312 0
-22 -305 312 0
-22 -312 307 305 0
-23 -312 307 0
-23 312 -307 0
-24 -312 307 0
-24 312 -307 0
-25 -307 312 0
-25 -306 312 0
-25 -312 307 306 0
-26 -312 307 0
-26 312 -307 0
-27 -312 307 0
-27 312 -307 0
-28 -312 307 0
-28 -312 308 0
-28 312 -307 -308 0
-29 -312 307 0
-29 -312 309 0
-29 312 -307 -309 0
-30 -312 307 0
-30 312 -307 0
-43 -312 307 0
-43 312 -307 0
-21 -313 308 0
-21 313 -308 0
-22 -313 308 0
-22 313 -308 0
-23 -308 313 0
-23 -305 313 0
-23 -313 308 305 0
-24 -313 308 0
-24 313 -308 0
-25 -313 308 0
-25 313 -308 0
-26 -308 313 0
-26 -306 313 0
-26 -313 308 306 0
-27 -313 308 0
-27 313 -308 0
-28 -308 313 0
-28 -307 313 0
-28 -313 308 307 0
-29 -313 308 0
-29 313 -308 0
-30 -313 308 0
-30 -313 309 0
-30 313 -308 -309 0
-43 -313 308 0
-43 313 -308 0
-21 -314 309 0
-21 314 -309 0
-22 -314 309 0
-22 314 -309 0
-23 -314 309 0
-23 314 -309 0
-24 -309 314 0
-24 -305 314 0
-24 -314 309 305 0
-25 -314 309 0
-25 314 -309 0
-26 -314 309 0
-26 314 -309 0
-27 -309 314 0
-27 -306 314 0
-27 -314 309 306 0
-28 -314 309 0
-28 314 -309 0
-29 -309 314 0
-29 -307 314 0
-29 -314 309 307 0
-30 -309 314 0
-30 -308 314 0
-30 -314 309 308 0
-43 -314 309 0
-43 314 -309 0
-31 -315 310 0
-31 -315 311 0
-31 315 -310 -311 0
-32 -315 310 0
-32 -315 312 0
-32 315 -310 -312 0
-33 -315 310 0
-33 -315 313 0
-33 315 -310 -313 0
-34 -315 310 0
-34 -315 314 0
-34 315 -310 -314 0
-35 -315 310 0
-35 315 -310 0
-36 -315 310 0
-36 315 -310 0
-37 -315 310 0
-37 315 -310 0
-38 -315 310 0
-38 315 -310 0
-39 -315 310 0
-39 315 -310 0
-40 -315 310 0
-40 315 -310 0
-44 -315 310 0
-44 315 -310 0
-31 -311 316 0
-31 -310 316 0
-31 -316 311 310 0
-32 -316 311 0
-32 316 -311 0
-33 -316 311 0
-33 316 -311 0
-34 -316 311 0
-34 316 -311 0
-35 -316 311 0
-35 -316 312 0
-35 316 -311 -312 0
-36 -316 311 0
-36 -316 313 0
-36 316 -311 -313 0
-37 -316 311 0
-37 -316 314 0
-37 316 -311 -314 0
-38 -316 311 0
-38 316 -311 0
-39 -316 311 0
-39 316 -311 0
-40 -316 311 0
-40 316 -311 0
-44 -316 311 0
-44 316 -311 0
-31 -317 312 0
-31 317 -312 0
-32 -312 317 0
-32 -310 317 0
-32 -317 312 310 0
-33 -317 312 0
-33 317 -312 0
-34 -317 312 0
-34 317 -312 0
-35 -312 317 0
-35 -311 317 0
-35 -317 312 311 0
-36 -317 312 0
-36 317 -312 0
-37 -317 312 0
-37 317 -312 0
-38 -317 312 0
-38 -317 313 0
-38 317 -312 -313 0
-39 -317 312 0
-39 -317 314 0
-39 317 -312 -314 0
-40 -317 312 0
-40 317 -312 0
-44 -317 312 0
-44 317 -312 0
-31 -318 313 0
-31 318 -313 0
-32 -318 313 0
-32 318 -313 0
-33 -313 318 0
-33 -310 318 0
-33 -318 313 310 0
-34 -318 313 0
-34 318 -313 0
-35 -318 313 0
-35 318 -313 0
-36 -313 318 0
-36 -311 318 0
-36 -318 313 311 0
-37 -318 313 0
-37 318 -313 0
-38 -313 318 0
-38 -312 318 0
-38 -318 313 312 0
-39 -318 313 0
-39 318 -313 0
-40 -318 313 0
-40 -318 314 0
-40 318 -313 -314 0
-44 -318 313 0
-44 318 -313 0
-31 -319 314 0
-31 319 -314 0
-32 -319 314 0
-32 319 -314 0
-33 -319 314 0
-33 319 -314 0
-34 -314 319 0
-34 -310 319 0
-34 -319 314 310 0
-35 -319 314 0
-35 319 -314 0
-36 -319 314 0
-36 319 -314 0
-37 -314 319 0
-37 -311 319 0
-37 -319 314 311 0
-38 -319 314 0
-38 319 -314 0
-39 -314 319 0
-39 -312 319 0
-39 -319 314 312 0
-40 -314 319 0
-40 -313 319 0
-40 -319 314 313 0
-44 -319 314 0
-44 319 -314 0
320 0
-1 -325 320 0
-1 -325 321 0
-1 325 -320 -321 0
-2 -325 320 0
-2 -325 322 0
-2 325 -320 -322 0
-3 -325 320 0
-3 -325 323 0
-3 325 -320 -323 0
-4 -325 320 0
-4 -325 324 0
-4 325 -320 -324 0
-5 -325 320 0
-5 325 -320 0
-6 -325 320 0
-6 325 -320 0
-7 -325 320 0
-7 325 -320 0
-8 -325 320 0
-8 325 -320 0
-9 -325 320 0
-9 325 -320 0
-10 -325 320 0
-10 325 -320 0
-41 -325 320 0
-41 325 -320 0
-321 0
-1 -321 326 0
-1 -320 326 0
-1 -326 321 320 0
-2 -326 321 0
-2 326 -321 0
-3 -326 321 0
-3 326 -321 0
-4 -326 321 0
-4 326 -321 0
-5 -326 321 0
-5 -326 322 0
-5 326 -321 -322 0
-6 -326 321 0
-6 -326 323 0
-6 326 -321 -323 0
-7 -326 321 0
-7 -326 324 0
-7 326 -321 -324 0
-8 -326 321 0
-8 326 -321 0
-9 -326 321 0
-9 326 -321 0
-10 -326 321 0
-10 326 -321 0
-41 -326 321 0
-41 326 -321 0
-322 0
-1 -327 322 0
-1 327 -322 0
-2 -322 327 0
-2 -320 327 0
-2 -327 322 320 0
-3 -327 322 0
-3 327 -322 0
-4 -327 322 0
-4 327 -322 0
-5 -322 327 0
-5 -321 327 0
-5 -327 322 321 0
-6 -327 322 0
-6 327 -322 0
-7 -327 322 0
-7 327 -322 0
-8 -327 322 0
-8 -327 323 0
-8 327 -322 -323 0
-9 -327 322 0
-9 -327 324 0
-9 327 -322 -324 0
-10 -327 322 0
-10 327 -322 0
-41 -327 322 0
-41 327 -322 0
-323 0
-1 -328 323 0
-1 328 -323 0
-2 -328 323 0
-2 328 -323 0
-3 -323 328 0
-3 -320 328 0
-3 -328 323 320 0
-4 -328 323 0
-4 328 -323 0
-5 -328 323 0
-5 328 -323 0
-6 -323 328 0
-6 -321 328 0
-6 -328 323 321 0
-7 -328 323 0
-7 328 -323 0
-8 -323 328 0
-8 -322 328 0
-8 -328 323 322 0
-9 -328 323 0
-9 328 -323 0
-10 -328 323 0
-10 -328 324 0
-10 328 -323 -324 0
-41 -328 323 0
-41 328 -323 0
-324 0
-1 -329 324 0
-1 329 -324 0
-2 -329 324 0
-2 329 -324 0
-3 -329 324 0
-3 329 -324 0
-4 -324 329 0
-4 -320 329 0
-4 -329 324 320 0
-5 -329 324 0
-5 329 -324 0
-6 -329 324 0
-6 329 -324 0
-7 -324 329 0
-7 -321 329 0
-7 -329 324 321 0
-8 -329 324 0
-8 329 -324 0
-9 -324 329 0
-9 -322 329 0
-9 -329 324 322 0
-10 -324 329 0
-10 -323 329 0
-10 -329 324 323 0
-41 -329 324 0
-41 329 -324 0
-11 -330 325 0
-11 -330 326 0
-11 330 -325 -326 0
-12 -330 325 0
-12 -330 327 0
-12 330 -325 -327 0
-13 -330 325 0
-13 -330 328 0
-13 330 -325 -328 0
-14 -330 325 0
-14 -330 329 0
-14 330 -325 -329 0
-15 -330 325 0
-15 330 -325 0
-16 -330 325 0
-16 330 -325 0
-17 -330 325 0
-17 330 -325 0
-18 -330 325 0
-18 330 -325 0
-19 -330 325 0
-19 330 -325 0
-20 -330 325 0
-20 330 -325 0
-42 -330 325 0
-42 330 -325 0
-11 -326 331 0
-11 -325 331 0
-11 -331 326 325 0
-12 -331 326 0
-12 331 -326 0
-13 -331 326 0
-13 331 -326 0
-14 -331 326 0
-14 331 -326 0
-15 -331 326 0
-15 -331 327 0
-15 331 -326 -327 0
-16 -331 326 0
-16 -331 328 0
-16 331 -326 -328 0
-17 -331 326 0
-17 -331 329 0
-17 331 -326 -329 0
-18 -331 326 0
-18 331 -326 0
-19 -331 326 0
-19 331 -326 0
-20 -331 326 0
-20 331 -326 0
-42 -331 326 0
-42 331 -326 0
-11 -332 327 0
-11 332 -327 0
-12 -327 332 0
-12 -325 332 0
-12 -332 327 325 0
-13 -332 327 0
-13 332 -327 0
-14 -332 327 0
-14 332 -327 0
-15 -327 332 0
-15 -326 332 0
-15 -332 327 326 0
-16 -332 327 0
-16 332 -327 0
-17 -332 327 0
-17 332 -327 0
-18 -332 327 0
-18 -332 328 0
-18 332 -327 -328 0
-19 -332 327 0
-19 -332 329 0
-19 332 -327 -329 0
-20 -332 327 0
-20 332 -327 0
-42 -332 327 0
-42 332 -327 0
-11 -333 328 0
-11 333 -328 0
-12 -333 328 0
-12 333 -328 0
-13 -328 333 0
-13 -325 333 0
-13 -333 328 325 0
-14 -333 328 0
-14 333 -328 0
-15 -333 328 0
-15 333 -328 0
-16 -328 333 0
-16 -326 333 0
-16 -333 328 326 0
-17 -333 328 0
-17 333 -328 0
-18 -328 333 0
-18 -327 333 0
-18 -333 328 327 0
-19 -333 328 0
-19 333 -328 0
-20 -333 328 0
-20 -333 329 0
-20 333 -328 -329 0
-42 -333 328 0
-42 333 -328 0
-11 -334 329 0
-11 334 -329 0
-12 -334 329 0
-12 334 -329 0
-13 -334 329 0
-13 334 -329 0
-14 -329 334 0
-14 -325 334 0
-14 -334 329 325 0
-15 -334 329 0
-15 334 -329 0
-16 -334 329 0
-16 334 -329 0
-17 -329 334 0
-17 -326 334 0
-17 -334 329 326 0
-18 -334 329 0
-18 334 -329 0
-19 -329 334 0
-19 -327 334 0
-19 -334 329 327 0
-20 -329 334 0
-20 -328 334 0
-20 -334 329 328 0
-42 -334 329 0
-42 334 -329 0
-21 -335 330 0
-21 -335 331 0
-21 335 -330 -331 0
-22 -335 330 0
-22 -335 332 0
-22 335 -330 -332 0
-23 -335 330 0
-23 -335 333 0
-23 335 -330 -333 0
-24 -335 330 0
-24 -335 334 0
-24 335 -330 -334 0
-25 -335 330 0
-25 335 -330 0
-26 -335 330 0
-26 335 -330 0
-27 -335 330 0
-27 335 -330 0
-28 -335 330 0
-28 335 -330 0
-29 -335 330 0
-29 335 -330 0
-30 -335 330 0
-30 335 -330 0
-43 -335 330 0
-43 335 -330 0
-21 -331 336 0
-21 -330 336 0
-21 -336 331 330 0
-22 -336 331 0
-22 336 -331 0
-23 -336 331 0
-23 336 -331 0
-24 -336 331 0
-24 336 -331 0
-25 -336 331 0
-25 -336 332 0
-25 336 -331 -332 0
-26 -336 331 0
-26 -336 333 0
-26 336 -331 -333 0
-27 -336 331 0
-27 -336 334 0
-27 336 -331 -334 0
-28 -336 331 0
-28 336 -331 0
-29 -336 331 0
-29 336 -331 0
-30 -336 331 0
-30 336 -331 0
-43 -336 331 0
-43 336 -331 0
-21 -337 332 0
-21 337 -332 0
-22 -332 337 0
-22 -330 337 0
-22 -337 332 330 0
-23 -337 332 0
-23 337 -332 0
-24 -337 332 0
-24 337 -332 0
-25 -332 337 0
-25 -331 337 0
-25 -337 332 331 0
-26 -337 332 0
-26 337 -332 0
-27 -337 332 0
-27 337 -332 0
-28 -337 332 0
-28 -337 333 0
-28 337 -332 -333 0
-29 -337 332 0
-29 -337 334 0
-29 337 -332 -334 0
-30 -337 332 0
-30 337 -332 0
-43 -337 332 0
-43 337 -332 0
-21 -338 333 0
-21 338 -333 0
-22 -338 333 0
-22 338 -333 0
-23 -333 338 0
-23 -330 338 0
-23 -338 333 330 0
-24 -338 333 0
-24 338 -333 0
-25 -338 333 0
-25 338 -333 0
-26 -333 338 0
-26 -331 338 0
-26 -338 333 331 0
-27 -338 333 0
-27 338 -333 0
-28 -333 338 0
-28 -332 338 0
-28 -338 333 332 0
-29 -338 333 0
-29 338 -333 0
-30 -338 333 0
-30 -338 334 0
-30 338 -333 -334 0
-43 -338 333 0
-43 338 -333 0
-21 -339 334 0
-21 339 -334 0
-22 -339 334 0
-22 339 -334 0
-23 -339 334 0
-23 339 -334 0
-24 -334 339 0
-24 -330 339 0
-24 -339 334 330 0
-25 -339 334 0
-25 339 -334 0
-26 -339 334 0
-26 339 -334 0
-27 -334 339 0
-27 -331 339 0
-27 -339 334 331 0
-28 -339 334 0
-28 339 -334 0
-29 -334 339 0
-29 -332 339 0
-29 -339 334 332 0
-30 -334 339 0
-30 -333 339 0
-30 -339 334 333 0
-43 -339 334 0
-43 339 -334 0
-31 -340 335 0
-31 -340 336 0
-31 340 -335 -336 0
-32 -340 335 0
-32 -340 337 0
-32 340 -335 -337 0
-33 -340 335 0
-33 -340 338 0
-33 340 -335 -338 0
-34 -340 335 0
-34 -340 339 0
-34 340 -335 -339 0
-35 -340 335 0
-35 340 -335 0
-36 -340 335 0
-36 340 -335 0
-37 -340 335 0
-37 340 -335 0
-38 -340 335 0
-38 340 -335 0
-39 -340 335 0
-39 340 -335 0
-40 -340 335 0
-40 340 -335 0
-44 -340 335 0
-44 340 -335 0
-31 -336 341 0
-31 -335 341 0
-31 -341 336 335 0
-32 -341 336 0
-32 341 -336 0
-33 -341 336 0
-33 341 -336 0
-34 -341 336 0
-34 341 -336 0
-35 -341 336 0
-35 -341 337 0
-35 341 -336 -337 0
-36 -341 336 0
-36 -341 338 0
-36 341 -336 -338 0
-37 -341 336 0
-37 -341 339 0
-37 341 -336 -339 0
-38 -341 336 0
-38 341 -336 0
-39 -341 336 0
-39 341 -336 0
-40 -341 336 0
-40 341 -336 0
-44 -341 336 0
-44 341 -336 0
-31 -342 337 0
-31 342 -337 0
-32 -337 342 0
-32 -335 342 0
-32 -342 337 335 0
-33 -342 337 0
-33 342 -337 0
-34 -342 337 0
-34 342 -337 0
-35 -337 342 0
-35 -336 342 0
-35 -342 337 336 0
-36 -342 337 0
-36 342 -337 0
-37 -342 337 0
-37 342 -337 0
-38 -342 337 0
-38 -342 338 0
-38 342 -337 -338 0
-39 -342 337 0
-39 -342 339 0
-39 342 -337 -339 0
-40 -342 337 0
-40 342 -337 0
-44 -342 337 0
-44 342 -337 0
-31 -343 338 0
-31 343 -338 0
-32 -343 338 0
-32 343 -338 0
-33 -338 343 0
-33 -335 343 0
-33 -343 338 335 0
-34 -343 338 0
-34 343 -338 0
-35 -343 338 0
-35 343 -338 0
-36 -338 343 0
-36 -336 343 0
-36 -343 338 336 0
-37 -343 338 0
-37 343 -338 0
-38 -338 343 0
-38 -337 343 0
-38 -343 338 337 0
-39 -343 338 0
-39 343 -338 0
-40 -343 338 0
-40 -343 339 0
-40 343 -338 -339 0
-44 -343 338 0
-44 343 -338 0
-31 -344 339 0
-31 344 -339 0
-32 -344 339 0
-32 344 -339 0
-33 -344 339 0
-33 344 -339 0
-34 -339 344 0
-34 -335 344 0
-34 -344 339 335 0
-35 -344 339 0
-35 344 -339 0
-36 -344 339 0
-36 344 -339 0
-37 -339 344 0
-37 -336 344 0
-37 -344 339 336 0
-38 -344 339 0
-38 344 -339 0
-39 -339 344 0
-39 -337 344 0
-39 -344 339 337 0
-40 -339 344 0
-40 -338 344 0
-40 -344 339 338 0
-44 -344 339 0
-44 344 -339 0
345 0
-1 -350 345 0
-1 -350 346 0
-1 350 -345 -346 0
-2 -350 345 0
-2 -350 347 0
-2 350 -345 -347 0
-3 -350 345 0
-3 -350 348 0
-3 350 -345 -348 0
-4 -350 345 0
-4 -350 349 0
-4 350 -345 -349 0
-5 -350 345 0
-5 350 -345 0
-6 -350 345 0
-6 350 -345 0
-7 -350 345 0
-7 350 -345 0
-8 -350 345 0
-8 350 -345 0
-9 -350 345 0
-9 350 -345 0
-10 -350 345 0
-10 350 -345 0
-41 -350 345 0
-41 350 -345 0
-346 0
-1 -346 351 0
-1 -345 351 0
-1 -351 346 345 0
-2 -351 346 0
-2 351 -346 0
-3 -351 346 0
-3 351 -346 0
-4 -351 346 0
-4 351 -346 0
-5 -351 346 0
-5 -351 347 0
-5 351 -346 -347 0
-6 -351 346 0
-6 -351 348 0
-6 351 -346 -348 0
-7 -351 346 0
-7 -351 349 0
-7 351 -346 -349 0
-8 -351 346 0
-8 351 -346 0
-9 -351 346 0
-9 351 -346 0
-10 -351 346 0
-10 351 -346 0
-41 -351 346 0
-41 351 -346 0
-347 0
-1 -352 347 0
-1 352 -347 0
-2 -347 352 0
-2 -345 352 0
-2 -352 347 345 0
-3 -352 347 0
-3 352 -347 0
-4 -352 347 0
-4 352 -347 0
-5 -347 352 0
-5 -346 352 0
-5 -352 347 346 0
-6 -352 347 0
-6 352 -347 0
-7 -352 347 0
-7 352 -347 0
-8 -352 347 0
-8 -352 348 0
-8 352 -347 -348 0
-9 -352 347 0
-9 -352 349 0
-9 352 -347 -349 0
-10 -352 347 0
-10 352 -347 0
-41 -352 347 0
-41 352 -347 0
-348 0
-1 -353 348 0
-1 353 -348 0
-2 -353 348 0
-2 353 -348 0
-3 -348 353 0
-3 -345 353 0
-3 -353 348 345 0
-4 -353 348 0
-4 353 -348 0
-5 -353 348 0
-5 353 -348 0
-6 -348 353 0
-6 -346 353 0
-6 -353 348 346 0
-7 -353 348 0
-7 353 -348 0
-8 -348 353 0
-8 -347 353 0
-8 -353 348 347 0
-9 -353 348 0
-9 353 -348 0
-10 -353 348 0
-10 -353 349 0
-10 353 -348 -349 0
-41 -353 348 0
-41 353 -348 0
349 0
-1 -354 349 0
-1 354 -349 0
-2 -354 349 0
-2 354 -349 0
-3 -354 349 0
-3 354 -349 0
-4 -349 354 0
-4 -345 354 0
-4 -354 349 345 0
-5 -354 349 0
-5 354 -349 0
-6 -354 349 0
-6 354 -349 0
-7 -349 354 0
-7 -346 354 0
-7 -354 349 346 0
-8 -354 349 0
-8 354 -349 0
-9 -349 354 0
-9 -347 354 0
-9 -354 349 347 0
-10 -349 354 0
-10 -348 354 0
-10 -354 349 348 0
-41 -354 349 0
-41 354 -349 0
-11 -355 350 0
-11 -355 351 0
-11 355 -350 -351 0
-12 -355 350 0
-12 -355 352 0
-12 355 -350 -352 0
-13 -355 350 0
-13 -355 353 0
-13 355 -350 -353 0
-14 -355 350 0
-14 -355 354 0
-14 355 -350 -354 0
-15 -355 350 0
-15 355 -350 0
-16 -355 350 0
-16 355 -350 0
-17 -355 350 0
-17 355 -350 0
-18 -355 350 0
-18 355 -350 0
-19 -355 350 0
-19 355 -350 0
-20 -355 350 0
-20 355 -350 0
-42 -355 350 0
-42 355 -350 0
-11 -351 356 0
-11 -350 356 0
-11 -356 351 350 0
-12 -356 351 0
-12 356 -351 0
-13 -356 351 0
-13 356 -351 0
-14 -356 351 0
-14 356 -351 0
-15 -356 351 0
-15 -356 352 0
-15 356 -351 -352 0
-16 -356 351 0
-16 -356 353 0
-16 356 -351 -353 0
-17 -356 351 0
-17 -356 354 0
-17 356 -351 -354 0
-18 -356 351 0
-18 356 -351 0
-19 -356 351 0
-19 356 -351 0
-20 -356 351 0
-20 356 -351 0
-42 -356 351 0
-42 356 -351 0
-11 -357 352 0
-11 357 -352 0
-12 -352 357 0
-12 -350 357 0
-12 -357 352 350 0
-13 -357 352 0
-13 357 -352 0
-14 -357 352 0
-14 357 -352 0
-15 -352 357 0
-15 -351 357 0
-15 -357 352 351 0
-16 -357 352 0
-16 357 -352 0
-17 -357 352 0
-17 357 -352 0
-18 -357 352 0
-18 -357 353 0
-18 357 -352 -353 0
-19 -357 352 0
-19 -357 354 0
-19 357 -352 -354 0
-20 -357 352 0
-20 357 -352 0
-42 -357 352 0
-42 357 -352 0
-11 -358 353 0
-11 358 -353 0
-12 -358 353 0
-12 358 -353 0
-13 -353 358 0
-13 -350 358 0
-13 -358 353 350 0
-14 -358 353 0
-14 358 -353 0
-15 -358 353 0
-15 358 -353 0
-16 -353 358 0
-16 -351 358 0
-16 -358 353 351 0
-17 -358 353 0
-17 358 -353 0
-18 -353 358 0
-18 -352 358 0
-18 -358 353 352 0
-19 -358 353 0
-19 358 -353 0
-20 -358 353 0
-20 -358 354 0
-20 358 -353 -354 0
-42 -358 353 0
-42 358 -353 0
-11 -359 354 0
-11 359 -354 0
-12 -359 354 0
-12 359 -354 0
-13 -359 354 0
-13 359 -354 0
-14 -354 359 0
-14 -350 359 0
-14 -359 354 350 0
-15 -359 354 0
-15 359 -354 0
-16 -359 354 0
-16 359 -354 0
-17 -354 359 0
-17 -351 359 0
-17 -359 354 351 0
-18 -359 354 0
-18 359 -354 0
-19 -354 359 0
-19 -352 359 0
-19 -359 354 352 0
-20 -354 359 0
-20 -353 359 0
-20 -359 354 353 0
-42 -359 354 0
-42 359 -354 0
-21 -360 355 0
-21 -360 356 0
-21 360 -355 -356 0
-22 -360 355 0
-22 -360 357 0
-22 360 -355 -357 0
-23 -360 355 0
-23 -360 358 0
-23 360 -355 -358 0
-24 -360 355 0
-24 -360 359 0
-24 360 -355 -359 0
-25 -360 355 0
-25 360 -355 0
-26 -360 355 0
-26 360 -355 0
-27 -360 355 0
-27 360 -355 0
-28 -360 355 0
-28 360 -355 0
-29 -360 355 0
-29 360 -355 0
-30 -360 355 0
-30 360 -355 0
-43 -360 355 0
-43 360 -355 0
-21 -356 361 0
-21 -355 361 0
-21 -361 356 355 0
-22 -361 356 0
-22 361 -356 0
-23 -361 356 0
-23 361 -356 0
-24 -361 356 0
-24 361 -356 0
-25 -361 356 0
-25 -361 357 0
-25 361 -356 -357 0
-26 -361 356 0
-26 -361 358 0
-26 361 -356 -358 0
-27 -361 356 0
-27 -361 359 0
-27 361 -356 -359 0
-28 -361 356 0
-28 361 -356 0
-29 -361 356 0
-29 361 -356 0
-30 -361 356 0
-30 361 -356 0
-43 -361 356 0
-43 361 -356 0
-21 -362 357 0
-21 362 -357 0
-22 -357 362 0
-22 -355 362 0
-22 -362 357 355 0
-23 -362 357 0
-23 362 -357 0
-24 -362 357 0
-24 362 -357 0
-25 -357 362 0
-25 -356 362 0
-25 -362 357 356 0
-26 -362 357 0
-26 362 -357 0
-27 -362 357 0
-27 362 -357 0
-28 -362 357 0
-28 -362 358 0
-28 362 -357 -358 0
-29 -362 357 0
-29 -362 359 0
-29 362 -357 -359 0
-30 -362 357 0
-30 362 -357 0
-43 -362 357 0
-43 362 -357 0
-21 -363 358 0
-21 363 -358 0
-22 -363 358 0
-22 363 -358 0
-23 -358 363 0
-23 -355 363 0
-23 -363 358 355 0
-24 -363 358 0
-24 363 -358 0
-25 -363 358 0
-25 363 -358 0
-26 -358 363 0
-26 -356 363 0
-26 -363 358 356 0
-27 -363 358 0
-27 363 -358 0
-28 -358 363 0
-28 -357 363 0
-28 -363 358 357 0
-29 -363 358 0
-29 363 -358 0
-30 -363 358 0
-30 -363 359 0
-30 363 -358 -359 0
-43 -363 358 0
-43 363 -358 0
-21 -364 359 0
-21 364 -359 0
-22 -364 359 0
-22 364 -359 0
-23 -364 359 0
-23 364 -359 0
-24 -359 364 0
-24 -355 364 0
-24 -364 359 355 0
-25 -364 359 0
-25 364 -359 0
-26 -364 359 0
-26 364 -359 0
-27 -359 364 0
-27 -356 364 0
-27 -364 359 356 0
-28 -364 359 0
-28 364 -359 0
-29 -359 364 0
-29 -357 364 0
-29 -364 359 357 0
-30 -359 364 0
-30 -358 364 0
-30 -364 359 358 0
-43 -364 359 0
-43 364 -359 0
-31 -365 360 0
-31 -365 361 0
-31 365 -360 -361 0
-32 -365 360 0
-32 -365 362 0
-32 365 -360 -362 0
-33 -365 360 0
-33 -365 363 0
-33 365 -360 -363 0
-34 -365 360 0
-34 -365 364 0
-34 365 -360 -364 0
-35 -365 360 0
-35 365 -360 0
-36 -365 360 0
-36 365 -360 0
-37 -365 360 0
-37 365 -360 0
-38 -365 360 0
-38 365 -360 0
-39 -365 360 0
-39 365 -360 0
-40 -365 360 0
-40 365 -360 0
-44 -365 360 0
-44 365 -360 0
-31 -361 366 0
-31 -360 366 0
-31 -366 361 360 0
-32 -366 361 0
-32 366 -361 0
-33 -366 361 0
-33 366 -361 0
-34 -366 361 0
-34 366 -361 0
-35 -366 361 0
-35 -366 362 0
-35 366 -361 -362 0
-36 -366 361 0
-36 -366 363 0
-36 366 -361 -363 0
-37 -366 361 0
-37 -366 364 0
-37 366 -361 -364 0
-38 -366 361 0
-38 366 -361 0
-39 -366 361 0
-39 366 -361 0
-40 -366 361 0
-40 366 -361 0
-44 -366 361 0
-44 366 -361 0
-31 -367 362 0
-31 367 -362 0
-32 -362 367 0
-32 -360 367 0
-32 -367 362 360 0
-33 -367 362 0
-33 367 -362 0
-34 -367 362 0
-34 367 -362 0
-35 -362 367 0
-35 -361 367 0
-35 -367 362 361 0
-36 -367 362 0
-36 367 -362 0
-37 -367 362 0
-37 367 -362 0
-38 -367 362 0
-38 -367 363 0
-38 367 -362 -363 0
-39 -367 362 0
-39 -367 364 0
-39 367 -362 -364 0
-40 -367 362 0
-40 367 -362 0
-44 -367 362 0
-44 367 -362 0
-31 -368 363 0
-31 368 -363 0
-32 -368 363 0
-32 368 -363 0
-33 -363 368 0
-33 -360 368 0
-33 -368 363 360 0
-34 -368 363 0
-34 368 -363 0
-35 -368 363 0
-35 368 -363 0
-36 -363 368 0
-36 -361 368 0
-36 -368 363 361 0
-37 -368 363 0
-37 368 -363 0
-38 -363 368 0
-38 -362 368 0
-38 -368 363 362 0
-39 -368 363 0
-39 368 -363 0
-40 -368 363 0
-40 -368 364 0
-40 368 -363 -364 0
-44 -368 363 0
-44 368 -363 0
-31 -369 364 0
-31 369 -364 0
-32 -369 364 0
-32 369 -364 0
-33 -369 364 0
-33 369 -364 0
-34 -364 369 0
-34 -360 369 0
-34 -369 364 360 0
-35 -369 364 0
-35 369 -364 0
-36 -369 364 0
-36 369 -364 0
-37 -364 369 0
-37 -361 369 0
-37 -369 364 361 0
-38 -369 364 0
-38 369 -364 0
-39 -364 369 0
-39 -362 369 0
-39 -369 364 362 0
-40 -364 369 0
-40 -363 369 0
-40 -369 364 363 0
-44 -369 364 0
-44 369 -364 0
370 0
-1 -375 370 0
-1 -375 371 0
-1 375 -370 -371 0
-2 -375 370 0
-2 -375 372 0
-2 375 -370 -372 0
-3 -375 370 0
-3 -375 373 0
-3 375 -370 -373 0
-4 -375 370 0
-4 -375 374 0
-4 375 -370 -374 0
-5 -375 370 0
-5 375 -370 0
-6 -375 370 0
-6 375 -370 0
-7 -375 370 0
-7 375 -370 0
-8 -375 370 0
-8 375 -370 0
-9 -375 370 0
-9 375 -370 0
-10 -375 370 0
-10 375 -370 0
-41 -375 370 0
-41 375 -370 0
-371 0
-1 -371 376 0
-1 -370 376 0
-1 -376 371 370 0
-2 -376 371 0
-2 376 -371 0
-3 -376 371 0
-3 376 -371 0
-4 -376 371 0
-4 376 -371 0
-5 -376 371 0
-5 -376 372 0
-5 376 -371 -372 0
-6 -376 371 0
-6 -376 373 0
-6 376 -371 -373 0
-7 -376 371 0
-7 -376 374 0
-7 376 -371 -374 0
-8 -376 371 0
-8 376 -371 0
-9 -376 371 0
-9 376 -371 0
-10 -376 371 0
-10 376 -371 0
-41 -376 371 0
-41 376 -371 0
-372 0
-1 -377 372 0
-1 377 -372 0
-2 -372 377 0
-2 -370 377 0
-2 -377 372 370 0
-3 -377 372 0
-3 377 -372 0
-4 -377 372 0
-4 377 -372 0
-5 -372 377 0
-5 -371 377 0
-5 -377 372 371 0
-6 -377 372 0
-6 377 -372 0
-7 -377 372 0
-7 377 -372 0
-8 -377 372 0
-8 -377 373 0
-8 377 -372 -373 0
-9 -377 372 0
-9 -377 374 0
-9 377 -372 -374 0
-10 -377 372 0
-10 377 -372 0
-41 -377 372 0
-41 377 -372 0
373 0
-1 -378 373 0
-1 378 -373 0
-2 -378 373 0
-2 378 -373 0
-3 -373 378 0
-3 -370 378 0
-3 -378 373 370 0
-4 -378 373 0
-4 378 -373 0
-5 -378 373 0
-5 378 -373 0
-6 -373 378 0
-6 -371 378 0
-6 -378 373 371 0
-7 -378 373 0
-7 378 -373 0
-8 -373 378 0
-8 -372 378 0
-8 -378 373 372 0
-9 -378 373 0
-9 378 -373 0
-10 -378 373 0
-10 -378 374 0
-10 378 -373 -374 0
-41 -378 373 0
-41 378 -373 0
-374 0
-1 -379 374 0
-1 379 -374 0
-2 -379 374 0
-2 379 -374 0
-3 -379 374 0
-3 379 -374 0
-4 -374 379 0
-4 -370 379 0
-4 -379 374 370 0
-5 -379 374 0
-5 379 -374 0
-6 -379 374 0
-6 379 -374 0
-7 -374 379 0
-7 -371 379 0
-7 -379 374 371 0
-8 -379 374 0
-8 379 -374 0
-9 -374 379 0
-9 -372 379 0
-9 -379 374 372 0
-10 -374 379 0
-10 -373 379 0
-10 -379 374 373 0
-41 -379 374 0
-41 379 -374 0
-11 -380 375 0
-11 -380 376 0
-11 380 -375 -376 0
-12 -380 375 0
-12 -380 377 0
-12 380 -375 -377 0
-13 -380 375 0
-13 -380 378 0
-13 380 -375 -378 0
-14 -380 375 0
-14 -380 379 0
-14 380 -375 -379 0
-15 -380 375 0
-15 380 -375 0
-16 -380 375 0
-16 380 -375 0
-17 -380 375 0
-17 380 -375 0
-18 -380 375 0
-18 380 -375 0
-19 -380 375 0
-19 380 -375 0
-20 -380 375 0
-20 380 -375 0
-42 -380 375 0
-42 380 -375 0
-11 -376 381 0
-11 -375 381 0
-11 -381 376 375 0
-12 -381 376 0
-12 381 -376 0
-13 -381 376 0
-13 381 -376 0
-14 -381 376 0
-14 381 -376 0
-15 -381 376 0
-15 -381 377 0
-15 381 -376 -377 0
-16 -381 376 0
-16 -381 378 0
-16 381 -376 -378 0
-17 -381 376 0
-17 -381 379 0
-17 381 -376 -379 0
-18 -381 376 0
-18 381 -376 0
-19 -381 376 0
-19 381 -376 0
-20 -381 376 0
-20 381 -376 0
-42 -381 376 0
-42 381 -376 0
-11 -382 377 0
-11 382 -377 0
-12 -377 382 0
-12 -375 382 0
-12 -382 377 375 0
-13 -382 377 0
-13 382 -377 0
-14 -382 377 0
-14 382 -377 0
-15 -377 382 0
-15 -376 382 0
-15 -382 377 376 0
-16 -382 377 0
-16 382 -377 0
-17 -382 377 0
-17 382 -377 0
-18 -382 377 0
-18 -382 378 0
-18 382 -377 -378 0
-19 -382 377 0
-19 -382 379 0
-19 382 -377 -379 0
-20 -382 377 0
-20 382 -377 0
-42 -382 377 0
-42 382 -377 0
-11 -383 378 0
-11 383 -378 0
-12 -383 378 0
-12 383 -378 0
-13 -378 383 0
-13 -375 383 0
-13 -383 378 375 0
-14 -383 378 0
-14 383 -378 0
-15 -383 378 0
-15 383 -378 0
-16 -378 383 0
-16 -376 383 0
-16 -383 378 376 0
-17 -383 378 0
-17 383 -378 0
-18 -378 383 0
-18 -377 383 0
-18 -383 378 377 0
-19 -383 378 0
-19 383 -378 0
-20 -383 378 0
-20 -383 379 0
-20 383 -378 -379 0
-42 -383 378 0
-42 383 -378 0
-11 -384 379 0
-11 384 -379 0
-12 -384 379 0
-12 384 -379 0
-13 -384 379 0
-13 384 -379 0
-14 -379 384 0
-14 -375 384 0
-14 -384 379 375 0
-15 -384 379 0
-15 384 -379 0
-16 -384 379 0
-16 384 -379 0
-17 -379 384 0
-17 -376 384 0
-17 -384 379 376 0
-18 -384 379 0
-18 384 -379 0
-19 -379 384 0
-19 -377 384 0
-19 -384 379 377 0
-20 -379 384 0
-20 -378 384 0
-20 -384 379 378 0
-42 -384 379 0
-42 384 -379 0
-21 -385 380 0
-21 -385 381 0
-21 385 -380 -381 0
-22 -385 380 0
-22 -385 382 0
-22 385 -380 -382 0
-23 -385 380 0
-23 -385 383 0
-23 385 -380 -383 0
-24 -385 380 0
-24 -385 384 0
-24 385 -380 -384 0
-25 -385 380 0
-25 385 -380 0
-26 -385 380 0
-26 385 -380 0
-27 -385 380 0
-27 385 -380 0
-28 -385 380 0
-28 385 -380 0
-29 -385 380 0
-29 385 -380 0
-30 -385 380 0
-30 385 -380 0
-43 -385 380 0
-43 385 -380 0
-21 -381 386 0
-21 -380 386 0
-21 -386 381 380 0
-22 -386 381 0
-22 386 -381 0
-23 -386 381 0
-23 386 -381 0
-24 -386 381 0
-24 386 -381 0
-25 -386 381 0
-25 -386 382 0
-25 386 -381 -382 0
-26 -386 381 0
-26 -386 383 0
-26 386 -381 -383 0
-27 -386 381 0
-27 -386 384 0
-27 386 -381 -384 0
-28 -386 381 0
-28 386 -381 0
-29 -386 381 0
-29 386 -381 0
-30 -386 381 0
-30 386 -381 0
-43 -386 381 0
-43 386 -381 0
-21 -387 382 0
-21 387 -382 0
-22 -382 387 0
-22 -380 387 0
-22 -387 382 380 0
-23 -387 382 0
-23 387 -382 0
-24 -387 382 0
-24 387 -382 0
-25 -382 387 0
-25 -381 387 0
-25 -387 382 381 0
-26 -387 382 0
-26 387 -382 0
-27 -387 382 0
-27 387 -382 0
-28 -387 382 0
-28 -387 383 0
-28 387 -382 -383 0
-29 -387 382 0
-29 -387 384 0
-29 387 -382 -384 0
-30 -387 382 0
-30 387 -382 0
-43 -387 382 0
-43 387 -382 0
-21 -388 383 0
-21 388 -383 0
-22 -388 383 0
-22 388 -383 0
-23 -383 388 0
-23 -380 388 0
-23 -388 383 380 0
-24 -388 383 0
-24 388 -383 0
-25 -388 383 0
-25 388 -383 0
-26 -383 388 0
-26 -381 388 0
-26 -388 383 381 0
-27 -388 383 0
-27 388 -383 0
-28 -383 388 0
-28 -382 388 0
-28 -388 383 382 0
-29 -388 383 0
-29 388 -383 0
-30 -388 383 0
-30 -388 384 0
-30 388 -383 -384 0
-43 -388 383 0
-43 388 -383 0
-21 -389 384 0
-21 389 -384 0
-22 -389 384 0
-22 389 -384 0
-23 -389 384 0
-23 389 -384 0
-24 -384 389 0
-24 -380 389 0
-24 -389 384 380 0
-25 -389 384 0
-25 389 -384 0
-26 -389 384 0
-26 389 -384 0
-27 -384 389 0
-27 -381 389 0
-27 -389 384 381 0
-28 -389 384 0
-28 389 -384 0
-29 -384 389 0
-29 -382 389 0
-29 -389 384 382 0
-30 -384 389 0
-30 -383 389 0
-30 -389 384 383 0
-43 -389 384 0
-43 389 -384 0
-31 -390 385 0
-31 -390 386 0
-31 390 -385 -386 0
-32 -390 385 0
-32 -390 387 0
-32 390 -385 -387 0
-33 -390 385 0
-33 -390 388 0
-33 390 -385 -388 0
-34 -390 385 0
-34 -390 389 0
-34 390 -385 -389 0
-35 -390 385 0
-35 390 -385 0
-36 -390 385 0
-36 390 -385 0
-37 -390 385 0
-37 390 -385 0
-38 -390 385 0
-38 390 -385 0
-39 -390 385 0
-39 390 -385 0
-40 -390 385 0
-40 390 -385 0
-44 -390 385 0
-44 390 -385 0
-31 -386 391 0
-31 -385 391 0
-31 -391 386 385 0
-32 -391 386 0
-32 391 -386 0
-33 -391 386 0
-33 391 -386 0
-34 -391 386 0
-34 391 -386 0
-35 -391 386 0
-35 -391 387 0
-35 391 -386 -387 0
-36 -391 386 0
-36 -391 388 0
-36 391 -386 -388 0
-37 -391 386 0
-37 -391 389 0
-37 391 -386 -389 0
-38 -391 386 0
-38 391 -386 0
-39 -391 386 0
-39 391 -386 0
-40 -391 386 0
-40 391 -386 0
-44 -391 386 0
-44 391 -386 0
-31 -392 387 0
-31 392 -387 0
-32 -387 392 0
-32 -385 392 0
-32 -392 387 385 0
-33 -392 387 0
-33 392 -387 0
-34 -392 387 0
-34 392 -387 0
-35 -387 392 0
-35 -386 392 0
-35 -392 387 386 0
-36 -392 387 0
-36 392 -387 0
-37 -392 387 0
-37 392 -387 0
-38 -392 387 0
-38 -392 388 0
-38 392 -387 -388 0
-39 -392 387 0
-39 -392 389 0
-39 392 -387 -389 0
-40 -392 387 0
-40 392 -387 0
-44 -392 387 0
-44 392 -387 0
-31 -393 388 0
-31 393 -388 0
-32 -393 388 0
-32 393 -388 0
-33 -388 393 0
-33 -385 393 0
-33 -393 388 385 0
-34 -393 388 0
-34 393 -388 0
-35 -393 388 0
-35 393 -388 0
-36 -388 393 0
-36 -386 393 0
-36 -393 388 386 0
-37 -393 388 0
-37 393 -388 0
-38 -388 393 0
-38 -387 393 0
-38 -393 388 387 0
-39 -393 388 0
-39 393 -388 0
-40 -393 388 0
-40 -393 389 0
-40 393 -388 -389 0
-44 -393 388 0
-44 393 -388 0
-31 -394 389 0
-31 394 -389 0
-32 -394 389 0
-32 394 -389 0
-33 -394 389 0
-33 394 -389 0
-34 -389 394 0
-34 -385 394 0
-34 -394 389 385 0
-35 -394 389 0
-35 394 -389 0
-36 -394 389 0
-36 394 -389 0
-37 -389 394 0
-37 -386 394 0
-37 -394 389 386 0
-38 -394 389 0
-38 394 -389 0
-39 -389 394 0
-39 -387 394 0
-39 -394 389 387 0
-40 -389 394 0
-40 -388 394 0
-40 -394 389 388 0
-44 -394 389 0
-44 394 -389 0
395 0
-1 -400 395 0
-1 -400 396 0
-1 400 -395 -396 0
-2 -400 395 0
-2 -400 397 0
-2 400 -395 -397 0
-3 -400 395 0
-3 -400 398 0
-3 400 -395 -398 0
-4 -400 395 0
-4 -400 399 0
-4 400 -395 -399 0
-5 -400 395 0
-5 400 -395 0
-6 -400 395 0
-6 400 -395 0
-7 -400 395 0
-7 400 -395 0
-8 -400 395 0
-8 400 -395 0
-9 -400 395 0
-9 400 -395 0
-10 -400 395 0
-10 400 -395 0
-41 -400 395 0
-41 400 -395 0
-396 0
-1 -396 401 0
-1 -395 401 0
-1 -401 396 395 0
-2 -401 396 0
-2 401 -396 0
-3 -401 396 0
-3 401 -396 0
-4 -401 396 0
-4 401 -396 0
-5 -401 396 0
-5 -401 397 0
-5 401 -396 -397 0
-6 -401 396 0
-6 -401 398 0
-6 401 -396 -398 0
-7 -401 396 0
-7 -401 399 0
-7 401 -396 -399 0
-8 -401 396 0
-8 401 -396 0
-9 -401 396 0
-9 401 -396 0
-10 -401 396 0
-10 401 -396 0
-41 -401 396 0
-41 401 -396 0
-397 0
-1 -402 397 0
-1 402 -397 0
-2 -397 402 0
-2 -395 402 0
-2 -402 397 395 0
-3 -402 397 0
-3 402 -397 0
-4 -402 397 0
-4 402 -397 0
-5 -397 402 0
-5 -396 402 0
-5 -402 397 396 0
-6 -402 397 0
-6 402 -397 0
-7 -402 397 0
-7 402 -397 0
-8 -402 397 0
-8 -402 398 0
-8 402 -397 -398 0
-9 -402 397 0
-9 -402 399 0
-9 402 -397 -399 0
-10 -402 397 0
-10 402 -397 0
-41 -402 397 0
-41 402 -397 0
398 0
-1 -403 398 0
-1 403 -398 0
-2 -403 398 0
-2 403 -398 0
-3 -398 403 0
-3 -395 403 0
-3 -403 398 395 0
-4 -403 398 0
-4 403 -398 0
-5 -403 398 0
-5 403 -398 0
-6 -398 403 0
-6 -396 403 0
-6 -403 398 396 0
-7 -403 398 0
-7 403 -398 0
-8 -398 403 0
-8 -397 403 0
-8 -403 398 397 0
-9 -403 398 0
-9 403 -398 0
-10 -403 398 0
-10 -403 399 0
-10 403 -398 -399 0
-41 -403 398 0
-41 403 -398 0
399 0
-1 -404 399 0
-1 404 -399 0
-2 -404 399 0
-2 404 -399 0
-3 -404 399 0
-3 404 -399 0
-4 -399 404 0
-4 -395 404 0
-4 -404 399 395 0
-5 -404 399 0
-5 404 -399 0
-6 -404 399 0
-6 404 -399 0
-7 -399 404 0
-7 -396 404 0
-7 -404 399 396 0
-8 -404 399 0
-8 404 -399 0
-9 -399 404 0
-9 -397 404 0
-9 -404 399 397 0
-10 -399 404 0
-10 -398 404 0
-10 -404 399 398 0
-41 -404 399 0
-41 404 -399 0
-11 -405 400 0
-11 -405 401 0
-11 405 -400 -401 0
-12 -405 400 0
-12 -405 402 0
-12 405 -400 -402 0
-13 -405 400 0
-13 -405 403 0
-13 405 -400 -403 0
-14 -405 400 0
-14 -405 404 0
-14 405 -400 -404 0
-15 -405 400 0
-15 405 -400 0
-16 -405 400 0
-16 405 -400 0
-17 -405 400 0
-17 405 -400 0
-18 -405 400 0
-18 405 -400 0
-19 -405 400 0
-19 405 -400 0
-20 -405 400 0
-20 405 -400 0
-42 -405 400 0
-42 405 -400 0
-11 -401 406 0
-11 -400 406 0
-11 -406 401 400 0
-12 -406 401 0
-12 406 -401 0
-13 -406 401 0
-13 406 -401 0
-14 -406 401 0
-14 406 -401 0
-15 -406 401 0
-15 -406 402 0
-15 406 -401 -402 0
-16 -406 401 0
-16 -406 403 0
-16 406 -401 -403 0
-17 -406 401 0
-17 -406 404 0
-17 406 -401 -404 0
-18 -406 401 0
-18 406 -401 0
-19 -406 401 0
-19 406 -401 0
-20 -406 401 0
-20 406 -401 0
-42 -406 401 0
-42 406 -401 0
-11 -407 402 0
-11 407 -402 0
-12 -402 407 0
-12 -400 407 0
-12 -407 402 400 0
-13 -407 402 0
-13 407 -402 0
-14 -407 402 0
-14 407 -402 0
-15 -402 407 0
-15 -401 407 0
-15 -407 402 401 0
-16 -407 402 0
-16 407 -402 0
-17 -407 402 0
-17 407 -402 0
-18 -407 402 0
-18 -407 403 0
-18 407 -402 -403 0
-19 -407 402 0
-19 -407 404 0
-19 407 -402 -404 0
-20 -407 402 0
-20 407 -402 0
-42 -407 402 0
-42 407 -402 0
-11 -408 403 0
-11 408 -403 0
-12 -408 403 0
-12 408 -403 0
-13 -403 408 0
-13 -400 408 0
-13 -408 403 400 0
-14 -408 403 0
-14 408 -403 0
-15 -408 403 0
-15 408 -403 0
-16 -403 408 0
-16 -401 408 0
-16 -408 403 401 0
-17 -408 403 0
-17 408 -403 0
-18 -403 408 0
-18 -402 408 0
-18 -408 403 402 0
-19 -408 403 0
-19 408 -403 0
-20 -408 403 0
-20 -408 404 0
-20 408 -403 -404 0
-42 -408 403 0
-42 408 -403 0
-11 -409 404 0
-11 409 -404 0
-12 -409 404 0
-12 409 -404 0
-13 -409 404 0
-13 409 -404 0
-14 -404 409 0
-14 -400 409 0
-14 -409 404 400 0
-15 -409 404 0
-15 409 -404 0
-16 -409 404 0
-16 409 -404 0
-17 -404 409 0
-17 -401 409 0
-17 -409 404 401 0
-18 -409 404 0
-18 409 -404 0
-19 -404 409 0
-19 -402 409 0
-19 -409 404 402 0
-20 -404 409 0
-20 -403 409 0
-20 -409 404 403 0
-42 -409 404 0
-42 409 -404 0
-21 -410 405 0
-21 -410 406 0
-21 410 -405 -406 0
-22 -410 405 0
-22 -410 407 0
-22 410 -405 -407 0
-23 -410 405 0
-23 -410 408 0
-23 410 -405 -408 0
-24 -410 405 0
-24 -410 409 0
-24 410 -405 -409 0
-25 -410 405 0
-25 410 -405 0
-26 -410 405 0
-26 410 -405 0
-27 -410 405 0
-27 410 -405 0
-28 -410 405 0
-28 410 -405 0
-29 -410 405 0
-29 410 -405 0
-30 -410 405 0
-30 410 -405 0
-43 -410 405 0
-43 410 -405 0
-21 -406 411 0
-21 -405 411 0
-21 -411 406 405 0
-22 -411 406 0
-22 411 -406 0
-23 -411 406 0
-23 411 -406 0
-24 -411 406 0
-24 411 -406 0
-25 -411 406 0
-25 -411 407 0
-25 411 -406 -407 0
-26 -411 406 0
-26 -411 408 0
-26 411 -406 -408 0
-27 -411 406 0
-27 -411 409 0
-27 411 -406 -409 0
-28 -411 406 0
-28 411 -406 0
-29 -411 406 0
-29 411 -406 0
-30 -411 406 0
-30 411 -406 0
-43 -411 406 0
-43 411 -406 0
-21 -412 407 0
-21 412 -407 0
-22 -407 412 0
-22 -405 412 0
-22 -412 407 405 0
-23 -412 407 0
-23 412 -407 0
-24 -412 407 0
-24 412 -407 0
-25 -407 412 0
-25 -406 412 0
-25 -412 407 406 0
-26 -412 407 0
-26 412 -407 0
-27 -412 407 0
-27 412 -407 0
-28 -412 407 0
-28 -412 408 0
-28 412 -407 -408 0
-29 -412 407 0
-29 -412 409 0
-29 412 -407 -409 0
-30 -412 407 0
-30 412 -407 0
-43 -412 407 0
-43 412 -407 0
-21 -413 408 0
-21 413 -408 0
-22 -413 408 0
-22 413 -408 0
-23 -408 413 0
-23 -405 413 0
-23 -413 408 405 0
-24 -413 408 0
-24 413 -408 0
-25 -413 408 0
-25 413 -408 0
-26 -408 413 0
-26 -406 413 0
-26 -413 408 406 0
-27 -413 408 0
-27 413 -408 0
-28 -408 413 0
-28 -407 413 0
-28 -413 408 407 0
-29 -413 408 0
-29 413 -408 0
-30 -413 408 0
-30 -413 409 0
-30 413 -408 -409 0
-43 -413 408 0
-43 413 -408 0
-21 -414 409 0
-21 414 -409 0
-22 -414 409 0
-22 414 -409 0
-23 -414 409 0
-23 414 -409 0
-24 -409 414 0
-24 -405 414 0
-24 -414 409 405 0
-25 -414 409 0
-25 414 -409 0
-26 -414 409 0
-26 414 -409 0
-27 -409 414 0
-27 -406 414 0
-27 -414 409 406 0
-28 -414 409 0
-28 414 -409 0
-29 -409 414 0
-29 -407 414 0
-29 -414 409 407 0
-30 -409 414 0
-30 -408 414 0
-30 -414 409 408 0
-43 -414 409 0
-43 414 -409 0
-31 -415 410 0
-31 -415 411 0
-31 415 -410 -411 0
-32 -415 410 0
-32 -415 412 0
-32 415 -410 -412 0
-33 -415 410 0
-33 -415 413 0
-33 415 -410 -413 0
-34 -415 410 0
-34 -415 414 0
-34 415 -410 -414 0
-35 -415 410 0
-35 415 -410 0
-36 -415 410 0
-36 415 -410 0
-37 -415 410 0
-37 415 -410 0
-38 -415 410 0
-38 415 -410 0
-39 -415 410 0
-39 415 -410 0
-40 -415 410 0
-40 415 -410 0
-44 -415 410 0
-44 415 -410 0
-31 -411 416 0
-31 -410 416 0
-31 -416 411 410 0
-32 -416 411 0
-32 416 -411 0
-33 -416 411 0
-33 416 -411 0
-34 -416 411 0
-34 416 -411 0
-35 -416 411 0
-35 -416 412 0
-35 416 -411 -412 0
-36 -416 411 0
-36 -416 413 0
-36 416 -411 -413 0
-37 -416 411 0
-37 -416 414 0
-37 416 -411 -414 0
-38 -416 411 0
-38 416 -411 0
-39 -416 411 0
-39 416 -411 0
-40 -416 411 0
-40 416 -411 0
-44 -416 411 0
-44 416 -411 0
-31 -417 412 0
-31 417 -412 0
-32 -412 417 0
-32 -410 417 0
-32 -417 412 410 0
-33 -417 412 0
-33 417 -412 0
-34 -417 412 0
-34 417 -412 0
-35 -412 417 0
-35 -411 417 0
-35 -417 412 411 0
-36 -417 412 0
-36 417 -412 0
-37 -417 412 0
-37 417 -412 0
-38 -417 412 0
-38 -417 413 0
-38 417 -412 -413 0
-39 -417 412 0
-39 -417 414 0
-39 417 -412 -414 0
-40 -417 412 0
-40 417 -412 0
-44 -417 412 0
-44 417 -412 0
-31 -418 413 0
-31 418 -413 0
-32 -418 413 0
-32 418 -413 0
-33 -413 418 0
-33 -410 418 0
-33 -418 413 410 0
-34 -418 413 0
-34 418 -413 0
-35 -418 413 0
-35 418 -413 0
-36 -413 418 0
-36 -411 418 0
-36 -418 413 411 0
-37 -418 413 0
-37 418 -413 0
-38 -413 418 0
-38 -412 418 0
-38 -418 413 412 0
-39 -418 413 0
-39 418 -413 0
-40 -418 413 0
-40 -418 414 0
-40 418 -413 -414 0
-44 -418 413 0
-44 418 -413 0
-31 -419 414 0
-31 419 -414 0
-32 -419 414 0
-32 419 -414 0
-33 -419 414 0
-33 419 -414 0
-34 -414 419 0
-34 -410 419 0
-34 -419 414 410 0
-35 -419 414 0
-35 419 -414 0
-36 -419 414 0
-36 419 -414 0
-37 -414 419 0
-37 -411 419 0
-37 -419 414 411 0
-38 -419 414 0
-38 419 -414 0
-39 -414 419 0
-39 -412 419 0
-39 -419 414 412 0
-40 -414 419 0
-40 -413 419 0
-40 -419 414 413 0
-44 -419 414 0
-44 419 -414 0
420 0
-1 -425 420 0
-1 -425 421 0
-1 425 -420 -421 0
-2 -425 420 0
-2 -425 422 0
-2 425 -420 -422 0
-3 -425 420 0
-3 -425 423 0
-3 425 -420 -423 0
-4 -425 420 0
-4 -425 424 0
-4 425 -420 -424 0
-5 -425 420 0
-5 425 -420 0
-6 -425 420 0
-6 425 -420 0
-7 -425 420 0
-7 425 -420 0
-8 -425 420 0
-8 425 -420 0
-9 -425 420 0
-9 425 -420 0
-10 -425 420 0
-10 425 -420 0
-41 -425 420 0
-41 425 -420 0
-421 0
-1 -421 426 0
-1 -420 426 0
-1 -426 421 420 0
-2 -426 421 0
-2 426 -421 0
-3 -426 421 0
-3 426 -421 0
-4 -426 421 0
-4 426 -421 0
-5 -426 421 0
-5 -426 422 0
-5 426 -421 -422 0
-6 -426 421 0
-6 -426 423 0
-6 426 -421 -423 0
-7 -426 421 0
-7 -426 424 0
-7 426 -421 -424 0
-8 -426 421 0
-8 426 -421 0
-9 -426 421 0
-9 426 -421 0
-10 -426 421 0
-10 426 -421 0
-41 -426 421 0
-41 426 -421 0
422 0
-1 -427 422 0
-1 427 -422 0
-2 -422 427 0
-2 -420 427 0
-2 -427 422 420 0
-3 -427 422 0
-3 427 -422 0
-4 -427 422 0
-4 427 -422 0
-5 -422 427 0
-5 -421 427 0
-5 -427 422 421 0
-6 -427 422 0
-6 427 -422 0
-7 -427 422 0
-7 427 -422 0
-8 -427 422 0
-8 -427 423 0
-8 427 -422 -423 0
-9 -427 422 0
-9 -427 424 0
-9 427 -422 -424 0
-10 -427 422 0
-10 427 -422 0
-41 -427 422 0
-41 427 -422 0
-423 0
-1 -428 423 0
-1 428 -423 0
-2 -428 423 0
-2 428 -423 0
-3 -423 428 0
-3 -420 428 0
-3 -428 423 420 0
-4 -428 423 0
-4 428 -423 0
-5 -428 423 0
-5 428 -423 0
-6 -423 428 0
-6 -421 428 0
-6 -428 423 421 0
-7 -428 423 0
-7 428 -423 0
-8 -423 428 0
-8 -422 428 0
-8 -428 423 422 0
-9 -428 423 0
-9 428 -423 0
-10 -428 423 0
-10 -428 424 0
-10 428 -423 -424 0
-41 -428 423 0
-41 428 -423 0
-424 0
-1 -429 424 0
-1 429 -424 0
-2 -429 424 0
-2 429 -424 0
-3 -429 424 0
-3 429 -424 0
-4 -424 429 0
-4 -420 429 0
-4 -429 424 420 0
-5 -429 424 0
-5 429 -424 0
-6 -429 424 0
-6 429 -424 0
-7 -424 429 0
-7 -421 429 0
-7 -429 424 421 0
-8 -429 424 0
-8 429 -424 0
-9 -424 429 0
-9 -422 429 0
-9 -429 424 422 0
-10 -424 429 0
-10 -423 429 0
-10 -429 424 423 0
-41 -429 424 0
-41 429 -424 0
-11 -430 425 0
-11 -430 426 0
-11 430 -425 -426 0
-12 -430 425 0
-12 -430 427 0
-12 430 -425 -427 0
-13 -430 425 0
-13 -430 428 0
-13 430 -425 -428 0
-14 -430 425 0
-14 -430 429 0
-14 430 -425 -429 0
-15 -430 425 0
-15 430 -425 0
-16 -430 425 0
-16 430 -425 0
-17 -430 425 0
-17 430 -425 0
-18 -430 425 0
-18 430 -425 0
-19 -430 425 0
-19 430 -425 0
-20 -430 425 0
-20 430 -425 0
-42 -430 425 0
-42 430 -425 0
-11 -426 431 0
-11 -425 431 0
-11 -431 426 425 0
-12 -431 426 0
-12 431 -426 0
-13 -431 426 0
-13 431 -426 0
-14 -431 426 0
-14 431 -426 0
-15 -431 426 0
-15 -431 427 0
-15 431 -426 -427 0
-16 -431 426 0
-16 -431 428 0
-16 431 -426 -428 0
-17 -431 426 0
-17 -431 429 0
-17 431 -426 -429 0
-18 -431 426 0
-18 431 -426 0
-19 -431 426 0
-19 431 -426 0
-20 -431 426 0
-20 431 -426 0
-42 -431 426 0
-42 431 -426 0
-11 -432 427 0
-11 432 -427 0
-12 -427 432 0
-12 -425 432 0
-12 -432 427 425 0
-13 -432 427 0
-13 432 -427 0
-14 -432 427 0
-14 432 -427 0
-15 -427 432 0
-15 -426 432 0
-15 -432 427 426 0
-16 -432 427 0
-16 432 -427 0
-17 -432 427 0
-17 432 -427 0
-18 -432 427 0
-18 -432 428 0
-18 432 -427 -428 0
-19 -432 427 0
-19 -432 429 0
-19 432 -427 -429 0
-20 -432 427 0
-20 432 -427 0
-42 -432 427 0
-42 432 -427 0
-11 -433 428 0
-11 433 -428 0
-12 -433 428 0
-12 433 -428 0
-13 -428 433 0
-13 -425 433 0
-13 -433 428 425 0
-14 -433 428 0
-14 433 -428 0
-15 -433 428 0
-15 433 -428 0
-16 -428 433 0
-16 -426 433 0
-16 -433 428 426 0
-17 -433 428 0
-17 433 -428 0
-18 -428 433 0
-18 -427 433 0
-18 -433 428 427 0
-19 -433 428 0
-19 433 -428 0
-20 -433 428 0
-20 -433 429 0
-20 433 -428 -429 0
-42 -433 428 0
-42 433 -428 0
-11 -434 429 0
-11 434 -429 0
-12 -434 429 0
-12 434 -429 0
-13 -434 429 0
-13 434 -429 0
-14 -429 434 0
-14 -425 434 0
-14 -434 429 425 0
-15 -434 429 0
-15 434 -429 0
-16 -434 429 0
-16 434 -429 0
-17 -429 434 0
-17 -426 434 0
-17 -434 429 426 0
-18 -434 429 0
-18 434 -429 0
-19 -429 434 0
-19 -427 434 0
-19 -434 429 427 0
-20 -429 434 0
-20 -428 434 0
-20 -434 429 428 0
-42 -434 429 0
-42 434 -429 0
-21 -435 430 0
-21 -435 431 0
-21 435 -430 -431 0
-22 -435 430 0
-22 -435 432 0
-22 435 -430 -432 0
-23 -435 430 0
-23 -435 433 0
-23 435 -430 -433 0
-24 -435 430 0
-24 -435 434 0
-24 435 -430 -434 0
-25 -435 430 0
-25 435 -430 0
-26 -435 430 0
-26 435 -430 0
-27 -435 430 0
-27 435 -430 0
-28 -435 430 0
-28 435 -430 0
-29 -435 430 0
-29 435 -430 0
-30 -435 430 0
-30 435 -430 0
-43 -435 430 0
-43 435 -430 0
-21 -431 436 0
-21 -430 436 0
-21 -436 431 430 0
-22 -436 431 0
-22 436 -431 0
-23 -436 431 0
-23 436 -431 0
-24 -436 431 0
-24 436 -431 0
-25 -436 431 0
-25 -436 432 0
-25 436 -431 -432 0
-26 -436 431 0
-26 -436 433 0
-26 436 -431 -433 0
-27 -436 431 0
-27 -436 434 0
-27 436 -431 -434 0
-28 -436 431 0
-28 436 -431 0
-29 -436 431 0
-29 436 -431 0
-30 -436 431 0
-30 436 -431 0
-43 -436 431 0
-43 436 -431 0
-21 -437 432 0
-21 437 -432 0
-22 -432 437 0
-22 -430 437 0
-22 -437 432 430 0
-23 -437 432 0
-23 437 -432 0
-24 -437 432 0
-24 437 -432 0
-25 -432 437 0
-25 -431 437 0
-25 -437 432 431 0
-26 -437 432 0
-26 437 -432 0
-27 -437 432 0
-27 437 -432 0
-28 -437 432 0
-28 -437 433 0
-28 437 -432 -433 0
-29 -437 432 0
-29 -437 434 0
-29 437 -432 -434 0
-30 -437 432 0
-30 437 -432 0
-43 -437 432 0
-43 437 -432 0
-21 -438 433 0
-21 438 -433 0
-22 -438 433 0
-22 438 -433 0
-23 -433 438 0
-23 -430 438 0
-23 -438 433 430 0
-24 -438 433 0
-24 438 -433 0
-25 -438 433 0
-25 438 -433 0
-26 -433 438 0
-26 -431 438 0
-26 -438 433 431 0
-27 -438 433 0
-27 438 -433 0
-28 -433 438 0
-28 -432 438 0
-28 -438 433 432 0
-29 -438 433 0
-29 438 -433 0
-30 -438 433 0
-30 -438 434 0
-30 438 -433 -434 0
-43 -438 433 0
-43 438 -433 0
-21 -439 434 0
-21 439 -434 0
-22 -439 434 0
-22 439 -434 0
-23 -439 434 0
-23 439 -434 0
-24 -434 439 0
-24 -430 439 0
-24 -439 434 430 0
-25 -439 434 0
-25 439 -434 0
-26 -439 434 0
-26 439 -434 0
-27 -434 439 0
-27 -431 439 0
-27 -439 434 431 0
-28 -439 434 0
-28 439 -434 0
-29 -434 439 0
-29 -432 439 0
-29 -439 434 432 0
-30 -434 439 0
-30 -433 439 0
-30 -439 434 433 0
-43 -439 434 0
-43 439 -434 0
-31 -440 435 0
-31 -440 436 0
-31 440 -435 -436 0
-32 -440 435 0
-32 -440 437 0
-32 440 -435 -437 0
-33 -440 435 0
-33 -440 438 0
-33 440 -435 -438 0
-34 -440 435 0
-34 -440 439 0
-34 440 -435 -439 0
-35 -440 435 0
-35 440 -435 0
-36 -440 435 0
-36 440 -435 0
-37 -440 435 0
-37 440 -435 0
-38 -440 435 0
-38 440 -435 0
-39 -440 435 0
-39 440 -435 0
-40 -440 435 0
-40 440 -435 0
-44 -440 435 0
-44 440 -435 0
-31 -436 441 0
-31 -435 441 0
-31 -441 436 435 0
-32 -441 436 0
-32 441 -436 0
-33 -441 436 0
-33 441 -436 0
-34 -441 436 0
-34 441 -436 0
-35 -441 436 0
-35 -441 437 0
-35 441 -436 -437 0
-36 -441 436 0
-36 -441 438 0
-36 441 -436 -438 0
-37 -441 436 0
-37 -441 439 0
-37 441 -436 -439 0
-38 -441 436 0
-38 441 -436 0
-39 -441 436 0
-39 441 -436 0
-40 -441 436 0
-40 441 -436 0
-44 -441 436 0
-44 441 -436 0
-31 -442 437 0
-31 442 -437 0
-32 -437 442 0
-32 -435 442 0
-32 -442 437 435 0
-33 -442 437 0
-33 442 -437 0
-34 -442 437 0
-34 442 -437 0
-35 -437 442 0
-35 -436 442 0
-35 -442 437 436 0
-36 -442 437 0
-36 442 -437 0
-37 -442 437 0
-37 442 -437 0
-38 -442 437 0
-38 -442 438 0
-38 442 -437 -438 0
-39 -442 437 0
-39 -442 439 0
-39 442 -437 -439 0
-40 -442 437 0
-40 442 -437 0
-44 -442 437 0
-44 442 -437 0
-31 -443 438 0
-31 443 -438 0
-32 -443 438 0
-32 443 -438 0
-33 -438 443 0
-33 -435 443 0
-33 -443 438 435 0
-34 -443 438 0
-34 443 -438 0
-35 -443 438 0
-35 443 -438 0
-36 -438 443 0
-36 -436 443 0
-36 -443 438 436 0
-37 -443 438 0
-37 443 -438 0
-38 -438 443 0
-38 -437 443 0
-38 -443 438 437 0
-39 -443 438 0
-39 443 -438 0
-40 -443 438 0
-40 -443 439 0
-40 443 -438 -439 0
-44 -443 438 0
-44 443 -438 0
-31 -444 439 0
-31 444 -439 0
-32 -444 439 0
-32 444 -439 0
-33 -444 439 0
-33 444 -439 0
-34 -439 444 0
-34 -435 444 0
-34 -444 439 435 0
-35 -444 439 0
-35 444 -439 0
-36 -444 439 0
-36 444 -439 0
-37 -439 444 0
-37 -436 444 0
-37 -444 439 436 0
-38 -444 439 0
-38 444 -439 0
-39 -439 444 0
-39 -437 444 0
-39 -444 439 437 0
-40 -439 444 0
-40 -438 444 0
-40 -444 439 438 0
-44 -444 439 0
-44 444 -439 0
445 0
-1 -450 445 0
-1 -450 446 0
-1 450 -445 -446 0
-2 -450 445 0
-2 -450 447 0
-2 450 -445 -447 0
-3 -450 445 0
-3 -450 448 0
-3 450 -445 -448 0
-4 -450 445 0
-4 -450 449 0
-4 450 -445 -449 0
-5 -450 445 0
-5 450 -445 0
-6 -450 445 0
-6 450 -445 0
-7 -450 445 0
-7 450 -445 0
-8 -450 445 0
-8 450 -445 0
-9 -450 445 0
-9 450 -445 0
-10 -450 445 0
-10 450 -445 0
-41 -450 445 0
-41 450 -445 0
-446 0
-1 -446 451 0
-1 -445 451 0
-1 -451 446 445 0
-2 -451 446 0
-2 451 -446 0
-3 -451 446 0
-3 451 -446 0
-4 -451 446 0
-4 451 -446 0
-5 -451 446 0
-5 -451 447 0
-5 451 -446 -447 0
-6 -451 446 0
-6 -451 448 0
-6 451 -446 -448 0
-7 -451 446 0
-7 -451 449 0
-7 451 -446 -449 0
-8 -451 446 0
-8 451 -446 0
-9 -451 446 0
-9 451 -446 0
-10 -451 446 0
-10 451 -446 0
-41 -451 446 0
-41 451 -446 0
447 0
-1 -452 447 0
-1 452 -447 0
-2 -447 452 0
-2 -445 452 0
-2 -452 447 445 0
-3 -452 447 0
-3 452 -447 0
-4 -452 447 0
-4 452 -447 0
-5 -447 452 0
-5 -446 452 0
-5 -452 447 446 0
-6 -452 447 0
-6 452 -447 0
-7 -452 447 0
-7 452 -447 0
-8 -452 447 0
-8 -452 448 0
-8 452 -447 -448 0
-9 -452 447 0
-9 -452 449 0
-9 452 -447 -449 0
-10 -452 447 0
-10 452 -447 0
-41 -452 447 0
-41 452 -447 0
-448 0
-1 -453 448 0
-1 453 -448 0
-2 -453 448 0
-2 453 -448 0
-3 -448 453 0
-3 -445 453 0
-3 -453 448 445 0
-4 -453 448 0
-4 453 -448 0
-5 -453 448 0
-5 453 -448 0
-6 -448 453 0
-6 -446 453 0
-6 -453 448 446 0
-7 -453 448 0
-7 453 -448 0
-8 -448 453 0
-8 -447 453 0
-8 -453 448 447 0
-9 -453 448 0
-9 453 -448 0
-10 -453 448 0
-10 -453 449 0
-10 453 -448 -449 0
-41 -453 448 0
-41 453 -448 0
449 0
-1 -454 449 0
-1 454 -449 0
-2 -454 449 0
-2 454 -449 0
-3 -454 449 0
-3 454 -449 0
-4 -449 454 0
-4 -445 454 0
-4 -454 449 445 0
-5 -454 449 0
-5 454 -449 0
-6 -454 449 0
-6 454 -449 0
-7 -449 454 0
-7 -446 454 0
-7 -454 449 446 0
-8 -454 449 0
-8 454 -449 0
-9 -449 454 0
-9 -447 454 0
-9 -454 449 447 0
-10 -449 454 0
-10 -448 454 0
-10 -454 449 448 0
-41 -454 449 0
-41 454 -449 0
-11 -455 450 0
-11 -455 451 0
-11 455 -450 -451 0
-12 -455 450 0
-12 -455 452 0
-12 455 -450 -452 0
-13 -455 450 0
-13 -455 453 0
-13 455 -450 -453 0
-14 -455 450 0
-14 -455 454 0
-14 455 -450 -454 0
-15 -455 450 0
-15 455 -450 0
-16 -455 450 0
-16 455 -450 0
-17 -455 450 0
-17 455 -450 0
-18 -455 450 0
-18 455 -450 0
-19 -455 450 0
-19 455 -450 0
-20 -455 450 0
-20 455 -450 0
-42 -455 450 0
-42 455 -450 0
-11 -451 456 0
-11 -450 456 0
-11 -456 451 450 0
-12 -456 451 0
-12 456 -451 0
-13 -456 451 0
-13 456 -451 0
-14 -456 451 0
-14 456 -451 0
-15 -456 451 0
-15 -456 452 0
-15 456 -451 -452 0
-16 -456 451 0
-16 -456 453 0
-16 456 -451 -453 0
-17 -456 451 0
-17 -456 454 0
-17 456 -451 -454 0
-18 -456 451 0
-18 456 -451 0
-19 -456 451 0
-19 456 -451 0
-20 -456 451 0
-20 456 -451 0
-42 -456 451 0
-42 456 -451 0
-11 -457 452 0
-11 457 -452 0
-12 -452 457 0
-12 -450 457 0
-12 -457 452 450 0
-13 -457 452 0
-13 457 -452 0
-14 -457 452 0
-14 457 -452 0
-15 -452 457 0
-15 -451 457 0
-15 -457 452 451 0
-16 -457 452 0
-16 457 -452 0
-17 -457 452 0
-17 457 -452 0
-18 -457 452 0
-18 -457 453 0
-18 457 -452 -453 0
-19 -457 452 0
-19 -457 454 0
-19 457 -452 -454 0
-20 -457 452 0
-20 457 -452 0
-42 -457 452 0
-42 457 -452 0
-11 -458 453 0
-11 458 -453 0
-12 -458 453 0
-12 458 -453 0
-13 -453 458 0
-13 -450 458 0
-13 -458 453 450 0
-14 -458 453 0
-14 458 -453 0
-15 -458 453 0
-15 458 -453 0
-16 -453 458 0
-16 -451 458 0
-16 -458 453 451 0
-17 -458 453 0
-17 458 -453 0
-18 -453 458 0
-18 -452 458 0
-18 -458 453 452 0
-19 -458 453 0
-19 458 -453 0
-20 -458 453 0
-20 -458 454 0
-20 458 -453 -454 0
-42 -458 453 0
-42 458 -453 0
-11 -459 454 0
-11 459 -454 0
-12 -459 454 0
-12 459 -454 0
-13 -459 454 0
-13 459 -454 0
-14 -454 459 0
-14 -450 459 0
-14 -459 454 450 0
-15 -459 454 0
-15 459 -454 0
-16 -459 454 0
-16 459 -454 0
-17 -454 459 0
-17 -451 459 0
-17 -459 454 451 0
-18 -459 454 0
-18 459 -454 0
-19 -454 459 0
-19 -452 459 0
-19 -459 454 452 0
-20 -454 459 0
-20 -453 459 0
-20 -459 454 453 0
-42 -459 454 0
-42 459 -454 0
-21 -460 455 0
-21 -460 456 0
-21 460 -455 -456 0
-22 -460 455 0
-22 -460 457 0
-22 460 -455 -457 0
-23 -460 455 0
-23 -460 458 0
-23 460 -455 -458 0
-24 -460 455 0
-24 -460 459 0
-24 460 -455 -459 0
-25 -460 455 0
-25 460 -455 0
-26 -460 455 0
-26 460 -455 0
-27 -460 455 0
-27 460 -455 0
-28 -460 455 0
-28 460 -455 0
-29 -460 455 0
-29 460 -455 0
-30 -460 455 0
-30 460 -455 0
-43 -460 455 0
-43 460 -455 0
-21 -456 461 0
-21 -455 461 0
-21 -461 456 455 0
-22 -461 456 0
-22 461 -456 0
-23 -461 456 0
-23 461 -456 0
-24 -461 456 0
-24 461 -456 0
-25 -461 456 0
-25 -461 457 0
-25 461 -456 -457 0
-26 -461 456 0
-26 -461 458 0
-26 461 -456 -458 0
-27 -461 456 0
-27 -461 459 0
-27 461 -456 -459 0
-28 -461 456 0
-28 461 -456 0
-29 -461 456 0
-29 461 -456 0
-30 -461 456 0
-30 461 -456 0
-43 -461 456 0
-43 461 -456 0
-21 -462 457 0
-21 462 -457 0
-22 -457 462 0
-22 -455 462 0
-22 -462 457 455 0
-23 -462 457 0
-23 462 -457 0
-24 -462 457 0
-24 462 -457 0
-25 -457 462 0
-25 -456 462 0
-25 -462 457 456 0
-26 -462 457 0
-26 462 -457 0
-27 -462 457 0
-27 462 -457 0
-28 -462 457 0
-28 -462 458 0
-28 462 -457 -458 0
-29 -462 457 0
-29 -462 459 0
-29 462 -457 -459 0
-30 -462 457 0
-30 462 -457 0
-43 -462 457 0
-43 462 -457 0
-21 -463 458 0
-21 463 -458 0
-22 -463 458 0
-22 463 -458 0
-23 -458 463 0
-23 -455 463 0
-23 -463 458 455 0
-24 -463 458 0
-24 463 -458 0
-25 -463 458 0
-25 463 -458 0
-26 -458 463 0
-26 -456 463 0
-26 -463 458 456 0
-27 -463 458 0
-27 463 -458 0
-28 -458 463 0
-28 -457 463 0
-28 -463 458 457 0
-29 -463 458 0
-29 463 -458 0
-30 -463 458 0
-30 -463 459 0
-30 463 -458 -459 0
-43 -463 458 0
-43 463 -458 0
-21 -464 459 0
-21 464 -459 0
-22 -464 459 0
-22 464 -459 0
-23 -464 459 0
-23 464 -459 0
-24 -459 464 0
-24 -455 464 0
-24 -464 459 455 0
-25 -464 459 0
-25 464 -459 0
-26 -464 459 0
-26 464 -459 0
-27 -459 464 0
-27 -456 464 0
-27 -464 459 456 0
-28 -464 459 0
-28 464 -459 0
-29 -459 464 0
-29 -457 464 0
-29 -464 459 457 0
-30 -459 464 0
-30 -458 464 0
-30 -464 459 458 0
-43 -464 459 0
-43 464 -459 0
-31 -465 460 0
-31 -465 461 0
-31 465 -460 -461 0
-32 -465 460 0
-32 -465 462 0
-32 465 -460 -462 0
-33 -465 460 0
-33 -465 463 0
-33 465 -460 -463 0
-34 -465 460 0
-34 -465 464 0
-34 465 -460 -464 0
-35 -465 460 0
-35 465 -460 0
-36 -465 460 0
-36 465 -460 0
-37 -465 460 0
-37 465 -460 0
-38 -465 460 0
-38 465 -460 0
-39 -465 460 0
-39 465 -460 0
-40 -465 460 0
-40 465 -460 0
-44 -465 460 0
-44 465 -460 0
-31 -461 466 0
-31 -460 466 0
-31 -466 461 460 0
-32 -466 461 0
-32 466 -461 0
-33 -466 461 0
-33 466 -461 0
-34 -466 461 0
-34 466 -461 0
-35 -466 461 0
-35 -466 462 0
-35 466 -461 -462 0
-36 -466 461 0
-36 -466 463 0
-36 466 -461 -463 0
-37 -466 461 0
-37 -466 464 0
-37 466 -461 -464 0
-38 -466 461 0
-38 466 -461 0
-39 -466 461 0
-39 466 -461 0
-40 -466 461 0
-40 466 -461 0
-44 -466 461 0
-44 466 -461 0
-31 -467 462 0
-31 467 -462 0
-32 -462 467 0
-32 -460 467 0
-32 -467 462 460 0
-33 -467 462 0
-33 467 -462 0
-34 -467 462 0
-34 467 -462 0
-35 -462 467 0
-35 -461 467 0
-35 -467 462 461 0
-36 -467 462 0
-36 467 -462 0
-37 -467 462 0
-37 467 -462 0
-38 -467 462 0
-38 -467 463 0
-38 467 -462 -463 0
-39 -467 462 0
-39 -467 464 0
-39 467 -462 -464 0
-40 -467 462 0
-40 467 -462 0
-44 -467 462 0
-44 467 -462 0
-31 -468 463 0
-31 468 -463 0
-32 -468 463 0
-32 468 -463 0
-33 -463 468 0
-33 -460 468 0
-33 -468 463 460 0
-34 -468 463 0
-34 468 -463 0
-35 -468 463 0
-35 468 -463 0
-36 -463 468 0
-36 -461 468 0
-36 -468 463 461 0
-37 -468 463 0
-37 468 -463 0
-38 -463 468 0
-38 -462 468 0
-38 -468 463 462 0
-39 -468 463 0
-39 468 -463 0
-40 -468 463 0
-40 -468 464 0
-40 468 -463 -464 0
-44 -468 463 0
-44 468 -463 0
-31 -469 464 0
-31 469 -464 0
-32 -469 464 0
-32 469 -464 0
-33 -469 464 0
-33 469 -464 0
-34 -464 469 0
-34 -460 469 0
-34 -469 464 460 0
-35 -469 464 0
-35 469 -464 0
-36 -469 464 0
-36 469 -464 0
-37 -464 469 0
-37 -461 469 0
-37 -469 464 461 0
-38 -469 464 0
-38 469 -464 0
-39 -464 469 0
-39 -462 469 0
-39 -469 464 462 0
-40 -464 469 0
-40 -463 469 0
-40 -469 464 463 0
-44 -469 464 0
-44 469 -464 0
470 0
-1 -475 470 0
-1 -475 471 0
-1 475 -470 -471 0
-2 -475 470 0
-2 -475 472 0
-2 475 -470 -472 0
-3 -475 470 0
-3 -475 473 0
-3 475 -470 -473 0
-4 -475 470 0
-4 -475 474 0
-4 475 -470 -474 0
-5 -475 470 0
-5 475 -470 0
-6 -475 470 0
-6 475 -470 0
-7 -475 470 0
-7 475 -470 0
-8 -475 470 0
-8 475 -470 0
-9 -475 470 0
-9 475 -470 0
-10 -475 470 0
-10 475 -470 0
-41 -475 470 0
-41 475 -470 0
-471 0
-1 -471 476 0
-1 -470 476 0
-1 -476 471 470 0
-2 -476 471 0
-2 476 -471 0
-3 -476 471 0
-3 476 -471 0
-4 -476 471 0
-4 476 -471 0
-5 -476 471 0
-5 -476 472 0
-5 476 -471 -472 0
-6 -476 471 0
-6 -476 473 0
-6 476 -471 -473 0
-7 -476 471 0
-7 -476 474 0
-7 476 -471 -474 0
-8 -476 471 0
-8 476 -471 0
-9 -476 471 0
-9 476 -471 0
-10 -476 471 0
-10 476 -471 0
-41 -476 471 0
-41 476 -471 0
472 0
-1 -477 472 0
-1 477 -472 0
-2 -472 477 0
-2 -470 477 0
-2 -477 472 470 0
-3 -477 472 0
-3 477 -472 0
-4 -477 472 0
-4 477 -472 0
-5 -472 477 0
-5 -471 477 0
-5 -477 472 471 0
-6 -477 472 0
-6 477 -472 0
-7 -477 472 0
-7 477 -472 0
-8 -477 472 0
-8 -477 473 0
-8 477 -472 -473 0
-9 -477 472 0
-9 -477 474 0
-9 477 -472 -474 0
-10 -477 472 0
-10 477 -472 0
-41 -477 472 0
-41 477 -472 0
473 0
-1 -478 473 0
-1 478 -473 0
-2 -478 473 0
-2 478 -473 0
-3 -473 478 0
-3 -470 478 0
-3 -478 473 470 0
-4 -478 473 0
-4 478 -473 0
-5 -478 473 0
-5 478 -473 0
-6 -473 478 0
-6 -471 478 0
-6 -478 473 471 0
-7 -478 473 0
-7 478 -473 0
-8 -473 478 0
-8 -472 478 0
-8 -478 473 472 0
-9 -478 473 0
-9 478 -473 0
-10 -478 473 0
-10 -478 474 0
-10 478 -473 -474 0
-41 -478 473 0
-41 478 -473 0
-474 0
-1 -479 474 0
-1 479 -474 0
-2 -479 474 0
-2 479 -474 0
-3 -479 474 0
-3 479 -474 0
-4 -474 479 0
-4 -470 479 0
-4 -479 474 470 0
-5 -479 474 0
-5 479 -474 0
-6 -479 474 0
-6 479 -474 0
-7 -474 479 0
-7 -471 479 0
-7 -479 474 471 0
-8 -479 474 0
-8 479 -474 0
-9 -474 479 0
-9 -472 479 0
-9 -479 474 472 0
-10 -474 479 0
-10 -473 479 0
-10 -479 474 473 0
-41 -479 474 0
-41 479 -474 0
-11 -480 475 0
-11 -480 476 0
-11 480 -475 -476 0
-12 -480 475 0
-12 -480 477 0
-12 480 -475 -477 0
-13 -480 475 0
-13 -480 478 0
-13 480 -475 -478 0
-14 -480 475 0
-14 -480 479 0
-14 480 -475 -479 0
-15 -480 475 0
-15 480 -475 0
-16 -480 475 0
-16 480 -475 0
-17 -480 475 0
-17 480 -475 0
-18 -480 475 0
-18 480 -475 0
-19 -480 475 0
-19 480 -475 0
-20 -480 475 0
-20 480 -475 0
-42 -480 475 0
-42 480 -475 0
-11 -476 481 0
-11 -475 481 0
-11 -481 476 475 0
-12 -481 476 0
-12 481 -476 0
-13 -481 476 0
-13 481 -476 0
-14 -481 476 0
-14 481 -476 0
-15 -481 476 0
-15 -481 477 0
-15 481 -476 -477 0
-16 -481 476 0
-16 -481 478 0
-16 481 -476 -478 0
-17 -481 476 0
-17 -481 479 0
-17 481 -476 -479 0
-18 -481 476 0
-18 481 -476 0
-19 -481 476 0
-19 481 -476 0
-20 -481 476 0
-20 481 -476 0
-42 -481 476 0
-42 481 -476 0
-11 -482 477 0
-11 482 -477 0
-12 -477 482 0
-12 -475 482 0
-12 -482 477 475 0
-13 -482 477 0
-13 482 -477 0
-14 -482 477 0
-14 482 -477 0
-15 -477 482 0
-15 -476 482 0
-15 -482 477 476 0
-16 -482 477 0
-16 482 -477 0
-17 -482 477 0
-17 482 -477 0
-18 -482 477 0
-18 -482 478 0
-18 482 -477 -478 0
-19 -482 477 0
-19 -482 479 0
-19 482 -477 -479 0
-20 -482 477 0
-20 482 -477 0
-42 -482 477 0
-42 482 -477 0
-11 -483 478 0
-11 483 -478 0
-12 -483 478 0
-12 483 -478 0
-13 -478 483 0
-13 -475 483 0
-13 -483 478 475 0
-14 -483 478 0
-14 483 -478 0
-15 -483 478 0
-15 483 -478 0
-16 -478 483 0
-16 -476 483 0
-16 -483 478 476 0
-17 -483 478 0
-17 483 -478 0
-18 -478 483 0
-18 -477 483 0
-18 -483 478 477 0
-19 -483 478 0
-19 483 -478 0
-20 -483 478 0
-20 -483 479 0
-20 483 -478 -479 0
-42 -483 478 0
-42 483 -478 0
-11 -484 479 0
-11 484 -479 0
-12 -484 479 0
-12 484 -479 0
-13 -484 479 0
-13 484 -479 0
-14 -479 484 0
-14 -475 484 0
-14 -484 479 475 0
-15 -484 479 0
-15 484 -479 0
-16 -484 479 0
-16 484 -479 0
-17 -479 484 0
-17 -476 484 0
-17 -484 479 476 0
-18 -484 479 0
-18 484 -479 0
-19 -479 484 0
-19 -477 484 0
-19 -484 479 477 0
-20 -479 484 0
-20 -478 484 0
-20 -484 479 478 0
-42 -484 479 0
-42 484 -479 0
-21 -485 480 0
-21 -485 481 0
-21 485 -480 -481 0
-22 -485 480 0
-22 -485 482 0
-22 485 -480 -482 0
-23 -485 480 0
-23 -485 483 0
-23 485 -480 -483 0
-24 -485 480 0
-24 -485 484 0
-24 485 -480 -484 0
-25 -485 480 0
-25 485 -480 0
-26 -485 480 0
-26 485 -480 0
-27 -485 480 0
-27 485 -480 0
-28 -485 480 0
-28 485 -480 0
-29 -485 480 0
-29 485 -480 0
-30 -485 480 0
-30 485 -480 0
-43 -485 480 0
-43 485 -480 0
-21 -481 486 0
-21 -480 486 0
-21 -486 481 480 0
-22 -486 481 0
-22 486 -481 0
-23 -486 481 0
-23 486 -481 0
-24 -486 481 0
-24 486 -481 0
-25 -486 481 0
-25 -486 482 0
-25 486 -481 -482 0
-26 -486 481 0
-26 -486 483 0
-26 486 -481 -483 0
-27 -486 481 0
-27 -486 484 0
-27 486 -481 -484 0
-28 -486 481 0
-28 486 -481 0
-29 -486 481 0
-29 486 -481 0
-30 -486 481 0
-30 486 -481 0
-43 -486 481 0
-43 486 -481 0
-21 -487 482 0
-21 487 -482 0
-22 -482 487 0
-22 -480 487 0
-22 -487 482 480 0
-23 -487 482 0
-23 487 -482 0
-24 -487 482 0
-24 487 -482 0
-25 -482 487 0
-25 -481 487 0
-25 -487 482 481 0
-26 -487 482 0
-26 487 -482 0
-27 -487 482 0
-27 487 -482 0
-28 -487 482 0
-28 -487 483 0
-28 487 -482 -483 0
-29 -487 482 0
-29 -487 484 0
-29 487 -482 -484 0
-30 -487 482 0
-30 487 -482 0
-43 -487 482 0
-43 487 -482 0
-21 -488 483 0
-21 488 -483 0
-22 -488 483 0
-22 488 -483 0
-23 -483 488 0
-23 -480 488 0
-23 -488 483 480 0
-24 -488 483 0
-24 488 -483 0
-25 -488 483 0
-25 488 -483 0
-26 -483 488 0
-26 -481 488 0
-26 -488 483 481 0
-27 -488 483 0
-27 488 -483 0
-28 -483 488 0
-28 -482 488 0
-28 -488 483 482 0
-29 -488 483 0
-29 488 -483 0
-30 -488 483 0
-30 -488 484 0
-30 488 -483 -484 0
-43 -488 483 0
-43 488 -483 0
-21 -489 484 0
-21 489 -484 0
-22 -489 484 0
-22 489 -484 0
-23 -489 484 0
-23 489 -484 0
-24 -484 489 0
-24 -480 489 0
-24 -489 484 480 0
-25 -489 484 0
-25 489 -484 0
-26 -489 484 0
-26 489 -484 0
-27 -484 489 0
-27 -481 489 0
-27 -489 484 481 0
-28 -489 484 0
-28 489 -484 0
-29 -484 489 0
-29 -482 489 0
-29 -489 484 482 0
-30 -484 489 0
-30 -483 489 0
-30 -489 484 483 0
-43 -489 484 0
-43 489 -484 0
-31 -490 485 0
-31 -490 486 0
-31 490 -485 -486 0
-32 -490 485 0
-32 -490 487 0
-32 490 -485 -487 0
-33 -490 485 0
-33 -490 488 0
-33 490 -485 -488 0
-34 -490 485 0
-34 -490 489 0
-34 490 -485 -489 0
-35 -490 485 0
-35 490 -485 0
-36 -490 485 0
-36 490 -485 0
-37 -490 485 0
-37 490 -485 0
-38 -490 485 0
-38 490 -485 0
-39 -490 485 0
-39 490 -485 0
-40 -490 485 0
-40 490 -485 0
-44 -490 485 0
-44 490 -485 0
-31 -486 491 0
-31 -485 491 0
-31 -491 486 485 0
-32 -491 486 0
-32 491 -486 0
-33 -491 486 0
-33 491 -486 0
-34 -491 486 0
-34 491 -486 0
-35 -491 486 0
-35 -491 487 0
-35 491 -486 -487 0
-36 -491 486 0
-36 -491 488 0
-36 491 -486 -488 0
-37 -491 486 0
-37 -491 489 0
-37 491 -486 -489 0
-38 -491 486 0
-38 491 -486 0
-39 -491 486 0
-39 491 -486 0
-40 -491 486 0
-40 491 -486 0
-44 -491 486 0
-44 491 -486 0
-31 -492 487 0
-31 492 -487 0
-32 -487 492 0
-32 -485 492 0
-32 -492 487 485 0
-33 -492 487 0
-33 492 -487 0
-34 -492 487 0
-34 492 -487 0
-35 -487 492 0
-35 -486 492 0
-35 -492 487 486 0
-36 -492 487 0
-36 492 -487 0
-37 -492 487 0
-37 492 -487 0
-38 -492 487 0
-38 -492 488 0
-38 492 -487 -488 0
-39 -492 487 0
-39 -492 489 0
-39 492 -487 -489 0
-40 -492 487 0
-40 492 -487 0
-44 -492 487 0
-44 492 -487 0
-31 -493 488 0
-31 493 -488 0
-32 -493 488 0
-32 493 -488 0
-33 -488 493 0
-33 -485 493 0
-33 -493 488 485 0
-34 -493 488 0
-34 493 -488 0
-35 -493 488 0
-35 493 -488 0
-36 -488 493 0
-36 -486 493 0
-36 -493 488 486 0
-37 -493 488 0
-37 493 -488 0
-38 -488 493 0
-38 -487 493 0
-38 -493 488 487 0
-39 -493 488 0
-39 493 -488 0
-40 -493 488 0
-40 -493 489 0
-40 493 -488 -489 0
-44 -493 488 0
-44 493 -488 0
-31 -494 489 0
-31 494 -489 0
-32 -494 489 0
-32 494 -489 0
-33 -494 489 0
-33 494 -489 0
-34 -489 494 0
-34 -485 494 0
-34 -494 489 485 0
-35 -494 489 0
-35 494 -489 0
-36 -494 489 0
-36 494 -489 0
-37 -489 494 0
-37 -486 494 0
-37 -494 489 486 0
-38 -494 489 0
-38 494 -489 0
-39 -489 494 0
-39 -487 494 0
-39 -494 489 487 0
-40 -489 494 0
-40 -488 494 0
-40 -494 489 488 0
-44 -494 489 0
-44 494 -489 0
495 0
-1 -500 495 0
-1 -500 496 0
-1 500 -495 -496 0
-2 -500 495 0
-2 -500 497 0
-2 500 -495 -497 0
-3 -500 495 0
-3 -500 498 0
-3 500 -495 -498 0
-4 -500 495 0
-4 -500 499 0
-4 500 -495 -499 0
-5 -500 495 0
-5 500 -495 0
-6 -500 495 0
-6 500 -495 0
-7 -500 495 0
-7 500 -495 0
-8 -500 495 0
-8 500 -495 0
-9 -500 495 0
-9 500 -495 0
-10 -500 495 0
-10 500 -495 0
-41 -500 495 0
-41 500 -495 0
-496 0
-1 -496 501 0
-1 -495 501 0
-1 -501 496 495 0
-2 -501 496 0
-2 501 -496 0
-3 -501 496 0
-3 501 -496 0
-4 -501 496 0
-4 501 -496 0
-5 -501 496 0
-5 -501 497 0
-5 501 -496 -497 0
-6 -501 496 0
-6 -501 498 0
-6 501 -496 -498 0
-7 -501 496 0
-7 -501 499 0
-7 501 -496 -499 0
-8 -501 496 0
-8 501 -496 0
-9 -501 496 0
-9 501 -496 0
-10 -501 496 0
-10 501 -496 0
-41 -501 496 0
-41 501 -496 0
497 0
-1 -502 497 0
-1 502 -497 0
-2 -497 502 0
-2 -495 502 0
-2 -502 497 495 0
-3 -502 497 0
-3 502 -497 0
-4 -502 497 0
-4 502 -497 0
-5 -497 502 0
-5 -496 502 0
-5 -502 497 496 0
-6 -502 497 0
-6 502 -497 0
-7 -502 497 0
-7 502 -497 0
-8 -502 497 0
-8 -502 498 0
-8 502 -497 -498 0
-9 -502 497 0
-9 -502 499 0
-9 502 -497 -499 0
-10 -502 497 0
-10 502 -497 0
-41 -502 497 0
-41 502 -497 0
498 0
-1 -503 498 0
-1 503 -498 0
-2 -503 498 0
-2 503 -498 0
-3 -498 503 0
-3 -495 503 0
-3 -503 498 495 0
-4 -503 498 0
-4 503 -498 0
-5 -503 498 0
-5 503 -498 0
-6 -498 503 0
-6 -496 503 0
-6 -503 498 496 0
-7 -503 498 0
-7 503 -498 0
-8 -498 503 0
-8 -497 503 0
-8 -503 498 497 0
-9 -503 498 0
-9 503 -498 0
-10 -503 498 0
-10 -503 499 0
-10 503 -498 -499 0
-41 -503 498 0
-41 503 -498 0
499 0
-1 -504 499 0
-1 504 -499 0
-2 -504 499 0
-2 504 -499 0
-3 -504 499 0
-3 504 -499 0
-4 -499 504 0
-4 -495 504 0
-4 -504 499 495 0
-5 -504 499 0
-5 504 -499 0
-6 -504 499 0
-6 504 -499 0
-7 -499 504 0
-7 -496 504 0
-7 -504 499 496 0
-8 -504 499 0
-8 504 -499 0
-9 -499 504 0
-9 -497 504 0
-9 -504 499 497 0
-10 -499 504 0
-10 -498 504 0
-10 -504 499 498 0
-41 -504 499 0
-41 504 -499 0
-11 -505 500 0
-11 -505 501 0
-11 505 -500 -501 0
-12 -505 500 0
-12 -505 502 0
-12 505 -500 -502 0
-13 -505 500 0
-13 -505 503 0
-13 505 -500 -503 0
-14 -505 500 0
-14 -505 504 0
-14 505 -500 -504 0
-15 -505 500 0
-15 505 -500 0
-16 -505 500 0
-16 505 -500 0
-17 -505 500 0
-17 505 -500 0
-18 -505 500 0
-18 505 -500 0
-19 -505 500 0
-19 505 -500 0
-20 -505 500 0
-20 505 -500 0
-42 -505 500 0
-42 505 -500 0
-11 -501 506 0
-11 -500 506 0
-11 -506 501 500 0
-12 -506 501 0
-12 506 -501 0
-13 -506 501 0
-13 506 -501 0
-14 -506 501 0
-14 506 -501 0
-15 -506 501 0
-15 -506 502 0
-15 506 -501 -502 0
-16 -506 501 0
-16 -506 503 0
-16 506 -501 -503 0
-17 -506 501 0
-17 -506 504 0
-17 506 -501 -504 0
-18 -506 501 0
-18 506 -501 0
-19 -506 501 0
-19 506 -501 0
-20 -506 501 0
-20 506 -501 0
-42 -506 501 0
-42 506 -501 0
-11 -507 502 0
-11 507 -502 0
-12 -502 507 0
-12 -500 507 0
-12 -507 502 500 0
-13 -507 502 0
-13 507 -502 0
-14 -507 502 0
-14 507 -502 0
-15 -502 507 0
-15 -501 507 0
-15 -507 502 501 0
-16 -507 502 0
-16 507 -502 0
-17 -507 502 0
-17 507 -502 0
-18 -507 502 0
-18 -507 503 0
-18 507 -502 -503 0
-19 -507 502 0
-19 -507 504 0
-19 507 -502 -504 0
-20 -507 502 0
-20 507 -502 0
-42 -507 502 0
-42 507 -502 0
-11 -508 503 0
-11 508 -503 0
-12 -508 503 0
-12 508 -503 0
-13 -503 508 0
-13 -500 508 0
-13 -508 503 500 0
-14 -508 503 0
-14 508 -503 0
-15 -508 503 0
-15 508 -503 0
-16 -503 508 0
-16 -501 508 0
-16 -508 503 501 0
-17 -508 503 0
-17 508 -503 0
-18 -503 508 0
-18 -502 508 0
-18 -508 503 502 0
-19 -508 503 0
-19 508 -503 0
-20 -508 503 0
-20 -508 504 0
-20 508 -503 -504 0
-42 -508 503 0
-42 508 -503 0
-11 -509 504 0
-11 509 -504 0
-12 -509 504 0
-12 509 -504 0
-13 -509 504 0
-13 509 -504 0
-14 -504 509 0
-14 -500 509 0
-14 -509 504 500 0
-15 -509 504 0
-15 509 -504 0
-16 -509 504 0
-16 509 -504 0
-17 -504 509 0
-17 -501 509 0
-17 -509 504 501 0
-18 -509 504 0
-18 509 -504 0
-19 -504 509 0
-19 -502 509 0
-19 -509 504 502 0
-20 -504 509 0
-20 -503 509 0
-20 -509 504 503 0
-42 -509 504 0
-42 509 -504 0
-21 -510 505 0
-21 -510 506 0
-21 510 -505 -506 0
-22 -510 505 0
-22 -510 507 0
-22 510 -505 -507 0
-23 -510 505 0
-23 -510 508 0
-23 510 -505 -508 0
-24 -510 505 0
-24 -510 509 0
-24 510 -505 -509 0
-25 -510 505 0
-25 510 -505 0
-26 -510 505 0
-26 510 -505 0
-27 -510 505 0
-27 510 -505 0
-28 -510 505 0
-28 510 -505 0
-29 -510 505 0
-29 510 -505 0
-30 -510 505 0
-30 510 -505 0
-43 -510 505 0
-43 510 -505 0
-21 -506 511 0
-21 -505 511 0
-21 -511 506 505 0
-22 -511 506 0
-22 511 -506 0
-23 -511 506 0
-23 511 -506 0
-24 -511 506 0
-24 511 -506 0
-25 -511 506 0
-25 -511 507 0
-25 511 -506 -507 0
-26 -511 506 0
-26 -511 508 0
-26 511 -506 -508 0
-27 -511 506 0
-27 -511 509 0
-27 511 -506 -509 0
-28 -511 506 0
-28 511 -506 0
-29 -511 506 0
-29 511 -506 0
-30 -511 506 0
-30 511 -506 0
-43 -511 506 0
-43 511 -506 0
-21 -512 507 0
-21 512 -507 0
-22 -507 512 0
-22 -505 512 0
-22 -512 507 505 0
-23 -512 507 0
-23 512 -507 0
-24 -512 507 0
-24 512 -507 0
-25 -507 512 0
-25 -506 512 0
-25 -512 507 506 0
-26 -512 507 0
-26 512 -507 0
-27 -512 507 0
-27 512 -507 0
-28 -512 507 0
-28 -512 508 0
-28 512 -507 -508 0
-29 -512 507 0
-29 -512 509 0
-29 512 -507 -509 0
-30 -512 507 0
-30 512 -507 0
-43 -512 507 0
-43 512 -507 0
-21 -513 508 0
-21 513 -508 0
-22 -513 508 0
-22 513 -508 0
-23 -508 513 0
-23 -505 513 0
-23 -513 508 505 0
-24 -513 508 0
-24 513 -508 0
-25 -513 508 0
-25 513 -508 0
-26 -508 513 0
-26 -506 513 0
-26 -513 508 506 0
-27 -513 508 0
-27 513 -508 0
-28 -508 513 0
-28 -507 513 0
-28 -513 508 507 0
-29 -513 508 0
-29 513 -508 0
-30 -513 508 0
-30 -513 509 0
-30 513 -508 -509 0
-43 -513 508 0
-43 513 -508 0
-21 -514 509 0
-21 514 -509 0
-22 -514 509 0
-22 514 -509 0
-23 -514 509 0
-23 514 -509 0
-24 -509 514 0
-24 -505 514 0
-24 -514 509 505 0
-25 -514 509 0
-25 514 -509 0
-26 -514 509 0
-26 514 -509 0
-27 -509 514 0
-27 -506 514 0
-27 -514 509 506 0
-28 -514 509 0
-28 514 -509 0
-29 -509 514 0
-29 -507 514 0
-29 -514 509 507 0
-30 -509 514 0
-30 -508 514 0
-30 -514 509 508 0
-43 -514 509 0
-43 514 -509 0
-31 -515 510 0
-31 -515 511 0
-31 515 -510 -511 0
-32 -515 510 0
-32 -515 512 0
-32 515 -510 -512 0
-33 -515 510 0
-33 -515 513 0
-33 515 -510 -513 0
-34 -515 510 0
-34 -515 514 0
-34 515 -510 -514 0
-35 -515 510 0
-35 515 -510 0
-36 -515 510 0
-36 515 -510 0
-37 -515 510 0
-37 515 -510 0
-38 -515 510 0
-38 515 -510 0
-39 -515 510 0
-39 515 -510 0
-40 -515 510 0
-40 515 -510 0
-44 -515 510 0
-44 515 -510 0
-31 -511 516 0
-31 -510 516 0
-31 -516 511 510 0
-32 -516 511 0
-32 516 -511 0
-33 -516 511 0
-33 516 -511 0
-34 -516 511 0
-34 516 -511 0
-35 -516 511 0
-35 -516 512 0
-35 516 -511 -512 0
-36 -516 511 0
-36 -516 513 0
-36 516 -511 -513 0
-37 -516 511 0
-37 -516 514 0
-37 516 -511 -514 0
-38 -516 511 0
-38 516 -511 0
-39 -516 511 0
-39 516 -511 0
-40 -516 511 0
-40 516 -511 0
-44 -516 511 0
-44 516 -511 0
-31 -517 512 0
-31 517 -512 0
-32 -512 517 0
-32 -510 517 0
-32 -517 512 510 0
-33 -517 512 0
-33 517 -512 0
-34 -517 512 0
-34 517 -512 0
-35 -512 517 0
-35 -511 517 0
-35 -517 512 511 0
-36 -517 512 0
-36 517 -512 0
-37 -517 512 0
-37 517 -512 0
-38 -517 512 0
-38 -517 513 0
-38 517 -512 -513 0
-39 -517 512 0
-39 -517 514 0
-39 517 -512 -514 0
-40 -517 512 0
-40 517 -512 0
-44 -517 512 0
-44 517 -512 0
-31 -518 513 0
-31 518 -513 0
-32 -518 513 0
-32 518 -513 0
-33 -513 518 0
-33 -510 518 0
-33 -518 513 510 0
-34 -518 513 0
-34 518 -513 0
-35 -518 513 0
-35 518 -513 0
-36 -513 518 0
-36 -511 518 0
-36 -518 513 511 0
-37 -518 513 0
-37 518 -513 0
-38 -513 518 0
-38 -512 518 0
-38 -518 513 512 0
-39 -518 513 0
-39 518 -513 0
-40 -518 513 0
-40 -518 514 0
-40 518 -513 -514 0
-44 -518 513 0
-44 518 -513 0
-31 -519 514 0
-31 519 -514 0
-32 -519 514 0
-32 519 -514 0
-33 -519 514 0
-33 519 -514 0
-34 -514 519 0
-34 -510 519 0
-34 -519 514 510 0
-35 -519 514 0
-35 519 -514 0
-36 -519 514 0
-36 519 -514 0
-37 -514 519 0
-37 -511 519 0
-37 -519 514 511 0
-38 -519 514 0
-38 519 -514 0
-39 -514 519 0
-39 -512 519 0
-39 -519 514 512 0
-40 -514 519 0
-40 -513 519 0
-40 -519 514 513 0
-44 -519 514 0
-44 519 -514 0
520 0
-1 -525 520 0
-1 -525 521 0
-1 525 -520 -521 0
-2 -525 520 0
-2 -525 522 0
-2 525 -520 -522 0
-3 -525 520 0
-3 -525 523 0
-3 525 -520 -523 0
-4 -525 520 0
-4 -525 524 0
-4 525 -520 -524 0
-5 -525 520 0
-5 525 -520 0
-6 -525 520 0
-6 525 -520 0
-7 -525 520 0
-7 525 -520 0
-8 -525 520 0
-8 525 -520 0
-9 -525 520 0
-9 525 -520 0
-10 -525 520 0
-10 525 -520 0
-41 -525 520 0
-41 525 -520 0
521 0
-1 -521 526 0
-1 -520 526 0
-1 -526 521 520 0
-2 -526 521 0
-2 526 -521 0
-3 -526 521 0
-3 526 -521 0
-4 -526 521 0
-4 526 -521 0
-5 -526 521 0
-5 -526 522 0
-5 526 -521 -522 0
-6 -526 521 0
-6 -526 523 0
-6 526 -521 -523 0
-7 -526 521 0
-7 -526 524 0
-7 526 -521 -524 0
-8 -526 521 0
-8 526 -521 0
-9 -526 521 0
-9 526 -521 0
-10 -526 521 0
-10 526 -521 0
-41 -526 521 0
-41 526 -521 0
-522 0
-1 -527 522 0
-1 527 -522 0
-2 -522 527 0
-2 -520 527 0
-2 -527 522 520 0
-3 -527 522 0
-3 527 -522 0
-4 -527 522 0
-4 527 -522 0
-5 -522 527 0
-5 -521 527 0
-5 -527 522 521 0
-6 -527 522 0
-6 527 -522 0
-7 -527 522 0
-7 527 -522 0
-8 -527 522 0
-8 -527 523 0
-8 527 -522 -523 0
-9 -527 522 0
-9 -527 524 0
-9 527 -522 -524 0
-10 -527 522 0
-10 527 -522 0
-41 -527 522 0
-41 527 -522 0
-523 0
-1 -528 523 0
-1 528 -523 0
-2 -528 523 0
-2 528 -523 0
-3 -523 528 0
-3 -520 528 0
-3 -528 523 520 0
-4 -528 523 0
-4 528 -523 0
-5 -528 523 0
-5 528 -523 0
-6 -523 528 0
-6 -521 528 0
-6 -528 523 521 0
-7 -528 523 0
-7 528 -523 0
-8 -523 528 0
-8 -522 528 0
-8 -528 523 522 0
-9 -528 523 0
-9 528 -523 0
-10 -528 523 0
-10 -528 524 0
-10 528 -523 -524 0
-41 -528 523 0
-41 528 -523 0
-524 0
-1 -529 524 0
-1 529 -524 0
-2 -529 524 0
-2 529 -524 0
-3 -529 524 0
-3 529 -524 0
-4 -524 529 0
-4 -520 529 0
-4 -529 524 520 0
-5 -529 524 0
-5 529 -524 0
-6 -529 524 0
-6 529 -524 0
-7 -524 529 0
-7 -521 529 0
-7 -529 524 521 0
-8 -529 524 0
-8 529 -524 0
-9 -524 529 0
-9 -522 529 0
-9 -529 524 522 0
-10 -524 529 0
-10 -523 529 0
-10 -529 524 523 0
-41 -529 524 0
-41 529 -524 0
-11 -530 525 0
-11 -530 526 0
-11 530 -525 -526 0
-12 -530 525 0
-12 -530 527 0
-12 530 -525 -527 0
-13 -530 525 0
-13 -530 528 0
-13 530 -525 -528 0
-14 -530 525 0
-14 -530 529 0
-14 530 -525 -529 0
-15 -530 525 0
-15 530 -525 0
-16 -530 525 0
-16 530 -525 0
-17 -530 525 0
-17 530 -525 0
-18 -530 525 0
-18 530 -525 0
-19 -530 525 0
-19 530 -525 0
-20 -530 525 0
-20 530 -525 0
-42 -530 525 0
-42 530 -525 0
-11 -526 531 0
-11 -525 531 0
-11 -531 526 525 0
-12 -531 526 0
-12 531 -526 0
-13 -531 526 0
-13 531 -526 0
-14 -531 526 0
-14 531 -526 0
-15 -531 526 0
-15 -531 527 0
-15 531 -526 -527 0
-16 -531 526 0
-16 -531 528 0
-16 531 -526 -528 0
-17 -531 526 0
-17 -531 529 0
-17 531 -526 -529 0
-18 -531 526 0
-18 531 -526 0
-19 -531 526 0
-19 531 -526 0
-20 -531 526 0
-20 531 -526 0
-42 -531 526 0
-42 531 -526 0
-11 -532 527 0
-11 532 -527 0
-12 -527 532 0
-12 -525 532 0
-12 -532 527 525 0
-13 -532 527 0
-13 532 -527 0
-14 -532 527 0
-14 532 -527 0
-15 -527 532 0
-15 -526 532 0
-15 -532 527 526 0
-16 -532 527 0
-16 532 -527 0
-17 -532 527 0
-17 532 -527 0
-18 -532 527 0
-18 -532 528 0
-18 532 -527 -528 0
-19 -532 527 0
-19 -532 529 0
-19 532 -527 -529 0
-20 -532 527 0
-20 532 -527 0
-42 -532 527 0
-42 532 -527 0
-11 -533 528 0
-11 533 -528 0
-12 -533 528 0
-12 533 -528 0
-13 -528 533 0
-13 -525 533 0
-13 -533 528 525 0
-14 -533 528 0
-14 533 -528 0
-15 -533 528 0
-15 533 -528 0
-16 -528 533 0
-16 -526 533 0
-16 -533 528 526 0
-17 -533 528 0
-17 533 -528 0
-18 -528 533 0
-18 -527 533 0
-18 -533 528 527 0
-19 -533 528 0
-19 533 -528 0
-20 -533 528 0
-20 -533 529 0
-20 533 -528 -529 0
-42 -533 528 0
-42 533 -528 0
-11 -534 529 0
-11 534 -529 0
-12 -534 529 0
-12 534 -529 0
-13 -534 529 0
-13 534 -529 0
-14 -529 534 0
-14 -525 534 0
-14 -534 529 525 0
-15 -534 529 0
-15 534 -529 0
-16 -534 529 0
-16 534 -529 0
-17 -529 534 0
-17 -526 534 0
-17 -534 529 526 0
-18 -534 529 0
-18 534 -529 0
-19 -529 534 0
-19 -527 534 0
-19 -534 529 527 0
-20 -529 534 0
-20 -528 534 0
-20 -534 529 528 0
-42 -534 529 0
-42 534 -529 0
-21 -535 530 0
-21 -535 531 0
-21 535 -530 -531 0
-22 -535 530 0
-22 -535 532 0
-22 535 -530 -532 0
-23 -535 530 0
-23 -535 533 0
-23 535 -530 -533 0
-24 -535 530 0
-24 -535 534 0
-24 535 -530 -534 0
-25 -535 530 0
-25 535 -530 0
-26 -535 530 0
-26 535 -530 0
-27 -535 530 0
-27 535 -530 0
-28 -535 530 0
-28 535 -530 0
-29 -535 530 0
-29 535 -530 0
-30 -535 530 0
-30 535 -530 0
-43 -535 530 0
-43 535 -530 0
-21 -531 536 0
-21 -530 536 0
-21 -536 531 530 0
-22 -536 531 0
-22 536 -531 0
-23 -536 531 0
-23 536 -531 0
-24 -536 531 0
-24 536 -531 0
-25 -536 531 0
-25 -536 532 0
-25 536 -531 -532 0
-26 -536 531 0
-26 -536 533 0
-26 536 -531 -533 0
-27 -536 531 0
-27 -536 534 0
-27 536 -531 -534 0
-28 -536 531 0
-28 536 -531 0
-29 -536 531 0
-29 536 -531 0
-30 -536 531 0
-30 536 -531 0
-43 -536 531 0
-43 536 -531 0
-21 -537 532 0
-21 537 -532 0
-22 -532 537 0
-22 -530 537 0
-22 -537 532 530 0
-23 -537 532 0
-23 537 -532 0
-24 -537 532 0
-24 537 -532 0
-25 -532 537 0
-25 -531 537 0
-25 -537 532 531 0
-26 -537 532 0
-26 537 -532 0
-27 -537 532 0
-27 537 -532 0
-28 -537 532 0
-28 -537 533 0
-28 537 -532 -533 0
-29 -537 532 0
-29 -537 534 0
-29 537 -532 -534 0
-30 -537 532 0
-30 537 -532 0
-43 -537 532 0
-43 537 -532 0
-21 -538 533 0
-21 538 -533 0
-22 -538 533 0
-22 538 -533 0
-23 -533 538 0
-23 -530 538 0
-23 -538 533 530 0
-24 -538 533 0
-24 538 -533 0
-25 -538 533 0
-25 538 -533 0
-26 -533 538 0
-26 -531 538 0
-26 -538 533 531 0
-27 -538 533 0
-27 538 -533 0
-28 -533 538 0
-28 -532 538 0
-28 -538 533 532 0
-29 -538 533 0
-29 538 -533 0
-30 -538 533 0
-30 -538 534 0
-30 538 -533 -534 0
-43 -538 533 0
-43 538 -533 0
-21 -539 534 0
-21 539 -534 0
-22 -539 534 0
-22 539 -534 0
-23 -539 534 0
-23 539 -534 0
-24 -534 539 0
-24 -530 539 0
-24 -539 534 530 0
-25 -539 534 0
-25 539 -534 0
-26 -539 534 0
-26 539 -534 0
-27 -534 539 0
-27 -531 539 0
-27 -539 534 531 0
-28 -539 534 0
-28 539 -534 0
-29 -534 539 0
-29 -532 539 0
-29 -539 534 532 0
-30 -534 539 0
-30 -533 539 0
-30 -539 534 533 0
-43 -539 534 0
-43 539 -534 0
-31 -540 535 0
-31 -540 536 0
-31 540 -535 -536 0
-32 -540 535 0
-32 -540 537 0
-32 540 -535 -537 0
-33 -540 535 0
-33 -540 538 0
-33 540 -535 -538 0
-34 -540 535 0
-34 -540 539 0
-34 540 -535 -539 0
-35 -540 535 0
-35 540 -535 0
-36 -540 535 0
-36 540 -535 0
-37 -540 535 0
-37 540 -535 0
-38 -540 535 0
-38 540 -535 0
-39 -540 535 0
-39 540 -535 0
-40 -540 535 0
-40 540 -535 0
-44 -540 535 0
-44 540 -535 0
-31 -536 541 0
-31 -535 541 0
-31 -541 536 535 0
-32 -541 536 0
-32 541 -536 0
-33 -541 536 0
-33 541 -536 0
-34 -541 536 0
-34 541 -536 0
-35 -541 536 0
-35 -541 537 0
-35 541 -536 -537 0
-36 -541 536 0
-36 -541 538 0
-36 541 -536 -538 0
-37 -541 536 0
-37 -541 539 0
-37 541 -536 -539 0
-38 -541 536 0
-38 541 -536 0
-39 -541 536 0
-39 541 -536 0
-40 -541 536 0
-40 541 -536 0
-44 -541 536 0
-44 541 -536 0
-31 -542 537 0
-31 542 -537 0
-32 -537 542 0
-32 -535 542 0
-32 -542 537 535 0
-33 -542 537 0
-33 542 -537 0
-34 -542 537 0
-34 542 -537 0
-35 -537 542 0
-35 -536 542 0
-35 -542 537 536 0
-36 -542 537 0
-36 542 -537 0
-37 -542 537 0
-37 542 -537 0
-38 -542 537 0
-38 -542 538 0
-38 542 -537 -538 0
-39 -542 537 0
-39 -542 539 0
-39 542 -537 -539 0
-40 -542 537 0
-40 542 -537 0
-44 -542 537 0
-44 542 -537 0
-31 -543 538 0
-31 543 -538 0
-32 -543 538 0
-32 543 -538 0
-33 -538 543 0
-33 -535 543 0
-33 -543 538 535 0
-34 -543 538 0
-34 543 -538 0
-35 -543 538 0
-35 543 -538 0
-36 -538 543 0
-36 -536 543 0
-36 -543 538 536 0
-37 -543 538 0
-37 543 -538 0
-38 -538 543 0
-38 -537 543 0
-38 -543 538 537 0
-39 -543 538 0
-39 543 -538 0
-40 -543 538 0
-40 -543 539 0
-40 543 -538 -539 0
-44 -543 538 0
-44 543 -538 0
-31 -544 539 0
-31 544 -539 0
-32 -544 539 0
-32 544 -539 0
-33 -544 539 0
-33 544 -539 0
-34 -539 544 0
-34 -535 544 0
-34 -544 539 535 0
-35 -544 539 0
-35 544 -539 0
-36 -544 539 0
-36 544 -539 0
-37 -539 544 0
-37 -536 544 0
-37 -544 539 536 0
-38 -544 539 0
-38 544 -539 0
-39 -539 544 0
-39 -537 544 0
-39 -544 539 537 0
-40 -539 544 0
-40 -538 544 0
-40 -544 539 538 0
-44 -544 539 0
-44 544 -539 0
545 0
-1 -550 545 0
-1 -550 546 0
-1 550 -545 -546 0
-2 -550 545 0
-2 -550 547 0
-2 550 -545 -547 0
-3 -550 545 0
-3 -550 548 0
-3 550 -545 -548 0
-4 -550 545 0
-4 -550 549 0
-4 550 -545 -549 0
-5 -550 545 0
-5 550 -545 0
-6 -550 545 0
-6 550 -545 0
-7 -550 545 0
-7 550 -545 0
-8 -550 545 0
-8 550 -545 0
-9 -550 545 0
-9 550 -545 0
-10 -550 545 0
-10 550 -545 0
-41 -550 545 0
-41 550 -545 0
546 0
-1 -546 551 0
-1 -545 551 0
-1 -551 546 545 0
-2 -551 546 0
-2 551 -546 0
-3 -551 546 0
-3 551 -546 0
-4 -551 546 0
-4 551 -546 0
-5 -551 546 0
-5 -551 547 0
-5 551 -546 -547 0
-6 -551 546 0
-6 -551 548 0
-6 551 -546 -548 0
-7 -551 546 0
-7 -551 549 0
-7 551 -546 -549 0
-8 -551 546 0
-8 551 -546 0
-9 -551 546 0
-9 551 -546 0
-10 -551 546 0
-10 551 -546 0
-41 -551 546 0
-41 551 -546 0
-547 0
-1 -552 547 0
-1 552 -547 0
-2 -547 552 0
-2 -545 552 0
-2 -552 547 545 0
-3 -552 547 0
-3 552 -547 0
-4 -552 547 0
-4 552 -547 0
-5 -547 552 0
-5 -546 552 0
-5 -552 547 546 0
-6 -552 547 0
-6 552 -547 0
-7 -552 547 0
-7 552 -547 0
-8 -552 547 0
-8 -552 548 0
-8 552 -547 -548 0
-9 -552 547 0
-9 -552 549 0
-9 552 -547 -549 0
-10 -552 547 0
-10 552 -547 0
-41 -552 547 0
-41 552 -547 0
-548 0
-1 -553 548 0
-1 553 -548 0
-2 -553 548 0
-2 553 -548 0
-3 -548 553 0
-3 -545 553 0
-3 -553 548 545 0
-4 -553 548 0
-4 553 -548 0
-5 -553 548 0
-5 553 -548 0
-6 -548 553 0
-6 -546 553 0
-6 -553 548 546 0
-7 -553 548 0
-7 553 -548 0
-8 -548 553 0
-8 -547 553 0
-8 -553 548 547 0
-9 -553 548 0
-9 553 -548 0
-10 -553 548 0
-10 -553 549 0
-10 553 -548 -549 0
-41 -553 548 0
-41 553 -548 0
549 0
-1 -554 549 0
-1 554 -549 0
-2 -554 549 0
-2 554 -549 0
-3 -554 549 0
-3 554 -549 0
-4 -549 554 0
-4 -545 554 0
-4 -554 549 545 0
-5 -554 549 0
-5 554 -549 0
-6 -554 549 0
-6 554 -549 0
-7 -549 554 0
-7 -546 554 0
-7 -554 549 546 0
-8 -554 549 0
-8 554 -549 0
-9 -549 554 0
-9 -547 554 0
-9 -554 549 547 0
-10 -549 554 0
-10 -548 554 0
-10 -554 549 548 0
-41 -554 549 0
-41 554 -549 0
-11 -555 550 0
-11 -555 551 0
-11 555 -550 -551 0
-12 -555 550 0
-12 -555 552 0
-12 555 -550 -552 0
-13 -555 550 0
-13 -555 553 0
-13 555 -550 -553 0
-14 -555 550 0
-14 -555 554 0
-14 555 -550 -554 0
-15 -555 550 0
-15 555 -550 0
-16 -555 550 0
-16 555 -550 0
-17 -555 550 0
-17 555 -550 0
-18 -555 550 0
-18 555 -550 0
-19 -555 550 0
-19 555 -550 0
-20 -555 550 0
-20 555 -550 0
-42 -555 550 0
-42 555 -550 0
-11 -551 556 0
-11 -550 556 0
-11 -556 551 550 0
-12 -556 551 0
-12 556 -551 0
-13 -556 551 0
-13 556 -551 0
-14 -556 551 0
-14 556 -551 0
-15 -556 551 0
-15 -556 552 0
-15 556 -551 -552 0
-16 -556 551 0
-16 -556 553 0
-16 556 -551 -553 0
-17 -556 551 0
-17 -556 554 0
-17 556 -551 -554 0
-18 -556 551 0
-18 556 -551 0
-19 -556 551 0
-19 556 -551 0
-20 -556 551 0
-20 556 -551 0
-42 -556 551 0
-42 556 -551 0
-11 -557 552 0
-11 557 -552 0
-12 -552 557 0
-12 -550 557 0
-12 -557 552 550 0
-13 -557 552 0
-13 557 -552 0
-14 -557 552 0
-14 557 -552 0
-15 -552 557 0
-15 -551 557 0
-15 -557 552 551 0
-16 -557 552 0
-16 557 -552 0
-17 -557 552 0
-17 557 -552 0
-18 -557 552 0
-18 -557 553 0
-18 557 -552 -553 0
-19 -557 552 0
-19 -557 554 0
-19 557 -552 -554 0
-20 -557 552 0
-20 557 -552 0
-42 -557 552 0
-42 557 -552 0
-11 -558 553 0
-11 558 -553 0
-12 -558 553 0
-12 558 -553 0
-13 -553 558 0
-13 -550 558 0
-13 -558 553 550 0
-14 -558 553 0
-14 558 -553 0
-15 -558 553 0
-15 558 -553 0
-16 -553 558 0
-16 -551 558 0
-16 -558 553 551 0
-17 -558 553 0
-17 558 -553 0
-18 -553 558 0
-18 -552 558 0
-18 -558 553 552 0
-19 -558 553 0
-19 558 -553 0
-20 -558 553 0
-20 -558 554 0
-20 558 -553 -554 0
-42 -558 553 0
-42 558 -553 0
-11 -559 554 0
-11 559 -554 0
-12 -559 554 0
-12 559 -554 0
-13 -559 554 0
-13 559 -554 0
-14 -554 559 0
-14 -550 559 0
-14 -559 554 550 0
-15 -559 554 0
-15 559 -554 0
-16 -559 554 0
-16 559 -554 0
-17 -554 559 0
-17 -551 559 0
-17 -559 554 551 0
-18 -559 554 0
-18 559 -554 0
-19 -554 559 0
-19 -552 559 0
-19 -559 554 552 0
-20 -554 559 0
-20 -553 559 0
-20 -559 554 553 0
-42 -559 554 0
-42 559 -554 0
-21 -560 555 0
-21 -560 556 0
-21 560 -555 -556 0
-22 -560 555 0
-22 -560 557 0
-22 560 -555 -557 0
-23 -560 555 0
-23 -560 558 0
-23 560 -555 -558 0
-24 -560 555 0
-24 -560 559 0
-24 560 -555 -559 0
-25 -560 555 0
-25 560 -555 0
-26 -560 555 0
-26 560 -555 0
-27 -560 555 0
-27 560 -555 0
-28 -560 555 0
-28 560 -555 0
-29 -560 555 0
-29 560 -555 0
-30 -560 555 0
-30 560 -555 0
-43 -560 555 0
-43 560 -555 0
-21 -556 561 0
-21 -555 561 0
-21 -561 556 555 0
-22 -561 556 0
-22 561 -556 0
-23 -561 556 0
-23 561 -556 0
-24 -561 556 0
-24 561 -556 0
-25 -561 556 0
-25 -561 557 0
-25 561 -556 -557 0
-26 -561 556 0
-26 -561 558 0
-26 561 -556 -558 0
-27 -561 556 0
-27 -561 559 0
-27 561 -556 -559 0
-28 -561 556 0
-28 561 -556 0
-29 -561 556 0
-29 561 -556 0
-30 -561 556 0
-30 561 -556 0
-43 -561 556 0
-43 561 -556 0
-21 -562 557 0
-21 562 -557 0
-22 -557 562 0
-22 -555 562 0
-22 -562 557 555 0
-23 -562 557 0
-23 562 -557 0
-24 -562 557 0
-24 562 -557 0
-25 -557 562 0
-25 -556 562 0
-25 -562 557 556 0
-26 -562 557 0
-26 562 -557 0
-27 -562 557 0
-27 562 -557 0
-28 -562 557 0
-28 -562 558 0
-28 562 -557 -558 0
-29 -562 557 0
-29 -562 559 0
-29 562 -557 -559 0
-30 -562 557 0
-30 562 -557 0
-43 -562 557 0
-43 562 -557 0
-21 -563 558 0
-21 563 -558 0
-22 -563 558 0
-22 563 -558 0
-23 -558 563 0
-23 -555 563 0
-23 -563 558 555 0
-24 -563 558 0
-24 563 -558 0
-25 -563 558 0
-25 563 -558 0
-26 -558 563 0
-26 -556 563 0
-26 -563 558 556 0
-27 -563 558 0
-27 563 -558 0
-28 -558 563 0
-28 -557 563 0
-28 -563 558 557 0
-29 -563 558 0
-29 563 -558 0
-30 -563 558 0
-30 -563 559 0
-30 563 -558 -559 0
-43 -563 558 0
-43 563 -558 0
-21 -564 559 0
-21 564 -559 0
-22 -564 559 0
-22 564 -559 0
-23 -564 559 0
-23 564 -559 0
-24 -559 564 0
-24 -555 564 0
-24 -564 559 555 0
-25 -564 559 0
-25 564 -559 0
-26 -564 559 0
-26 564 -559 0
-27 -559 564 0
-27 -556 564 0
-27 -564 559 556 0
-28 -564 559 0
-28 564 -559 0
-29 -559 564 0
-29 -557 564 0
-29 -564 559 557 0
-30 -559 564 0
-30 -558 564 0
-30 -564 559 558 0
-43 -564 559 0
-43 564 -559 0
-31 -565 560 0
-31 -565 561 0
-31 565 -560 -561 0
-32 -565 560 0
-32 -565 562 0
-32 565 -560 -562 0
-33 -565 560 0
-33 -565 563 0
-33 565 -560 -563 0
-34 -565 560 0
-34 -565 564 0
-34 565 -560 -564 0
-35 -565 560 0
-35 565 -560 0
-36 -565 560 0
-36 565 -560 0
-37 -565 560 0
-37 565 -560 0
-38 -565 560 0
-38 565 -560 0
-39 -565 560 0
-39 565 -560 0
-40 -565 560 0
-40 565 -560 0
-44 -565 560 0
-44 565 -560 0
-31 -561 566 0
-31 -560 566 0
-31 -566 561 560 0
-32 -566 561 0
-32 566 -561 0
-33 -566 561 0
-33 566 -561 0
-34 -566 561 0
-34 566 -561 0
-35 -566 561 0
-35 -566 562 0
-35 566 -561 -562 0
-36 -566 561 0
-36 -566 563 0
-36 566 -561 -563 0
-37 -566 561 0
-37 -566 564 0
-37 566 -561 -564 0
-38 -566 561 0
-38 566 -561 0
-39 -566 561 0
-39 566 -561 0
-40 -566 561 0
-40 566 -561 0
-44 -566 561 0
-44 566 -561 0
-31 -567 562 0
-31 567 -562 0
-32 -562 567 0
-32 -560 567 0
-32 -567 562 560 0
-33 -567 562 0
-33 567 -562 0
-34 -567 562 0
-34 567 -562 0
-35 -562 567 0
-35 -561 567 0
-35 -567 562 561 0
-36 -567 562 0
-36 567 -562 0
-37 -567 562 0
-37 567 -562 0
-38 -567 562 0
-38 -567 563 0
-38 567 -562 -563 0
-39 -567 562 0
-39 -567 564 0
-39 567 -562 -564 0
-40 -567 562 0
-40 567 -562 0
-44 -567 562 0
-44 567 -562 0
-31 -568 563 0
-31 568 -563 0
-32 -568 563 0
-32 568 -563 0
-33 -563 568 0
-33 -560 568 0
-33 -568 563 560 0
-34 -568 563 0
-34 568 -563 0
-35 -568 563 0
-35 568 -563 0
-36 -563 568 0
-36 -561 568 0
-36 -568 563 561 0
-37 -568 563 0
-37 568 -563 0
-38 -563 568 0
-38 -562 568 0
-38 -568 563 562 0
-39 -568 563 0
-39 568 -563 0
-40 -568 563 0
-40 -568 564 0
-40 568 -563 -564 0
-44 -568 563 0
-44 568 -563 0
-31 -569 564 0
-31 569 -564 0
-32 -569 564 0
-32 569 -564 0
-33 -569 564 0
-33 569 -564 0
-34 -564 569 0
-34 -560 569 0
-34 -569 564 560 0
-35 -569 564 0
-35 569 -564 0
-36 -569 564 0
-36 569 -564 0
-37 -564 569 0
-37 -561 569 0
-37 -569 564 561 0
-38 -569 564 0
-38 569 -564 0
-39 -564 569 0
-39 -562 569 0
-39 -569 564 562 0
-40 -564 569 0
-40 -563 569 0
-40 -569 564 563 0
-44 -569 564 0
-44 569 -564 0
570 0
-1 -575 570 0
-1 -575 571 0
-1 575 -570 -571 0
-2 -575 570 0
-2 -575 572 0
-2 575 -570 -572 0
-3 -575 570 0
-3 -575 573 0
-3 575 -570 -573 0
-4 -575 570 0
-4 -575 574 0
-4 575 -570 -574 0
-5 -575 570 0
-5 575 -570 0
-6 -575 570 0
-6 575 -570 0
-7 -575 570 0
-7 575 -570 0
-8 -575 570 0
-8 575 -570 0
-9 -575 570 0
-9 575 -570 0
-10 -575 570 0
-10 575 -570 0
-41 -575 570 0
-41 575 -570 0
571 0
-1 -571 576 0
-1 -570 576 0
-1 -576 571 570 0
-2 -576 571 0
-2 576 -571 0
-3 -576 571 0
-3 576 -571 0
-4 -576 571 0
-4 576 -571 0
-5 -576 571 0
-5 -576 572 0
-5 576 -571 -572 0
-6 -576 571 0
-6 -576 573 0
-6 576 -571 -573 0
-7 -576 571 0
-7 -576 574 0
-7 576 -571 -574 0
-8 -576 571 0
-8 576 -571 0
-9 -576 571 0
-9 576 -571 0
-10 -576 571 0
-10 576 -571 0
-41 -576 571 0
-41 576 -571 0
-572 0
-1 -577 572 0
-1 577 -572 0
-2 -572 577 0
-2 -570 577 0
-2 -577 572 570 0
-3 -577 572 0
-3 577 -572 0
-4 -577 572 0
-4 577 -572 0
-5 -572 577 0
-5 -571 577 0
-5 -577 572 571 0
-6 -577 572 0
-6 577 -572 0
-7 -577 572 0
-7 577 -572 0
-8 -577 572 0
-8 -577 573 0
-8 577 -572 -573 0
-9 -577 572 0
-9 -577 574 0
-9 577 -572 -574 0
-10 -577 572 0
-10 577 -572 0
-41 -577 572 0
-41 577 -572 0
573 0
-1 -578 573 0
-1 578 -573 0
-2 -578 573 0
-2 578 -573 0
-3 -573 578 0
-3 -570 578 0
-3 -578 573 570 0
-4 -578 573 0
-4 578 -573 0
-5 -578 573 0
-5 578 -573 0
-6 -573 578 0
-6 -571 578 0
-6 -578 573 571 0
-7 -578 573 0
-7 578 -573 0
-8 -573 578 0
-8 -572 578 0
-8 -578 573 572 0
-9 -578 573 0
-9 578 -573 0
-10 -578 573 0
-10 -578 574 0
-10 578 -573 -574 0
-41 -578 573 0
-41 578 -573 0
-574 0
-1 -579 574 0
-1 579 -574 0
-2 -579 574 0
-2 579 -574 0
-3 -579 574 0
-3 579 -574 0
-4 -574 579 0
-4 -570 579 0
-4 -579 574 570 0
-5 -579 574 0
-5 579 -574 0
-6 -579 574 0
-6 579 -574 0
-7 -574 579 0
-7 -571 579 0
-7 -579 574 571 0
-8 -579 574 0
-8 579 -574 0
-9 -574 579 0
-9 -572 579 0
-9 -579 574 572 0
-10 -574 579 0
-10 -573 579 0
-10 -579 574 573 0
-41 -579 574 0
-41 579 -574 0
-11 -580 575 0
-11 -580 576 0
-11 580 -575 -576 0
-12 -580 575 0
-12 -580 577 0
-12 580 -575 -577 0
-13 -580 575 0
-13 -580 578 0
-13 580 -575 -578 0
-14 -580 575 0
-14 -580 579 0
-14 580 -575 -579 0
-15 -580 575 0
-15 580 -575 0
-16 -580 575 0
-16 580 -575 0
-17 -580 575 0
-17 580 -575 0
-18 -580 575 0
-18 580 -575 0
-19 -580 575 0
-19 580 -575 0
-20 -580 575 0
-20 580 -575 0
-42 -580 575 0
-42 580 -575 0
-11 -576 581 0
-11 -575 581 0
-11 -581 576 575 0
-12 -581 576 0
-12 581 -576 0
-13 -581 576 0
-13 581 -576 0
-14 -581 576 0
-14 581 -576 0
-15 -581 576 0
-15 -581 577 0
-15 581 -576 -577 0
-16 -581 576 0
-16 -581 578 0
-16 581 -576 -578 0
-17 -581 576 0
-17 -581 579 0
-17 581 -576 -579 0
-18 -581 576 0
-18 581 -576 0
-19 -581 576 0
-19 581 -576 0
-20 -581 576 0
-20 581 -576 0
-42 -581 576 0
-42 581 -576 0
-11 -582 577 0
-11 582 -577 0
-12 -577 582 0
-12 -575 582 0
-12 -582 577 575 0
-13 -582 577 0
-13 582 -577 0
-14 -582 577 0
-14 582 -577 0
-15 -577 582 0
-15 -576 582 0
-15 -582 577 576 0
-16 -582 577 0
-16 582 -577 0
-17 -582 577 0
-17 582 -577 0
-18 -582 577 0
-18 -582 578 0
-18 582 -577 -578 0
-19 -582 577 0
-19 -582 579 0
-19 582 -577 -579 0
-20 -582 577 0
-20 582 -577 0
-42 -582 577 0
-42 582 -577 0
-11 -583 578 0
-11 583 -578 0
-12 -583 578 0
-12 583 -578 0
-13 -578 583 0
-13 -575 583 0
-13 -583 578 575 0
-14 -583 578 0
-14 583 -578 0
-15 -583 578 0
-15 583 -578 0
-16 -578 583 0
-16 -576 583 0
-16 -583 578 576 0
-17 -583 578 0
-17 583 -578 0
-18 -578 583 0
-18 -577 583 0
-18 -583 578 577 0
-19 -583 578 0
-19 583 -578 0
-20 -583 578 0
-20 -583 579 0
-20 583 -578 -579 0
-42 -583 578 0
-42 583 -578 0
-11 -584 579 0
-11 584 -579 0
-12 -584 579 0
-12 584 -579 0
-13 -584 579 0
-13 584 -579 0
-14 -579 584 0
-14 -575 584 0
-14 -584 579 575 0
-15 -584 579 0
-15 584 -579 0
-16 -584 579 0
-16 584 -579 0
-17 -579 584 0
-17 -576 584 0
-17 -584 579 576 0
-18 -584 579 0
-18 584 -579 0
-19 -579 584 0
-19 -577 584 0
-19 -584 579 577 0
-20 -579 584 0
-20 -578 584 0
-20 -584 579 578 0
-42 -584 579 0
-42 584 -579 0
-21 -585 580 0
-21 -585 581 0
-21 585 -580 -581 0
-22 -585 580 0
-22 -585 582 0
-22 585 -580 -582 0
-23 -585 580 0
-23 -585 583 0
-23 585 -580 -583 0
-24 -585 580 0
-24 -585 584 0
-24 585 -580 -584 0
-25 -585 580 0
-25 585 -580 0
-26 -585 580 0
-26 585 -580 0
-27 -585 580 0
-27 585 -580 0
-28 -585 580 0
-28 585 -580 0
-29 -585 580 0
-29 585 -580 0
-30 -585 580 0
-30 585 -580 0
-43 -585 580 0
-43 585 -580 0
-21 -581 586 0
-21 -580 586 0
-21 -586 581 580 0
-22 -586 581 0
-22 586 -581 0
-23 -586 581 0
-23 586 -581 0
-24 -586 581 0
-24 586 -581 0
-25 -586 581 0
-25 -586 582 0
-25 586 -581 -582 0
-26 -586 581 0
-26 -586 583 0
-26 586 -581 -583 0
-27 -586 581 0
-27 -586 584 0
-27 586 -581 -584 0
-28 -586 581 0
-28 586 -581 0
-29 -586 581 0
-29 586 -581 0
-30 -586 581 0
-30 586 -581 0
-43 -586 581 0
-43 586 -581 0
-21 -587 582 0
-21 587 -582 0
-22 -582 587 0
-22 -580 587 0
-22 -587 582 580 0
-23 -587 582 0
-23 587 -582 0
-24 -587 582 0
-24 587 -582 0
-25 -582 587 0
-25 -581 587 0
-25 -587 582 581 0
-26 -587 582 0
-26 587 -582 0
-27 -587 582 0
-27 587 -582 0
-28 -587 582 0
-28 -587 583 0
-28 587 -582 -583 0
-29 -587 582 0
-29 -587 584 0
-29 587 -582 -584 0
-30 -587 582 0
-30 587 -582 0
-43 -587 582 0
-43 587 -582 0
-21 -588 583 0
-21 588 -583 0
-22 -588 583 0
-22 588 -583 0
-23 -583 588 0
-23 -580 588 0
-23 -588 583 580 0
-24 -588 583 0
-24 588 -583 0
-25 -588 583 0
-25 588 -583 0
-26 -583 588 0
-26 -581 588 0
-26 -588 583 581 0
-27 -588 583 0
-27 588 -583 0
-28 -583 588 0
-28 -582 588 0
-28 -588 583 582 0
-29 -588 583 0
-29 588 -583 0
-30 -588 583 0
-30 -588 584 0
-30 588 -583 -584 0
-43 -588 583 0
-43 588 -583 0
-21 -589 584 0
-21 589 -584 0
-22 -589 584 0
-22 589 -584 0
-23 -589 584 0
-23 589 -584 0
-24 -584 589 0
-24 -580 589 0
-24 -589 584 580 0
-25 -589 584 0
-25 589 -584 0
-26 -589 584 0
-26 589 -584 0
-27 -584 589 0
-27 -581 589 0
-27 -589 584 581 0
-28 -589 584 0
-28 589 -584 0
-29 -584 589 0
-29 -582 589 0
-29 -589 584 582 0
-30 -584 589 0
-30 -583 589 0
-30 -589 584 583 0
-43 -589 584 0
-43 589 -584 0
-31 -590 585 0
-31 -590 586 0
-31 590 -585 -586 0
-32 -590 585 0
-32 -590 587 0
-32 590 -585 -587 0
-33 -590 585 0
-33 -590 588 0
-33 590 -585 -588 0
-34 -590 585 0
-34 -590 589 0
-34 590 -585 -589 0
-35 -590 585 0
-35 590 -585 0
-36 -590 585 0
-36 590 -585 0
-37 -590 585 0
-37 590 -585 0
-38 -590 585 0
-38 590 -585 0
-39 -590 585 0
-39 590 -585 0
-40 -590 585 0
-40 590 -585 0
-44 -590 585 0
-44 590 -585 0
-31 -586 591 0
-31 -585 591 0
-31 -591 586 585 0
-32 -591 586 0
-32 591 -586 0
-33 -591 586 0
-33 591 -586 0
-34 -591 586 0
-34 591 -586 0
-35 -591 586 0
-35 -591 587 0
-35 591 -586 -587 0
-36 -591 586 0
-36 -591 588 0
-36 591 -586 -588 0
-37 -591 586 0
-37 -591 589 0
-37 591 -586 -589 0
-38 -591 586 0
-38 591 -586 0
-39 -591 586 0
-39 591 -586 0
-40 -591 586 0
-40 591 -586 0
-44 -591 586 0
-44 591 -586 0
-31 -592 587 0
-31 592 -587 0
-32 -587 592 0
-32 -585 592 0
-32 -592 587 585 0
-33 -592 587 0
-33 592 -587 0
-34 -592 587 0
-34 592 -587 0
-35 -587 592 0
-35 -586 592 0
-35 -592 587 586 0
-36 -592 587 0
-36 592 -587 0
-37 -592 587 0
-37 592 -587 0
-38 -592 587 0
-38 -592 588 0
-38 592 -587 -588 0
-39 -592 587 0
-39 -592 589 0
-39 592 -587 -589 0
-40 -592 587 0
-40 592 -587 0
-44 -592 587 0
-44 592 -587 0
-31 -593 588 0
-31 593 -588 0
-32 -593 588 0
-32 593 -588 0
-33 -588 593 0
-33 -585 593 0
-33 -593 588 585 0
-34 -593 588 0
-34 593 -588 0
-35 -593 588 0
-35 593 -588 0
-36 -588 593 0
-36 -586 593 0
-36 -593 588 586 0
-37 -593 588 0
-37 593 -588 0
-38 -588 593 0
-38 -587 593 0
-38 -593 588 587 0
-39 -593 588 0
-39 593 -588 0
-40 -593 588 0
-40 -593 589 0
-40 593 -588 -589 0
-44 -593 588 0
-44 593 -588 0
-31 -594 589 0
-31 594 -589 0
-32 -594 589 0
-32 594 -589 0
-33 -594 589 0
-33 594 -589 0
-34 -589 594 0
-34 -585 594 0
-34 -594 589 585 0
-35 -594 589 0
-35 594 -589 0
-36 -594 589 0
-36 594 -589 0
-37 -589 594 0
-37 -586 594 0
-37 -594 589 586 0
-38 -594 589 0
-38 594 -589 0
-39 -589 594 0
-39 -587 594 0
-39 -594 589 587 0
-40 -589 594 0
-40 -588 594 0
-40 -594 589 588 0
-44 -594 589 0
-44 594 -589 0
595 0
-1 -600 595 0
-1 -600 596 0
-1 600 -595 -596 0
-2 -600 595 0
-2 -600 597 0
-2 600 -595 -597 0
-3 -600 595 0
-3 -600 598 0
-3 600 -595 -598 0
-4 -600 595 0
-4 -600 599 0
-4 600 -595 -599 0
-5 -600 595 0
-5 600 -595 0
-6 -600 595 0
-6 600 -595 0
-7 -600 595 0
-7 600 -595 0
-8 -600 595 0
-8 600 -595 0
-9 -600 595 0
-9 600 -595 0
-10 -600 595 0
-10 600 -595 0
-41 -600 595 0
-41 600 -595 0
596 0
-1 -596 601 0
-1 -595 601 0
-1 -601 596 595 0
-2 -601 596 0
-2 601 -596 0
-3 -601 596 0
-3 601 -596 0
-4 -601 596 0
-4 601 -596 0
-5 -601 596 0
-5 -601 597 0
-5 601 -596 -597 0
-6 -601 596 0
-6 -601 598 0
-6 601 -596 -598 0
-7 -601 596 0
-7 -601 599 0
-7 601 -596 -599 0
-8 -601 596 0
-8 601 -596 0
-9 -601 596 0
-9 601 -596 0
-10 -601 596 0
-10 601 -596 0
-41 -601 596 0
-41 601 -596 0
-597 0
-1 -602 597 0
-1 602 -597 0
-2 -597 602 0
-2 -595 602 0
-2 -602 597 595 0
-3 -602 597 0
-3 602 -597 0
-4 -602 597 0
-4 602 -597 0
-5 -597 602 0
-5 -596 602 0
-5 -602 597 596 0
-6 -602 597 0
-6 602 -597 0
-7 -602 597 0
-7 602 -597 0
-8 -602 597 0
-8 -602 598 0
-8 602 -597 -598 0
-9 -602 597 0
-9 -602 599 0
-9 602 -597 -599 0
-10 -602 597 0
-10 602 -597 0
-41 -602 597 0
-41 602 -597 0
598 0
-1 -603 598 0
-1 603 -598 0
-2 -603 598 0
-2 603 -598 0
-3 -598 603 0
-3 -595 603 0
-3 -603 598 595 0
-4 -603 598 0
-4 603 -598 0
-5 -603 598 0
-5 603 -598 0
-6 -598 603 0
-6 -596 603 0
-6 -603 598 596 0
-7 -603 598 0
-7 603 -598 0
-8 -598 603 0
-8 -597 603 0
-8 -603 598 597 0
-9 -603 598 0
-9 603 -598 0
-10 -603 598 0
-10 -603 599 0
-10 603 -598 -599 0
-41 -603 598 0
-41 603 -598 0
599 0
-1 -604 599 0
-1 604 -599 0
-2 -604 599 0
-2 604 -599 0
-3 -604 599 0
-3 604 -599 0
-4 -599 604 0
-4 -595 604 0
-4 -604 599 595 0
-5 -604 599 0
-5 604 -599 0
-6 -604 599 0
-6 604 -599 0
-7 -599 604 0
-7 -596 604 0
-7 -604 599 596 0
-8 -604 599 0
-8 604 -599 0
-9 -599 604 0
-9 -597 604 0
-9 -604 599 597 0
-10 -599 604 0
-10 -598 604 0
-10 -604 599 598 0
-41 -604 599 0
-41 604 -599 0
-11 -605 600 0
-11 -605 601 0
-11 605 -600 -601 0
-12 -605 600 0
-12 -605 602 0
-12 605 -600 -602 0
-13 -605 600 0
-13 -605 603 0
-13 605 -600 -603 0
-14 -605 600 0
-14 -605 604 0
-14 605 -600 -604 0
-15 -605 600 0
-15 605 -600 0
-16 -605 600 0
-16 605 -600 0
-17 -605 600 0
-17 605 -600 0
-18 -605 600 0
-18 605 -600 0
-19 -605 600 0
-19 605 -600 0
-20 -605 600 0
-20 605 -600 0
-42 -605 600 0
-42 605 -600 0
-11 -601 606 0
-11 -600 606 0
-11 -606 601 600 0
-12 -606 601 0
-12 606 -601 0
-13 -606 601 0
-13 606 -601 0
-14 -606 601 0
-14 606 -601 0
-15 -606 601 0
-15 -606 602 0
-15 606 -601 -602 0
-16 -606 601 0
-16 -606 603 0
-16 606 -601 -603 0
-17 -606 601 0
-17 -606 604 0
-17 606 -601 -604 0
-18 -606 601 0
-18 606 -601 0
-19 -606 601 0
-19 606 -601 0
-20 -606 601 0
-20 606 -601 0
-42 -606 601 0
-42 606 -601 0
-11 -607 602 0
-11 607 -602 0
-12 -602 607 0
-12 -600 607 0
-12 -607 602 600 0
-13 -607 602 0
-13 607 -602 0
-14 -607 602 0
-14 607 -602 0
-15 -602 607 0
-15 -601 607 0
-15 -607 602 601 0
-16 -607 602 0
-16 607 -602 0
-17 -607 602 0
-17 607 -602 0
-18 -607 602 0
-18 -607 603 0
-18 607 -602 -603 0
-19 -607 602 0
-19 -607 604 0
-19 607 -602 -604 0
-20 -607 602 0
-20 607 -602 0
-42 -607 602 0
-42 607 -602 0
-11 -608 603 0
-11 608 -603 0
-12 -608 603 0
-12 608 -603 0
-13 -603 608 0
-13 -600 608 0
-13 -608 603 600 0
-14 -608 603 0
-14 608 -603 0
-15 -608 603 0
-15 608 -603 0
-16 -603 608 0
-16 -601 608 0
-16 -608 603 601 0
-17 -608 603 0
-17 608 -603 0
-18 -603 608 0
-18 -602 608 0
-18 -608 603 602 0
-19 -608 603 0
-19 608 -603 0
-20 -608 603 0
-20 -608 604 0
-20 608 -603 -604 0
-42 -608 603 0
-42 608 -603 0
-11 -609 604 0
-11 609 -604 0
-12 -609 604 0
-12 609 -604 0
-13 -609 604 0
-13 609 -604 0
-14 -604 609 0
-14 -600 609 0
-14 -609 604 600 0
-15 -609 604 0
-15 609 -604 0
-16 -609 604 0
-16 609 -604 0
-17 -604 609 0
-17 -601 609 0
-17 -609 604 601 0
-18 -609 604 0
-18 609 -604 0
-19 -604 609 0
-19 -602 609 0
-19 -609 604 602 0
-20 -604 609 0
-20 -603 609 0
-20 -609 604 603 0
-42 -609 604 0
-42 609 -604 0
-21 -610 605 0
-21 -610 606 0
-21 610 -605 -606 0
-22 -610 605 0
-22 -610 607 0
-22 610 -605 -607 0
-23 -610 605 0
-23 -610 608 0
-23 610 -605 -608 0
-24 -610 605 0
-24 -610 609 0
-24 610 -605 -609 0
-25 -610 605 0
-25 610 -605 0
-26 -610 605 0
-26 610 -605 0
-27 -610 605 0
-27 610 -605 0
-28 -610 605 0
-28 610 -605 0
-29 -610 605 0
-29 610 -605 0
-30 -610 605 0
-30 610 -605 0
-43 -610 605 0
-43 610 -605 0
-21 -606 611 0
-21 -605 611 0
-21 -611 606 605 0
-22 -611 606 0
-22 611 -606 0
-23 -611 606 0
-23 611 -606 0
-24 -611 606 0
-24 611 -606 0
-25 -611 606 0
-25 -611 607 0
-25 611 -606 -607 0
-26 -611 606 0
-26 -611 608 0
-26 611 -606 -608 0
-27 -611 606 0
-27 -611 609 0
-27 611 -606 -609 0
-28 -611 606 0
-28 611 -606 0
-29 -611 606 0
-29 611 -606 0
-30 -611 606 0
-30 611 -606 0
-43 -611 606 0
-43 611 -606 0
-21 -612 607 0
-21 612 -607 0
-22 -607 612 0
-22 -605 612 0
-22 -612 607 605 0
-23 -612 607 0
-23 612 -607 0
-24 -612 607 0
-24 612 -607 0
-25 -607 612 0
-25 -606 612 0
-25 -612 607 606 0
-26 -612 607 0
-26 612 -607 0
-27 -612 607 0
-27 612 -607 0
-28 -612 607 0
-28 -612 608 0
-28 612 -607 -608 0
-29 -612 607 0
-29 -612 609 0
-29 612 -607 -609 0
-30 -612 607 0
-30 612 -607 0
-43 -612 607 0
-43 612 -607 0
-21 -613 608 0
-21 613 -608 0
-22 -613 608 0
-22 613 -608 0
-23 -608 613 0
-23 -605 613 0
-23 -613 608 605 0
-24 -613 608 0
-24 613 -608 0
-25 -613 608 0
-25 613 -608 0
-26 -608 613 0
-26 -606 613 0
-26 -613 608 606 0
-27 -613 608 0
-27 613 -608 0
-28 -608 613 0
-28 -607 613 0
-28 -613 608 607 0
-29 -613 608 0
-29 613 -608 0
-30 -613 608 0
-30 -613 609 0
-30 613 -608 -609 0
-43 -613 608 0
-43 613 -608 0
-21 -614 609 0
-21 614 -609 0
-22 -614 609 0
-22 614 -609 0
-23 -614 609 0
-23 614 -609 0
-24 -609 614 0
-24 -605 614 0
-24 -614 609 605 0
-25 -614 609 0
-25 614 -609 0
-26 -614 609 0
-26 614 -609 0
-27 -609 614 0
-27 -606 614 0
-27 -614 609 606 0
-28 -614 609 0
-28 614 -609 0
-29 -609 614 0
-29 -607 614 0
-29 -614 609 607 0
-30 -609 614 0
-30 -608 614 0
-30 -614 609 608 0
-43 -614 609 0
-43 614 -609 0
-31 -615 610 0
-31 -615 611 0
-31 615 -610 -611 0
-32 -615 610 0
-32 -615 612 0
-32 615 -610 -612 0
-33 -615 610 0
-33 -615 613 0
-33 615 -610 -613 0
-34 -615 610 0
-34 -615 614 0
-34 615 -610 -614 0
-35 -615 610 0
-35 615 -610 0
-36 -615 610 0
-36 615 -610 0
-37 -615 610 0
-37 615 -610 0
-38 -615 610 0
-38 615 -610 0
-39 -615 610 0
-39 615 -610 0
-40 -615 610 0
-40 615 -610 0
-44 -615 610 0
-44 615 -610 0
-31 -611 616 0
-31 -610 616 0
-31 -616 611 610 0
-32 -616 611 0
-32 616 -611 0
-33 -616 611 0
-33 616 -611 0
-34 -616 611 0
-34 616 -611 0
-35 -616 611 0
-35 -616 612 0
-35 616 -611 -612 0
-36 -616 611 0
-36 -616 613 0
-36 616 -611 -613 0
-37 -616 611 0
-37 -616 614 0
-37 616 -611 -614 0
-38 -616 611 0
-38 616 -611 0
-39 -616 611 0
-39 616 -611 0
-40 -616 611 0
-40 616 -611 0
-44 -616 611 0
-44 616 -611 0
-31 -617 612 0
-31 617 -612 0
-32 -612 617 0
-32 -610 617 0
-32 -617 612 610 0
-33 -617 612 0
-33 617 -612 0
-34 -617 612 0
-34 617 -612 0
-35 -612 617 0
-35 -611 617 0
-35 -617 612 611 0
-36 -617 612 0
-36 617 -612 0
-37 -617 612 0
-37 617 -612 0
-38 -617 612 0
-38 -617 613 0
-38 617 -612 -613 0
-39 -617 612 0
-39 -617 614 0
-39 617 -612 -614 0
-40 -617 612 0
-40 617 -612 0
-44 -617 612 0
-44 617 -612 0
-31 -618 613 0
-31 618 -613 0
-32 -618 613 0
-32 618 -613 0
-33 -613 618 0
-33 -610 618 0
-33 -618 613 610 0
-34 -618 613 0
-34 618 -613 0
-35 -618 613 0
-35 618 -613 0
-36 -613 618 0
-36 -611 618 0
-36 -618 613 611 0
-37 -618 613 0
-37 618 -613 0
-38 -613 618 0
-38 -612 618 0
-38 -618 613 612 0
-39 -618 613 0
-39 618 -613 0
-40 -618 613 0
-40 -618 614 0
-40 618 -613 -614 0
-44 -618 613 0
-44 618 -613 0
-31 -619 614 0
-31 619 -614 0
-32 -619 614 0
-32 619 -614 0
-33 -619 614 0
-33 619 -614 0
-34 -614 619 0
-34 -610 619 0
-34 -619 614 610 0
-35 -619 614 0
-35 619 -614 0
-36 -619 614 0
-36 619 -614 0
-37 -614 619 0
-37 -611 619 0
-37 -619 614 611 0
-38 -619 614 0
-38 619 -614 0
-39 -614 619 0
-39 -612 619 0
-39 -619 614 612 0
-40 -614 619 0
-40 -613 619 0
-40 -619 614 613 0
-44 -619 614 0
-44 619 -614 0
620 0
-1 -625 620 0
-1 -625 621 0
-1 625 -620 -621 0
-2 -625 620 0
-2 -625 622 0
-2 625 -620 -622 0
-3 -625 620 0
-3 -625 623 0
-3 625 -620 -623 0
-4 -625 620 0
-4 -625 624 0
-4 625 -620 -624 0
-5 -625 620 0
-5 625 -620 0
-6 -625 620 0
-6 625 -620 0
-7 -625 620 0
-7 625 -620 0
-8 -625 620 0
-8 625 -620 0
-9 -625 620 0
-9 625 -620 0
-10 -625 620 0
-10 625 -620 0
-41 -625 620 0
-41 625 -620 0
621 0
-1 -621 626 0
-1 -620 626 0
-1 -626 621 620 0
-2 -626 621 0
-2 626 -621 0
-3 -626 621 0
-3 626 -621 0
-4 -626 621 0
-4 626 -621 0
-5 -626 621 0
-5 -626 622 0
-5 626 -621 -622 0
-6 -626 621 0
-6 -626 623 0
-6 626 -621 -623 0
-7 -626 621 0
-7 -626 624 0
-7 626 -621 -624 0
-8 -626 621 0
-8 626 -621 0
-9 -626 621 0
-9 626 -621 0
-10 -626 621 0
-10 626 -621 0
-41 -626 621 0
-41 626 -621 0
622 0
-1 -627 622 0
-1 627 -622 0
-2 -622 627 0
-2 -620 627 0
-2 -627 622 620 0
-3 -627 622 0
-3 627 -622 0
-4 -627 622 0
-4 627 -622 0
-5 -622 627 0
-5 -621 627 0
-5 -627 622 621 0
-6 -627 622 0
-6 627 -622 0
-7 -627 622 0
-7 627 -622 0
-8 -627 622 0
-8 -627 623 0
-8 627 -622 -623 0
-9 -627 622 0
-9 -627 624 0
-9 627 -622 -624 0
-10 -627 622 0
-10 627 -622 0
-41 -627 622 0
-41 627 -622 0
-623 0
-1 -628 623 0
-1 628 -623 0
-2 -628 623 0
-2 628 -623 0
-3 -623 628 0
-3 -620 628 0
-3 -628 623 620 0
-4 -628 623 0
-4 628 -623 0
-5 -628 623 0
-5 628 -623 0
-6 -623 628 0
-6 -621 628 0
-6 -628 623 621 0
-7 -628 623 0
-7 628 -623 0
-8 -623 628 0
-8 -622 628 0
-8 -628 623 622 0
-9 -628 623 0
-9 628 -623 0
-10 -628 623 0
-10 -628 624 0
-10 628 -623 -624 0
-41 -628 623 0
-41 628 -623 0
-624 0
-1 -629 624 0
-1 629 -624 0
-2 -629 624 0
-2 629 -624 0
-3 -629 624 0
-3 629 -624 0
-4 -624 629 0
-4 -620 629 0
-4 -629 624 620 0
-5 -629 624 0
-5 629 -624 0
-6 -629 624 0
-6 629 -624 0
-7 -624 629 0
-7 -621 629 0
-7 -629 624 621 0
-8 -629 624 0
-8 629 -624 0
-9 -624 629 0
-9 -622 629 0
-9 -629 624 622 0
-10 -624 629 0
-10 -623 629 0
-10 -629 624 623 0
-41 -629 624 0
-41 629 -624 0
-11 -630 625 0
-11 -630 626 0
-11 630 -625 -626 0
-12 -630 625 0
-12 -630 627 0
-12 630 -625 -627 0
-13 -630 625 0
-13 -630 628 0
-13 630 -625 -628 0
-14 -630 625 0
-14 -630 629 0
-14 630 -625 -629 0
-15 -630 625 0
-15 630 -625 0
-16 -630 625 0
-16 630 -625 0
-17 -630 625 0
-17 630 -625 0
-18 -630 625 0
-18 630 -625 0
-19 -630 625 0
-19 630 -625 0
-20 -630 625 0
-20 630 -625 0
-42 -630 625 0
-42 630 -625 0
-11 -626 631 0
-11 -625 631 0
-11 -631 626 625 0
-12 -631 626 0
-12 631 -626 0
-13 -631 626 0
-13 631 -626 0
-14 -631 626 0
-14 631 -626 0
-15 -631 626 0
-15 -631 627 0
-15 631 -626 -627 0
-16 -631 626 0
-16 -631 628 0
-16 631 -626 -628 0
-17 -631 626 0
-17 -631 629 0
-17 631 -626 -629 0
-18 -631 626 0
-18 631 -626 0
-19 -631 626 0
-19 631 -626 0
-20 -631 626 0
-20 631 -626 0
-42 -631 626 0
-42 631 -626 0
-11 -632 627 0
-11 632 -627 0
-12 -627 632 0
-12 -625 632 0
-12 -632 627 625 0
-13 -632 627 0
-13 632 -627 0
-14 -632 627 0
-14 632 -627 0
-15 -627 632 0
-15 -626 632 0
-15 -632 627 626 0
-16 -632 627 0
-16 632 -627 0
-17 -632 627 0
-17 632 -627 0
-18 -632 627 0
-18 -632 628 0
-18 632 -627 -628 0
-19 -632 627 0
-19 -632 629 0
-19 632 -627 -629 0
-20 -632 627 0
-20 632 -627 0
-42 -632 627 0
-42 632 -627 0
-11 -633 628 0
-11 633 -628 0
-12 -633 628 0
-12 633 -628 0
-13 -628 633 0
-13 -625 633 0
-13 -633 628 625 0
-14 -633 628 0
-14 633 -628 0
-15 -633 628 0
-15 633 -628 0
-16 -628 633 0
-16 -626 633 0
-16 -633 628 626 0
-17 -633 628 0
-17 633 -628 0
-18 -628 633 0
-18 -627 633 0
-18 -633 628 627 0
-19 -633 628 0
-19 633 -628 0
-20 -633 628 0
-20 -633 629 0
-20 633 -628 -629 0
-42 -633 628 0
-42 633 -628 0
-11 -634 629 0
-11 634 -629 0
-12 -634 629 0
-12 634 -629 0
-13 -634 629 0
-13 634 -629 0
-14 -629 634 0
-14 -625 634 0
-14 -634 629 625 0
-15 -634 629 0
-15 634 -629 0
-16 -634 629 0
-16 634 -629 0
-17 -629 634 0
-17 -626 634 0
-17 -634 629 626 0
-18 -634 629 0
-18 634 -629 0
-19 -629 634 0
-19 -627 634 0
-19 -634 629 627 0
-20 -629 634 0
-20 -628 634 0
-20 -634 629 628 0
-42 -634 629 0
-42 634 -629 0
-21 -635 630 0
-21 -635 631 0
-21 635 -630 -631 0
-22 -635 630 0
-22 -635 632 0
-22 635 -630 -632 0
-23 -635 630 0
-23 -635 633 0
-23 635 -630 -633 0
-24 -635 630 0
-24 -635 634 0
-24 635 -630 -634 0
-25 -635 630 0
-25 635 -630 0
-26 -635 630 0
-26 635 -630 0
-27 -635 630 0
-27 635 -630 0
-28 -635 630 0
-28 635 -630 0
-29 -635 630 0
-29 635 -630 0
-30 -635 630 0
-30 635 -630 0
-43 -635 630 0
-43 635 -630 0
-21 -631 636 0
-21 -630 636 0
-21 -636 631 630 0
-22 -636 631 0
-22 636 -631 0
-23 -636 631 0
-23 636 -631 0
-24 -636 631 0
-24 636 -631 0
-25 -636 631 0
-25 -636 632 0
-25 636 -631 -632 0
-26 -636 631 0
-26 -636 633 0
-26 636 -631 -633 0
-27 -636 631 0
-27 -636 634 0
-27 636 -631 -634 0
-28 -636 631 0
-28 636 -631 0
-29 -636 631 0
-29 636 -631 0
-30 -636 631 0
-30 636 -631 0
-43 -636 631 0
-43 636 -631 0
-21 -637 632 0
-21 637 -632 0
-22 -632 637 0
-22 -630 637 0
-22 -637 632 630 0
-23 -637 632 0
-23 637 -632 0
-24 -637 632 0
-24 637 -632 0
-25 -632 637 0
-25 -631 637 0
-25 -637 632 631 0
-26 -637 632 0
-26 637 -632 0
-27 -637 632 0
-27 637 -632 0
-28 -637 632 0
-28 -637 633 0
-28 637 -632 -633 0
-29 -637 632 0
-29 -637 634 0
-29 637 -632 -634 0
-30 -637 632 0
-30 637 -632 0
-43 -637 632 0
-43 637 -632 0
-21 -638 633 0
-21 638 -633 0
-22 -638 633 0
-22 638 -633 0
-23 -633 638 0
-23 -630 638 0
-23 -638 633 630 0
-24 -638 633 0
-24 638 -633 0
-25 -638 633 0
-25 638 -633 0
-26 -633 638 0
-26 -631 638 0
-26 -638 633 631 0
-27 -638 633 0
-27 638 -633 0
-28 -633 638 0
-28 -632 638 0
-28 -638 633 632 0
-29 -638 633 0
-29 638 -633 0
-30 -638 633 0
-30 -638 634 0
-30 638 -633 -634 0
-43 -638 633 0
-43 638 -633 0
-21 -639 634 0
-21 639 -634 0
-22 -639 634 0
-22 639 -634 0
-23 -639 634 0
-23 639 -634 0
-24 -634 639 0
-24 -630 639 0
-24 -639 634 630 0
-25 -639 634 0
-25 639 -634 0
-26 -639 634 0
-26 639 -634 0
-27 -634 639 0
-27 -631 639 0
-27 -639 634 631 0
-28 -639 634 0
-28 639 -634 0
-29 -634 639 0
-29 -632 639 0
-29 -639 634 632 0
-30 -634 639 0
-30 -633 639 0
-30 -639 634 633 0
-43 -639 634 0
-43 639 -634 0
-31 -640 635 0
-31 -640 636 0
-31 640 -635 -636 0
-32 -640 635 0
-32 -640 637 0
-32 640 -635 -637 0
-33 -640 635 0
-33 -640 638 0
-33 640 -635 -638 0
-34 -640 635 0
-34 -640 639 0
-34 640 -635 -639 0
-35 -640 635 0
-35 640 -635 0
-36 -640 635 0
-36 640 -635 0
-37 -640 635 0
-37 640 -635 0
-38 -640 635 0
-38 640 -635 0
-39 -640 635 0
-39 640 -635 0
-40 -640 635 0
-40 640 -635 0
-44 -640 635 0
-44 640 -635 0
-31 -636 641 0
-31 -635 641 0
-31 -641 636 635 0
-32 -641 636 0
-32 641 -636 0
-33 -641 636 0
-33 641 -636 0
-34 -641 636 0
-34 641 -636 0
-35 -641 636 0
-35 -641 637 0
-35 641 -636 -637 0
-36 -641 636 0
-36 -641 638 0
-36 641 -636 -638 0
-37 -641 636 0
-37 -641 639 0
-37 641 -636 -639 0
-38 -641 636 0
-38 641 -636 0
-39 -641 636 0
-39 641 -636 0
-40 -641 636 0
-40 641 -636 0
-44 -641 636 0
-44 641 -636 0
-31 -642 637 0
-31 642 -637 0
-32 -637 642 0
-32 -635 642 0
-32 -642 637 635 0
-33 -642 637 0
-33 642 -637 0
-34 -642 637 0
-34 642 -637 0
-35 -637 642 0
-35 -636 642 0
-35 -642 637 636 0
-36 -642 637 0
-36 642 -637 0
-37 -642 637 0
-37 642 -637 0
-38 -642 637 0
-38 -642 638 0
-38 642 -637 -638 0
-39 -642 637 0
-39 -642 639 0
-39 642 -637 -639 0
-40 -642 637 0
-40 642 -637 0
-44 -642 637 0
-44 642 -637 0
-31 -643 638 0
-31 643 -638 0
-32 -643 638 0
-32 643 -638 0
-33 -638 643 0
-33 -635 643 0
-33 -643 638 635 0
-34 -643 638 0
-34 643 -638 0
-35 -643 638 0
-35 643 -638 0
-36 -638 643 0
-36 -636 643 0
-36 -643 638 636 0
-37 -643 638 0
-37 643 -638 0
-38 -638 643 0
-38 -637 643 0
-38 -643 638 637 0
-39 -643 638 0
-39 643 -638 0
-40 -643 638 0
-40 -643 639 0
-40 643 -638 -639 0
-44 -643 638 0
-44 643 -638 0
-31 -644 639 0
-31 644 -639 0
-32 -644 639 0
-32 644 -639 0
-33 -644 639 0
-33 644 -639 0
-34 -639 644 0
-34 -635 644 0
-34 -644 639 635 0
-35 -644 639 0
-35 644 -639 0
-36 -644 639 0
-36 644 -639 0
-37 -639 644 0
-37 -636 644 0
-37 -644 639 636 0
-38 -644 639 0
-38 644 -639 0
-39 -639 644 0
-39 -637 644 0
-39 -644 639 637 0
-40 -639 644 0
-40 -638 644 0
-40 -644 639 638 0
-44 -644 639 0
-44 644 -639 0
645 0
-1 -650 645 0
-1 -650 646 0
-1 650 -645 -646 0
-2 -650 645 0
-2 -650 647 0
-2 650 -645 -647 0
-3 -650 645 0
-3 -650 648 0
-3 650 -645 -648 0
-4 -650 645 0
-4 -650 649 0
-4 650 -645 -649 0
-5 -650 645 0
-5 650 -645 0
-6 -650 645 0
-6 650 -645 0
-7 -650 645 0
-7 650 -645 0
-8 -650 645 0
-8 650 -645 0
-9 -650 645 0
-9 650 -645 0
-10 -650 645 0
-10 650 -645 0
-41 -650 645 0
-41 650 -645 0
646 0
-1 -646 651 0
-1 -645 651 0
-1 -651 646 645 0
-2 -651 646 0
-2 651 -646 0
-3 -651 646 0
-3 651 -646 0
-4 -651 646 0
-4 651 -646 0
-5 -651 646 0
-5 -651 647 0
-5 651 -646 -647 0
-6 -651 646 0
-6 -651 648 0
-6 651 -646 -648 0
-7 -651 646 0
-7 -651 649 0
-7 651 -646 -649 0
-8 -651 646 0
-8 651 -646 0
-9 -651 646 0
-9 651 -646 0
-10 -651 646 0
-10 651 -646 0
-41 -651 646 0
-41 651 -646 0
647 0
-1 -652 647 0
-1 652 -647 0
-2 -647 652 0
-2 -645 652 0
-2 -652 647 645 0
-3 -652 647 0
-3 652 -647 0
-4 -652 647 0
-4 652 -647 0
-5 -647 652 0
-5 -646 652 0
-5 -652 647 646 0
-6 -652 647 0
-6 652 -647 0
-7 -652 647 0
-7 652 -647 0
-8 -652 647 0
-8 -652 648 0
-8 652 -647 -648 0
-9 -652 647 0
-9 -652 649 0
-9 652 -647 -649 0
-10 -652 647 0
-10 652 -647 0
-41 -652 647 0
-41 652 -647 0
-648 0
-1 -653 648 0
-1 653 -648 0
-2 -653 648 0
-2 653 -648 0
-3 -648 653 0
-3 -645 653 0
-3 -653 648 645 0
-4 -653 648 0
-4 653 -648 0
-5 -653 648 0
-5 653 -648 0
-6 -648 653 0
-6 -646 653 0
-6 -653 648 646 0
-7 -653 648 0
-7 653 -648 0
-8 -648 653 0
-8 -647 653 0
-8 -653 648 647 0
-9 -653 648 0
-9 653 -648 0
-10 -653 648 0
-10 -653 649 0
-10 653 -648 -649 0
-41 -653 648 0
-41 653 -648 0
649 0
-1 -654 649 0
-1 654 -649 0
-2 -654 649 0
-2 654 -649 0
-3 -654 649 0
-3 654 -649 0
-4 -649 654 0
-4 -645 654 0
-4 -654 649 645 0
-5 -654 649 0
-5 654 -649 0
-6 -654 649 0
-6 654 -649 0
-7 -649 654 0
-7 -646 654 0
-7 -654 649 646 0
-8 -654 649 0
-8 654 -649 0
-9 -649 654 0
-9 -647 654 0
-9 -654 649 647 0
-10 -649 654 0
-10 -648 654 0
-10 -654 649 648 0
-41 -654 649 0
-41 654 -649 0
-11 -655 650 0
-11 -655 651 0
-11 655 -650 -651 0
-12 -655 650 0
-12 -655 652 0
-12 655 -650 -652 0
-13 -655 650 0
-13 -655 653 0
-13 655 -650 -653 0
-14 -655 650 0
-14 -655 654 0
-14 655 -650 -654 0
-15 -655 650 0
-15 655 -650 0
-16 -655 650 0
-16 655 -650 0
-17 -655 650 0
-17 655 -650 0
-18 -655 650 0
-18 655 -650 0
-19 -655 650 0
-19 655 -650 0
-20 -655 650 0
-20 655 -650 0
-42 -655 650 0
-42 655 -650 0
-11 -651 656 0
-11 -650 656 0
-11 -656 651 650 0
-12 -656 651 0
-12 656 -651 0
-13 -656 651 0
-13 656 -651 0
-14 -656 651 0
-14 656 -651 0
-15 -656 651 0
-15 -656 652 0
-15 656 -651 -652 0
-16 -656 651 0
-16 -656 653 0
-16 656 -651 -653 0
-17 -656 651 0
-17 -656 654 0
-17 656 -651 -654 0
-18 -656 651 0
-18 656 -651 0
-19 -656 651 0
-19 656 -651 0
-20 -656 651 0
-20 656 -651 0
-42 -656 651 0
-42 656 -651 0
-11 -657 652 0
-11 657 -652 0
-12 -652 657 0
-12 -650 657 0
-12 -657 652 650 0
-13 -657 652 0
-13 657 -652 0
-14 -657 652 0
-14 657 -652 0
-15 -652 657 0
-15 -651 657 0
-15 -657 652 651 0
-16 -657 652 0
-16 657 -652 0
-17 -657 652 0
-17 657 -652 0
-18 -657 652 0
-18 -657 653 0
-18 657 -652 -653 0
-19 -657 652 0
-19 -657 654 0
-19 657 -652 -654 0
-20 -657 652 0
-20 657 -652 0
-42 -657 652 0
-42 657 -652 0
-11 -658 653 0
-11 658 -653 0
-12 -658 653 0
-12 658 -653 0
-13 -653 658 0
-13 -650 658 0
-13 -658 653 650 0
-14 -658 653 0
-14 658 -653 0
-15 -658 653 0
-15 658 -653 0
-16 -653 658 0
-16 -651 658 0
-16 -658 653 651 0
-17 -658 653 0
-17 658 -653 0
-18 -653 658 0
-18 -652 658 0
-18 -658 653 652 0
-19 -658 653 0
-19 658 -653 0
-20 -658 653 0
-20 -658 654 0
-20 658 -653 -654 0
-42 -658 653 0
-42 658 -653 0
-11 -659 654 0
-11 659 -654 0
-12 -659 654 0
-12 659 -654 0
-13 -659 654 0
-13 659 -654 0
-14 -654 659 0
-14 -650 659 0
-14 -659 654 650 0
-15 -659 654 0
-15 659 -654 0
-16 -659 654 0
-16 659 -654 0
-17 -654 659 0
-17 -651 659 0
-17 -659 654 651 0
-18 -659 654 0
-18 659 -654 0
-19 -654 659 0
-19 -652 659 0
-19 -659 654 652 0
-20 -654 659 0
-20 -653 659 0
-20 -659 654 653 0
-42 -659 654 0
-42 659 -654 0
-21 -660 655 0
-21 -660 656 0
-21 660 -655 -656 0
-22 -660 655 0
-22 -660 657 0
-22 660 -655 -657 0
-23 -660 655 0
-23 -660 658 0
-23 660 -655 -658 0
-24 -660 655 0
-24 -660 659 0
-24 660 -655 -659 0
-25 -660 655 0
-25 660 -655 0
-26 -660 655 0
-26 660 -655 0
-27 -660 655 0
-27 660 -655 0
-28 -660 655 0
-28 660 -655 0
-29 -660 655 0
-29 660 -655 0
-30 -660 655 0
-30 660 -655 0
-43 -660 655 0
-43 660 -655 0
-21 -656 661 0
-21 -655 661 0
-21 -661 656 655 0
-22 -661 656 0
-22 661 -656 0
-23 -661 656 0
-23 661 -656 0
-24 -661 656 0
-24 661 -656 0
-25 -661 656 0
-25 -661 657 0
-25 661 -656 -657 0
-26 -661 656 0
-26 -661 658 0
-26 661 -656 -658 0
-27 -661 656 0
-27 -661 659 0
-27 661 -656 -659 0
-28 -661 656 0
-28 661 -656 0
-29 -661 656 0
-29 661 -656 0
-30 -661 656 0
-30 661 -656 0
-43 -661 656 0
-43 661 -656 0
-21 -662 657 0
-21 662 -657 0
-22 -657 662 0
-22 -655 662 0
-22 -662 657 655 0
-23 -662 657 0
-23 662 -657 0
-24 -662 657 0
-24 662 -657 0
-25 -657 662 0
-25 -656 662 0
-25 -662 657 656 0
-26 -662 657 0
-26 662 -657 0
-27 -662 657 0
-27 662 -657 0
-28 -662 657 0
-28 -662 658 0
-28 662 -657 -658 0
-29 -662 657 0
-29 -662 659 0
-29 662 -657 -659 0
-30 -662 657 0
-30 662 -657 0
-43 -662 657 0
-43 662 -657 0
-21 -663 658 0
-21 663 -658 0
-22 -663 658 0
-22 663 -658 0
-23 -658 663 0
-23 -655 663 0
-23 -663 658 655 0
-24 -663 658 0
-24 663 -658 0
-25 -663 658 0
-25 663 -658 0
-26 -658 663 0
-26 -656 663 0
-26 -663 658 656 0
-27 -663 658 0
-27 663 -658 0
-28 -658 663 0
-28 -657 663 0
-28 -663 658 657 0
-29 -663 658 0
-29 663 -658 0
-30 -663 658 0
-30 -663 659 0
-30 663 -658 -659 0
-43 -663 658 0
-43 663 -658 0
-21 -664 659 0
-21 664 -659 0
-22 -664 659 0
-22 664 -659 0
-23 -664 659 0
-23 664 -659 0
-24 -659 664 0
-24 -655 664 0
-24 -664 659 655 0
-25 -664 659 0
-25 664 -659 0
-26 -664 659 0
-26 664 -659 0
-27 -659 664 0
-27 -656 664 0
-27 -664 659 656 0
-28 -664 659 0
-28 664 -659 0
-29 -659 664 0
-29 -657 664 0
-29 -664 659 657 0
-30 -659 664 0
-30 -658 664 0
-30 -664 659 658 0
-43 -664 659 0
-43 664 -659 0
-31 -665 660 0
-31 -665 661 0
-31 665 -660 -661 0
-32 -665 660 0
-32 -665 662 0
-32 665 -660 -662 0
-33 -665 660 0
-33 -665 663 0
-33 665 -660 -663 0
-34 -665 660 0
-34 -665 664 0
-34 665 -660 -664 0
-35 -665 660 0
-35 665 -660 0
-36 -665 660 0
-36 665 -660 0
-37 -665 660 0
-37 665 -660 0
-38 -665 660 0
-38 665 -660 0
-39 -665 660 0
-39 665 -660 0
-40 -665 660 0
-40 665 -660 0
-44 -665 660 0
-44 665 -660 0
-31 -661 666 0
-31 -660 666 0
-31 -666 661 660 0
-32 -666 661 0
-32 666 -661 0
-33 -666 661 0
-33 666 -661 0
-34 -666 661 0
-34 666 -661 0
-35 -666 661 0
-35 -666 662 0
-35 666 -661 -662 0
-36 -666 661 0
-36 -666 663 0
-36 666 -661 -663 0
-37 -666 661 0
-37 -666 664 0
-37 666 -661 -664 0
-38 -666 661 0
-38 666 -661 0
-39 -666 661 0
-39 666 -661 0
-40 -666 661 0
-40 666 -661 0
-44 -666 661 0
-44 666 -661 0
-31 -667 662 0
-31 667 -662 0
-32 -662 667 0
-32 -660 667 0
-32 -667 662 660 0
-33 -667 662 0
-33 667 -662 0
-34 -667 662 0
-34 667 -662 0
-35 -662 667 0
-35 -661 667 0
-35 -667 662 661 0
-36 -667 662 0
-36 667 -662 0
-37 -667 662 0
-37 667 -662 0
-38 -667 662 0
-38 -667 663 0
-38 667 -662 -663 0
-39 -667 662 0
-39 -667 664 0
-39 667 -662 -664 0
-40 -667 662 0
-40 667 -662 0
-44 -667 662 0
-44 667 -662 0
-31 -668 663 0
-31 668 -663 0
-32 -668 663 0
-32 668 -663 0
-33 -663 668 0
-33 -660 668 0
-33 -668 663 660 0
-34 -668 663 0
-34 668 -663 0
-35 -668 663 0
-35 668 -663 0
-36 -663 668 0
-36 -661 668 0
-36 -668 663 661 0
-37 -668 663 0
-37 668 -663 0
-38 -663 668 0
-38 -662 668 0
-38 -668 663 662 0
-39 -668 663 0
-39 668 -663 0
-40 -668 663 0
-40 -668 664 0
-40 668 -663 -664 0
-44 -668 663 0
-44 668 -663 0
-31 -669 664 0
-31 669 -664 0
-32 -669 664 0
-32 669 -664 0
-33 -669 664 0
-33 669 -664 0
-34 -664 669 0
-34 -660 669 0
-34 -669 664 660 0
-35 -669 664 0
-35 669 -664 0
-36 -669 664 0
-36 669 -664 0
-37 -664 669 0
-37 -661 669 0
-37 -669 664 661 0
-38 -669 664 0
-38 669 -664 0
-39 -664 669 0
-39 -662 669 0
-39 -669 664 662 0
-40 -664 669 0
-40 -663 669 0
-40 -669 664 663 0
-44 -669 664 0
-44 669 -664 0
670 0
-1 -675 670 0
-1 -675 671 0
-1 675 -670 -671 0
-2 -675 670 0
-2 -675 672 0
-2 675 -670 -672 0
-3 -675 670 0
-3 -675 673 0
-3 675 -670 -673 0
-4 -675 670 0
-4 -675 674 0
-4 675 -670 -674 0
-5 -675 670 0
-5 675 -670 0
-6 -675 670 0
-6 675 -670 0
-7 -675 670 0
-7 675 -670 0
-8 -675 670 0
-8 675 -670 0
-9 -675 670 0
-9 675 -670 0
-10 -675 670 0
-10 675 -670 0
-41 -675 670 0
-41 675 -670 0
671 0
-1 -671 676 0
-1 -670 676 0
-1 -676 671 670 0
-2 -676 671 0
-2 676 -671 0
-3 -676 671 0
-3 676 -671 0
-4 -676 671 0
-4 676 -671 0
-5 -676 671 0
-5 -676 672 0
-5 676 -671 -672 0
-6 -676 671 0
-6 -676 673 0
-6 676 -671 -673 0
-7 -676 671 0
-7 -676 674 0
-7 676 -671 -674 0
-8 -676 671 0
-8 676 -671 0
-9 -676 671 0
-9 676 -671 0
-10 -676 671 0
-10 676 -671 0
-41 -676 671 0
-41 676 -671 0
672 0
-1 -677 672 0
-1 677 -672 0
-2 -672 677 0
-2 -670 677 0
-2 -677 672 670 0
-3 -677 672 0
-3 677 -672 0
-4 -677 672 0
-4 677 -672 0
-5 -672 677 0
-5 -671 677 0
-5 -677 672 671 0
-6 -677 672 0
-6 677 -672 0
-7 -677 672 0
-7 677 -672 0
-8 -677 672 0
-8 -677 673 0
-8 677 -672 -673 0
-9 -677 672 0
-9 -677 674 0
-9 677 -672 -674 0
-10 -677 672 0
-10 677 -672 0
-41 -677 672 0
-41 677 -672 0
673 0
-1 -678 673 0
-1 678 -673 0
-2 -678 673 0
-2 678 -673 0
-3 -673 678 0
-3 -670 678 0
-3 -678 673 670 0
-4 -678 673 0
-4 678 -673 0
-5 -678 673 0
-5 678 -673 0
-6 -673 678 0
-6 -671 678 0
-6 -678 673 671 0
-7 -678 673 0
-7 678 -673 0
-8 -673 678 0
-8 -672 678 0
-8 -678 673 672 0
-9 -678 673 0
-9 678 -673 0
-10 -678 673 0
-10 -678 674 0
-10 678 -673 -674 0
-41 -678 673 0
-41 678 -673 0
-674 0
-1 -679 674 0
-1 679 -674 0
-2 -679 674 0
-2 679 -674 0
-3 -679 674 0
-3 679 -674 0
-4 -674 679 0
-4 -670 679 0
-4 -679 674 670 0
-5 -679 674 0
-5 679 -674 0
-6 -679 674 0
-6 679 -674 0
-7 -674 679 0
-7 -671 679 0
-7 -679 674 671 0
-8 -679 674 0
-8 679 -674 0
-9 -674 679 0
-9 -672 679 0
-9 -679 674 672 0
-10 -674 679 0
-10 -673 679 0
-10 -679 674 673 0
-41 -679 674 0
-41 679 -674 0
-11 -680 675 0
-11 -680 676 0
-11 680 -675 -676 0
-12 -680 675 0
-12 -680 677 0
-12 680 -675 -677 0
-13 -680 675 0
-13 -680 678 0
-13 680 -675 -678 0
-14 -680 675 0
-14 -680 679 0
-14 680 -675 -679 0
-15 -680 675 0
-15 680 -675 0
-16 -680 675 0
-16 680 -675 0
-17 -680 675 0
-17 680 -675 0
-18 -680 675 0
-18 680 -675 0
-19 -680 675 0
-19 680 -675 0
-20 -680 675 0
-20 680 -675 0
-42 -680 675 0
-42 680 -675 0
-11 -676 681 0
-11 -675 681 0
-11 -681 676 675 0
-12 -681 676 0
-12 681 -676 0
-13 -681 676 0
-13 681 -676 0
-14 -681 676 0
-14 681 -676 0
-15 -681 676 0
-15 -681 677 0
-15 681 -676 -677 0
-16 -681 676 0
-16 -681 678 0
-16 681 -676 -678 0
-17 -681 676 0
-17 -681 679 0
-17 681 -676 -679 0
-18 -681 676 0
-18 681 -676 0
-19 -681 676 0
-19 681 -676 0
-20 -681 676 0
-20 681 -676 0
-42 -681 676 0
-42 681 -676 0
-11 -682 677 0
-11 682 -677 0
-12 -677 682 0
-12 -675 682 0
-12 -682 677 675 0
-13 -682 677 0
-13 682 -677 0
-14 -682 677 0
-14 682 -677 0
-15 -677 682 0
-15 -676 682 0
-15 -682 677 676 0
-16 -682 677 0
-16 682 -677 0
-17 -682 677 0
-17 682 -677 0
-18 -682 677 0
-18 -682 678 0
-18 682 -677 -678 0
-19 -682 677 0
-19 -682 679 0
-19 682 -677 -679 0
-20 -682 677 0
-20 682 -677 0
-42 -682 677 0
-42 682 -677 0
-11 -683 678 0
-11 683 -678 0
-12 -683 678 0
-12 683 -678 0
-13 -678 683 0
-13 -675 683 0
-13 -683 678 675 0
-14 -683 678 0
-14 683 -678 0
-15 -683 678 0
-15 683 -678 0
-16 -678 683 0
-16 -676 683 0
-16 -683 678 676 0
-17 -683 678 0
-17 683 -678 0
-18 -678 683 0
-18 -677 683 0
-18 -683 678 677 0
-19 -683 678 0
-19 683 -678 0
-20 -683 678 0
-20 -683 679 0
-20 683 -678 -679 0
-42 -683 678 0
-42 683 -678 0
-11 -684 679 0
-11 684 -679 0
-12 -684 679 0
-12 684 -679 0
-13 -684 679 0
-13 684 -679 0
-14 -679 684 0
-14 -675 684 0
-14 -684 679 675 0
-15 -684 679 0
-15 684 -679 0
-16 -684 679 0
-16 684 -679 0
-17 -679 684 0
-17 -676 684 0
-17 -684 679 676 0
-18 -684 679 0
-18 684 -679 0
-19 -679 684 0
-19 -677 684 0
-19 -684 679 677 0
-20 -679 684 0
-20 -678 684 0
-20 -684 679 678 0
-42 -684 679 0
-42 684 -679 0
-21 -685 680 0
-21 -685 681 0
-21 685 -680 -681 0
-22 -685 680 0
-22 -685 682 0
-22 685 -680 -682 0
-23 -685 680 0
-23 -685 683 0
-23 685 -680 -683 0
-24 -685 680 0
-24 -685 684 0
-24 685 -680 -684 0
-25 -685 680 0
-25 685 -680 0
-26 -685 680 0
-26 685 -680 0
-27 -685 680 0
-27 685 -680 0
-28 -685 680 0
-28 685 -680 0
-29 -685 680 0
-29 685 -680 0
-30 -685 680 0
-30 685 -680 0
-43 -685 680 0
-43 685 -680 0
-21 -681 686 0
-21 -680 686 0
-21 -686 681 680 0
-22 -686 681 0
-22 686 -681 0
-23 -686 681 0
-23 686 -681 0
-24 -686 681 0
-24 686 -681 0
-25 -686 681 0
-25 -686 682 0
-25 686 -681 -682 0
-26 -686 681 0
-26 -686 683 0
-26 686 -681 -683 0
-27 -686 681 0
-27 -686 684 0
-27 686 -681 -684 0
-28 -686 681 0
-28 686 -681 0
-29 -686 681 0
-29 686 -681 0
-30 -686 681 0
-30 686 -681 0
-43 -686 681 0
-43 686 -681 0
-21 -687 682 0
-21 687 -682 0
-22 -682 687 0
-22 -680 687 0
-22 -687 682 680 0
-23 -687 682 0
-23 687 -682 0
-24 -687 682 0
-24 687 -682 0
-25 -682 687 0
-25 -681 687 0
-25 -687 682 681 0
-26 -687 682 0
-26 687 -682 0
-27 -687 682 0
-27 687 -682 0
-28 -687 682 0
-28 -687 683 0
-28 687 -682 -683 0
-29 -687 682 0
-29 -687 684 0
-29 687 -682 -684 0
-30 -687 682 0
-30 687 -682 0
-43 -687 682 0
-43 687 -682 0
-21 -688 683 0
-21 688 -683 0
-22 -688 683 0
-22 688 -683 0
-23 -683 688 0
-23 -680 688 0
-23 -688 683 680 0
-24 -688 683 0
-24 688 -683 0
-25 -688 683 0
-25 688 -683 0
-26 -683 688 0
-26 -681 688 0
-26 -688 683 681 0
-27 -688 683 0
-27 688 -683 0
-28 -683 688 0
-28 -682 688 0
-28 -688 683 682 0
-29 -688 683 0
-29 688 -683 0
-30 -688 683 0
-30 -688 684 0
-30 688 -683 -684 0
-43 -688 683 0
-43 688 -683 0
-21 -689 684 0
-21 689 -684 0
-22 -689 684 0
-22 689 -684 0
-23 -689 684 0
-23 689 -684 0
-24 -684 689 0
-24 -680 689 0
-24 -689 684 680 0
-25 -689 684 0
-25 689 -684 0
-26 -689 684 0
-26 689 -684 0
-27 -684 689 0
-27 -681 689 0
-27 -689 684 681 0
-28 -689 684 0
-28 689 -684 0
-29 -684 689 0
-29 -682 689 0
-29 -689 684 682 0
-30 -684 689 0
-30 -683 689 0
-30 -689 684 683 0
-43 -689 684 0
-43 689 -684 0
-31 -690 685 0
-31 -690 686 0
-31 690 -685 -686 0
-32 -690 685 0
-32 -690 687 0
-32 690 -685 -687 0
-33 -690 685 0
-33 -690 688 0
-33 690 -685 -688 0
-34 -690 685 0
-34 -690 689 0
-34 690 -685 -689 0
-35 -690 685 0
-35 690 -685 0
-36 -690 685 0
-36 690 -685 0
-37 -690 685 0
-37 690 -685 0
-38 -690 685 0
-38 690 -685 0
-39 -690 685 0
-39 690 -685 0
-40 -690 685 0
-40 690 -685 0
-44 -690 685 0
-44 690 -685 0
-31 -686 691 0
-31 -685 691 0
-31 -691 686 685 0
-32 -691 686 0
-32 691 -686 0
-33 -691 686 0
-33 691 -686 0
-34 -691 686 0
-34 691 -686 0
-35 -691 686 0
-35 -691 687 0
-35 691 -686 -687 0
-36 -691 686 0
-36 -691 688 0
-36 691 -686 -688 0
-37 -691 686 0
-37 -691 689 0
-37 691 -686 -689 0
-38 -691 686 0
-38 691 -686 0
-39 -691 686 0
-39 691 -686 0
-40 -691 686 0
-40 691 -686 0
-44 -691 686 0
-44 691 -686 0
-31 -692 687 0
-31 692 -687 0
-32 -687 692 0
-32 -685 692 0
-32 -692 687 685 0
-33 -692 687 0
-33 692 -687 0
-34 -692 687 0
-34 692 -687 0
-35 -687 692 0
-35 -686 692 0
-35 -692 687 686 0
-36 -692 687 0
-36 692 -687 0
-37 -692 687 0
-37 692 -687 0
-38 -692 687 0
-38 -692 688 0
-38 692 -687 -688 0
-39 -692 687 0
-39 -692 689 0
-39 692 -687 -689 0
-40 -692 687 0
-40 692 -687 0
-44 -692 687 0
-44 692 -687 0
-31 -693 688 0
-31 693 -688 0
-32 -693 688 0
-32 693 -688 0
-33 -688 693 0
-33 -685 693 0
-33 -693 688 685 0
-34 -693 688 0
-34 693 -688 0
-35 -693 688 0
-35 693 -688 0
-36 -688 693 0
-36 -686 693 0
-36 -693 688 686 0
-37 -693 688 0
-37 693 -688 0
-38 -688 693 0
-38 -687 693 0
-38 -693 688 687 0
-39 -693 688 0
-39 693 -688 0
-40 -693 688 0
-40 -693 689 0
-40 693 -688 -689 0
-44 -693 688 0
-44 693 -688 0
-31 -694 689 0
-31 694 -689 0
-32 -694 689 0
-32 694 -689 0
-33 -694 689 0
-33 694 -689 0
-34 -689 694 0
-34 -685 694 0
-34 -694 689 685 0
-35 -694 689 0
-35 694 -689 0
-36 -694 689 0
-36 694 -689 0
-37 -689 694 0
-37 -686 694 0
-37 -694 689 686 0
-38 -694 689 0
-38 694 -689 0
-39 -689 694 0
-39 -687 694 0
-39 -694 689 687 0
-40 -689 694 0
-40 -688 694 0
-40 -694 689 688 0
-44 -694 689 0
-44 694 -689 0
-67 0
-92 0
-117 0
-142 0
-167 0
-192 0
-217 0
242 0
-267 0
292 0
317 0
-342 0
-367 0
-392 0
417 0
-442 0
467 0
492 0
517 0
-542 0
567 0
592 0
617 0
642 0
667 0
692 0
