p cnf 344 6647
1 2 3 4 5 6 7 8 9 10 41 0
-1 -2 0
-1 -3 0
-1 -4 0
-1 -5 0
-1 -6 0
-1 -7 0
-1 -8 0
-1 -9 0
-1 -10 0
-1 -41 0
-2 -3 0
-2 -4 0
-2 -5 0
-2 -6 0
-2 -7 0
-2 -8 0
-2 -9 0
-2 -10 0
-2 -41 0
-3 -4 0
-3 -5 0
-3 -6 0
-3 -7 0
-3 -8 0
-3 -9 0
-3 -10 0
-3 -41 0
-4 -5 0
-4 -6 0
-4 -7 0
-4 -8 0
-4 -9 0
-4 -10 0
-4 -41 0
-5 -6 0
-5 -7 0
-5 -8 0
-5 -9 0
-5 -10 0
-5 -41 0
-6 -7 0
-6 -8 0
-6 -9 0
-6 -10 0
-6 -41 0
-7 -8 0
-7 -9 0
-7 -10 0
-7 -41 0
-8 -9 0
-8 -10 0
-8 -41 0
-9 -10 0
-9 -41 0
-10 -41 0
11 12 13 14 15 16 17 18 19 20 42 0
-11 -12 0
-11 -13 0
-11 -14 0
-11 -15 0
-11 -16 0
-11 -17 0
-11 -18 0
-11 -19 0
-11 -20 0
-11 -42 0
-12 -13 0
-12 -14 0
-12 -15 0
-12 -16 0
-12 -17 0
-12 -18 0
-12 -19 0
-12 -20 0
-12 -42 0
-13 -14 0
-13 -15 0
-13 -16 0
-13 -17 0
-13 -18 0
-13 -19 0
-13 -20 0
-13 -42 0
-14 -15 0
-14 -16 0
-14 -17 0
-14 -18 0
-14 -19 0
-14 -20 0
-14 -42 0
-15 -16 0
-15 -17 0
-15 -18 0
-15 -19 0
-15 -20 0
-15 -42 0
-16 -17 0
-16 -18 0
-16 -19 0
-16 -20 0
-16 -42 0
-17 -18 0
-17 -19 0
-17 -20 0
-17 -42 0
-18 -19 0
-18 -20 0
-18 -42 0
-19 -20 0
-19 -42 0
-20 -42 0
21 22 23 24 25 26 27 28 29 30 43 0
-21 -22 0
-21 -23 0
-21 -24 0
-21 -25 0
-21 -26 0
-21 -27 0
-21 -28 0
-21 -29 0
-21 -30 0
-21 -43 0
-22 -23 0
-22 -24 0
-22 -25 0
-22 -26 0
-22 -27 0
-22 -28 0
-22 -29 0
-22 -30 0
-22 -43 0
-23 -24 0
-23 -25 0
-23 -26 0
-23 -27 0
-23 -28 0
-23 -29 0
-23 -30 0
-23 -43 0
-24 -25 0
-24 -26 0
-24 -27 0
-24 -28 0
-24 -29 0
-24 -30 0
-24 -43 0
-25 -26 0
-25 -27 0
-25 -28 0
-25 -29 0
-25 -30 0
-25 -43 0
-26 -27 0
-26 -28 0
-26 -29 0
-26 -30 0
-26 -43 0
-27 -28 0
-27 -29 0
-27 -30 0
-27 -43 0
-28 -29 0
-28 -30 0
-28 -43 0
-29 -30 0
-29 -43 0
-30 -43 0
31 32 33 34 35 36 37 38 39 40 44 0
-31 -32 0
-31 -33 0
-31 -34 0
-31 -35 0
-31 -36 0
-31 -37 0
-31 -38 0
-31 -39 0
-31 -40 0
-31 -44 0
-32 -33 0
-32 -34 0
-32 -35 0
-32 -36 0
-32 -37 0
-32 -38 0
-32 -39 0
-32 -40 0
-32 -44 0
-33 -34 0
-33 -35 0
-33 -36 0
-33 -37 0
-33 -38 0
-33 -39 0
-33 -40 0
-33 -44 0
-34 -35 0
-34 -36 0
-34 -37 0
-34 -38 0
-34 -39 0
-34 -40 0
-34 -44 0
-35 -36 0
-35 -37 0
-35 -38 0
-35 -39 0
-35 -40 0
-35 -44 0
-36 -37 0
-36 -38 0
-36 -39 0
-36 -40 0
-36 -44 0
-37 -38 0
-37 -39 0
-37 -40 0
-37 -44 0
-38 -39 0
-38 -40 0
-38 -44 0
-39 -40 0
-39 -44 0
-40 -44 0
-1 -11 0
-2 -12 0
-3 -13 0
-4 -14 0
-5 -15 0
-6 -16 0
-7 -17 0
-8 -18 0
-9 -19 0
-10 -20 0
-11 -21 0
-12 -22 0
-13 -23 0
-14 -24 0
-15 -25 0
-16 -26 0
-17 -27 0
-18 -28 0
-19 -29 0
-20 -30 0
-21 -31 0
-22 -32 0
-23 -33 0
-24 -34 0
-25 -35 0
-26 -36 0
-27 -37 0
-28 -38 0
-29 -39 0
-30 -40 0
-5 -13 0
-5 -14 0
-6 -12 0
-6 -14 0
-7 -12 0
-7 -13 0
-8 -11 0
-8 -14 0
-8 -17 0
-9 -11 0
-9 -13 0
-9 -16 0
-10 -11 0
-10 -12 0
-10 -15 0
-15 -23 0
-15 -24 0
-16 -22 0
-16 -24 0
-17 -22 0
-17 -23 0
-18 -21 0
-18 -24 0
-18 -27 0
-19 -21 0
-19 -23 0
-19 -26 0
-20 -21 0
-20 -22 0
-20 -25 0
-25 -33 0
-25 -34 0
-26 -32 0
-26 -34 0
-27 -32 0
-27 -33 0
-28 -31 0
-28 -34 0
-28 -37 0
-29 -31 0
-29 -33 0
-29 -36 0
-30 -31 0
-30 -32 0
-30 -35 0
-45 0
-1 -50 45 0
-1 -50 46 0
-1 50 -45 -46 0
-2 -50 45 0
-2 -50 47 0
-2 50 -45 -47 0
-3 -50 45 0
-3 -50 48 0
-3 50 -45 -48 0
-4 -50 45 0
-4 -50 49 0
-4 50 -45 -49 0
-5 -50 45 0
-5 50 -45 0
-6 -50 45 0
-6 50 -45 0
-7 -50 45 0
-7 50 -45 0
-8 -50 45 0
-8 50 -45 0
-9 -50 45 0
-9 50 -45 0
-10 -50 45 0
-10 50 -45 0
-41 -50 45 0
-41 50 -45 0
-46 0
-1 -46 51 0
-1 -45 51 0
-1 -51 46 45 0
-2 -51 46 0
-2 51 -46 0
-3 -51 46 0
-3 51 -46 0
-4 -51 46 0
-4 51 -46 0
-5 -51 46 0
-5 -51 47 0
-5 51 -46 -47 0
-6 -51 46 0
-6 -51 48 0
-6 51 -46 -48 0
-7 -51 46 0
-7 -51 49 0
-7 51 -46 -49 0
-8 -51 46 0
-8 51 -46 0
-9 -51 46 0
-9 51 -46 0
-10 -51 46 0
-10 51 -46 0
-41 -51 46 0
-41 51 -46 0
-47 0
-1 -52 47 0
-1 52 -47 0
-2 -47 52 0
-2 -45 52 0
-2 -52 47 45 0
-3 -52 47 0
-3 52 -47 0
-4 -52 47 0
-4 52 -47 0
-5 -47 52 0
-5 -46 52 0
-5 -52 47 46 0
-6 -52 47 0
-6 52 -47 0
-7 -52 47 0
-7 52 -47 0
-8 -52 47 0
-8 -52 48 0
-8 52 -47 -48 0
-9 -52 47 0
-9 -52 49 0
-9 52 -47 -49 0
-10 -52 47 0
-10 52 -47 0
-41 -52 47 0
-41 52 -47 0
-48 0
-1 -53 48 0
-1 53 -48 0
-2 -53 48 0
-2 53 -48 0
-3 -48 53 0
-3 -45 53 0
-3 -53 48 45 0
-4 -53 48 0
-4 53 -48 0
-5 -53 48 0
-5 53 -48 0
-6 -48 53 0
-6 -46 53 0
-6 -53 48 46 0
-7 -53 48 0
-7 53 -48 0
-8 -48 53 0
-8 -47 53 0
-8 -53 48 47 0
-9 -53 48 0
-9 53 -48 0
-10 -53 48 0
-10 -53 49 0
-10 53 -48 -49 0
-41 -53 48 0
-41 53 -48 0
-49 0
-1 -54 49 0
-1 54 -49 0
-2 -54 49 0
-2 54 -49 0
-3 -54 49 0
-3 54 -49 0
-4 -49 54 0
-4 -45 54 0
-4 -54 49 45 0
-5 -54 49 0
-5 54 -49 0
-6 -54 49 0
-6 54 -49 0
-7 -49 54 0
-7 -46 54 0
-7 -54 49 46 0
-8 -54 49 0
-8 54 -49 0
-9 -49 54 0
-9 -47 54 0
-9 -54 49 47 0
-10 -49 54 0
-10 -48 54 0
-10 -54 49 48 0
-41 -54 49 0
-41 54 -49 0
-11 -55 50 0
-11 -55 51 0
-11 55 -50 -51 0
-12 -55 50 0
-12 -55 52 0
-12 55 -50 -52 0
-13 -55 50 0
-13 -55 53 0
-13 55 -50 -53 0
-14 -55 50 0
-14 -55 54 0
-14 55 -50 -54 0
-15 -55 50 0
-15 55 -50 0
-16 -55 50 0
-16 55 -50 0
-17 -55 50 0
-17 55 -50 0
-18 -55 50 0
-18 55 -50 0
-19 -55 50 0
-19 55 -50 0
-20 -55 50 0
-20 55 -50 0
-42 -55 50 0
-42 55 -50 0
-11 -51 56 0
-11 -50 56 0
-11 -56 51 50 0
-12 -56 51 0
-12 56 -51 0
-13 -56 51 0
-13 56 -51 0
-14 -56 51 0
-14 56 -51 0
-15 -56 51 0
-15 -56 52 0
-15 56 -51 -52 0
-16 -56 51 0
-16 -56 53 0
-16 56 -51 -53 0
-17 -56 51 0
-17 -56 54 0
-17 56 -51 -54 0
-18 -56 51 0
-18 56 -51 0
-19 -56 51 0
-19 56 -51 0
-20 -56 51 0
-20 56 -51 0
-42 -56 51 0
-42 56 -51 0
-11 -57 52 0
-11 57 -52 0
-12 -52 57 0
-12 -50 57 0
-12 -57 52 50 0
-13 -57 52 0
-13 57 -52 0
-14 -57 52 0
-14 57 -52 0
-15 -52 57 0
-15 -51 57 0
-15 -57 52 51 0
-16 -57 52 0
-16 57 -52 0
-17 -57 52 0
-17 57 -52 0
-18 -57 52 0
-18 -57 53 0
-18 57 -52 -53 0
-19 -57 52 0
-19 -57 54 0
-19 57 -52 -54 0
-20 -57 52 0
-20 57 -52 0
-42 -57 52 0
-42 57 -52 0
-11 -58 53 0
-11 58 -53 0
-12 -58 53 0
-12 58 -53 0
-13 -53 58 0
-13 -50 58 0
-13 -58 53 50 0
-14 -58 53 0
-14 58 -53 0
-15 -58 53 0
-15 58 -53 0
-16 -53 58 0
-16 -51 58 0
-16 -58 53 51 0
-17 -58 53 0
-17 58 -53 0
-18 -53 58 0
-18 -52 58 0
-18 -58 53 52 0
-19 -58 53 0
-19 58 -53 0
-20 -58 53 0
-20 -58 54 0
-20 58 -53 -54 0
-42 -58 53 0
-42 58 -53 0
-11 -59 54 0
-11 59 -54 0
-12 -59 54 0
-12 59 -54 0
-13 -59 54 0
-13 59 -54 0
-14 -54 59 0
-14 -50 59 0
-14 -59 54 50 0
-15 -59 54 0
-15 59 -54 0
-16 -59 54 0
-16 59 -54 0
-17 -54 59 0
-17 -51 59 0
-17 -59 54 51 0
-18 -59 54 0
-18 59 -54 0
-19 -54 59 0
-19 -52 59 0
-19 -59 54 52 0
-20 -54 59 0
-20 -53 59 0
-20 -59 54 53 0
-42 -59 54 0
-42 59 -54 0
-21 -60 55 0
-21 -60 56 0
-21 60 -55 -56 0
-22 -60 55 0
-22 -60 57 0
-22 60 -55 -57 0
-23 -60 55 0
-23 -60 58 0
-23 60 -55 -58 0
-24 -60 55 0
-24 -60 59 0
-24 60 -55 -59 0
-25 -60 55 0
-25 60 -55 0
-26 -60 55 0
-26 60 -55 0
-27 -60 55 0
-27 60 -55 0
-28 -60 55 0
-28 60 -55 0
-29 -60 55 0
-29 60 -55 0
-30 -60 55 0
-30 60 -55 0
-43 -60 55 0
-43 60 -55 0
-21 -56 61 0
-21 -55 61 0
-21 -61 56 55 0
-22 -61 56 0
-22 61 -56 0
-23 -61 56 0
-23 61 -56 0
-24 -61 56 0
-24 61 -56 0
-25 -61 56 0
-25 -61 57 0
-25 61 -56 -57 0
-26 -61 56 0
-26 -61 58 0
-26 61 -56 -58 0
-27 -61 56 0
-27 -61 59 0
-27 61 -56 -59 0
-28 -61 56 0
-28 61 -56 0
-29 -61 56 0
-29 61 -56 0
-30 -61 56 0
-30 61 -56 0
-43 -61 56 0
-43 61 -56 0
-21 -62 57 0
-21 62 -57 0
-22 -57 62 0
-22 -55 62 0
-22 -62 57 55 0
-23 -62 57 0
-23 62 -57 0
-24 -62 57 0
-24 62 -57 0
-25 -57 62 0
-25 -56 62 0
-25 -62 57 56 0
-26 -62 57 0
-26 62 -57 0
-27 -62 57 0
-27 62 -57 0
-28 -62 57 0
-28 -62 58 0
-28 62 -57 -58 0
-29 -62 57 0
-29 -62 59 0
-29 62 -57 -59 0
-30 -62 57 0
-30 62 -57 0
-43 -62 57 0
-43 62 -57 0
-21 -63 58 0
-21 63 -58 0
-22 -63 58 0
-22 63 -58 0
-23 -58 63 0
-23 -55 63 0
-23 -63 58 55 0
-24 -63 58 0
-24 63 -58 0
-25 -63 58 0
-25 63 -58 0
-26 -58 63 0
-26 -56 63 0
-26 -63 58 56 0
-27 -63 58 0
-27 63 -58 0
-28 -58 63 0
-28 -57 63 0
-28 -63 58 57 0
-29 -63 58 0
-29 63 -58 0
-30 -63 58 0
-30 -63 59 0
-30 63 -58 -59 0
-43 -63 58 0
-43 63 -58 0
-21 -64 59 0
-21 64 -59 0
-22 -64 59 0
-22 64 -59 0
-23 -64 59 0
-23 64 -59 0
-24 -59 64 0
-24 -55 64 0
-24 -64 59 55 0
-25 -64 59 0
-25 64 -59 0
-26 -64 59 0
-26 64 -59 0
-27 -59 64 0
-27 -56 64 0
-27 -64 59 56 0
-28 -64 59 0
-28 64 -59 0
-29 -59 64 0
-29 -57 64 0
-29 -64 59 57 0
-30 -59 64 0
-30 -58 64 0
-30 -64 59 58 0
-43 -64 59 0
-43 64 -59 0
-31 -65 60 0
-31 -65 61 0
-31 65 -60 -61 0
-32 -65 60 0
-32 -65 62 0
-32 65 -60 -62 0
-33 -65 60 0
-33 -65 63 0
-33 65 -60 -63 0
-34 -65 60 0
-34 -65 64 0
-34 65 -60 -64 0
-35 -65 60 0
-35 65 -60 0
-36 -65 60 0
-36 65 -60 0
-37 -65 60 0
-37 65 -60 0
-38 -65 60 0
-38 65 -60 0
-39 -65 60 0
-39 65 -60 0
-40 -65 60 0
-40 65 -60 0
-44 -65 60 0
-44 65 -60 0
-31 -61 66 0
-31 -60 66 0
-31 -66 61 60 0
-32 -66 61 0
-32 66 -61 0
-33 -66 61 0
-33 66 -61 0
-34 -66 61 0
-34 66 -61 0
-35 -66 61 0
-35 -66 62 0
-35 66 -61 -62 0
-36 -66 61 0
-36 -66 63 0
-36 66 -61 -63 0
-37 -66 61 0
-37 -66 64 0
-37 66 -61 -64 0
-38 -66 61 0
-38 66 -61 0
-39 -66 61 0
-39 66 -61 0
-40 -66 61 0
-40 66 -61 0
-44 -66 61 0
-44 66 -61 0
-31 -67 62 0
-31 67 -62 0
-32 -62 67 0
-32 -60 67 0
-32 -67 62 60 0
-33 -67 62 0
-33 67 -62 0
-34 -67 62 0
-34 67 -62 0
-35 -62 67 0
-35 -61 67 0
-35 -67 62 61 0
-36 -67 62 0
-36 67 -62 0
-37 -67 62 0
-37 67 -62 0
-38 -67 62 0
-38 -67 63 0
-38 67 -62 -63 0
-39 -67 62 0
-39 -67 64 0
-39 67 -62 -64 0
-40 -67 62 0
-40 67 -62 0
-44 -67 62 0
-44 67 -62 0
-31 -68 63 0
-31 68 -63 0
-32 -68 63 0
-32 68 -63 0
-33 -63 68 0
-33 -60 68 0
-33 -68 63 60 0
-34 -68 63 0
-34 68 -63 0
-35 -68 63 0
-35 68 -63 0
-36 -63 68 0
-36 -61 68 0
-36 -68 63 61 0
-37 -68 63 0
-37 68 -63 0
-38 -63 68 0
-38 -62 68 0
-38 -68 63 62 0
-39 -68 63 0
-39 68 -63 0
-40 -68 63 0
-40 -68 64 0
-40 68 -63 -64 0
-44 -68 63 0
-44 68 -63 0
-31 -69 64 0
-31 69 -64 0
-32 -69 64 0
-32 69 -64 0
-33 -69 64 0
-33 69 -64 0
-34 -64 69 0
-34 -60 69 0
-34 -69 64 60 0
-35 -69 64 0
-35 69 -64 0
-36 -69 64 0
-36 69 -64 0
-37 -64 69 0
-37 -61 69 0
-37 -69 64 61 0
-38 -69 64 0
-38 69 -64 0
-39 -64 69 0
-39 -62 69 0
-39 -69 64 62 0
-40 -64 69 0
-40 -63 69 0
-40 -69 64 63 0
-44 -69 64 0
-44 69 -64 0
-70 0
-1 -75 70 0
-1 -75 71 0
-1 75 -70 -71 0
-2 -75 70 0
-2 -75 72 0
-2 75 -70 -72 0
-3 -75 70 0
-3 -75 73 0
-3 75 -70 -73 0
-4 -75 70 0
-4 -75 74 0
-4 75 -70 -74 0
-5 -75 70 0
-5 75 -70 0
-6 -75 70 0
-6 75 -70 0
-7 -75 70 0
-7 75 -70 0
-8 -75 70 0
-8 75 -70 0
-9 -75 70 0
-9 75 -70 0
-10 -75 70 0
-10 75 -70 0
-41 -75 70 0
-41 75 -70 0
-71 0
-1 -71 76 0
-1 -70 76 0
-1 -76 71 70 0
-2 -76 71 0
-2 76 -71 0
-3 -76 71 0
-3 76 -71 0
-4 -76 71 0
-4 76 -71 0
-5 -76 71 0
-5 -76 72 0
-5 76 -71 -72 0
-6 -76 71 0
-6 -76 73 0
-6 76 -71 -73 0
-7 -76 71 0
-7 -76 74 0
-7 76 -71 -74 0
-8 -76 71 0
-8 76 -71 0
-9 -76 71 0
-9 76 -71 0
-10 -76 71 0
-10 76 -71 0
-41 -76 71 0
-41 76 -71 0
-72 0
-1 -77 72 0
-1 77 -72 0
-2 -72 77 0
-2 -70 77 0
-2 -77 72 70 0
-3 -77 72 0
-3 77 -72 0
-4 -77 72 0
-4 77 -72 0
-5 -72 77 0
-5 -71 77 0
-5 -77 72 71 0
-6 -77 72 0
-6 77 -72 0
-7 -77 72 0
-7 77 -72 0
-8 -77 72 0
-8 -77 73 0
-8 77 -72 -73 0
-9 -77 72 0
-9 -77 74 0
-9 77 -72 -74 0
-10 -77 72 0
-10 77 -72 0
-41 -77 72 0
-41 77 -72 0
-73 0
-1 -78 73 0
-1 78 -73 0
-2 -78 73 0
-2 78 -73 0
-3 -73 78 0
-3 -70 78 0
-3 -78 73 70 0
-4 -78 73 0
-4 78 -73 0
-5 -78 73 0
-5 78 -73 0
-6 -73 78 0
-6 -71 78 0
-6 -78 73 71 0
-7 -78 73 0
-7 78 -73 0
-8 -73 78 0
-8 -72 78 0
-8 -78 73 72 0
-9 -78 73 0
-9 78 -73 0
-10 -78 73 0
-10 -78 74 0
-10 78 -73 -74 0
-41 -78 73 0
-41 78 -73 0
74 0
-1 -79 74 0
-1 79 -74 0
-2 -79 74 0
-2 79 -74 0
-3 -79 74 0
-3 79 -74 0
-4 -74 79 0
-4 -70 79 0
-4 -79 74 70 0
-5 -79 74 0
-5 79 -74 0
-6 -79 74 0
-6 79 -74 0
-7 -74 79 0
-7 -71 79 0
-7 -79 74 71 0
-8 -79 74 0
-8 79 -74 0
-9 -74 79 0
-9 -72 79 0
-9 -79 74 72 0
-10 -74 79 0
-10 -73 79 0
-10 -79 74 73 0
-41 -79 74 0
-41 79 -74 0
-11 -80 75 0
-11 -80 76 0
-11 80 -75 -76 0
-12 -80 75 0
-12 -80 77 0
-12 80 -75 -77 0
-13 -80 75 0
-13 -80 78 0
-13 80 -75 -78 0
-14 -80 75 0
-14 -80 79 0
-14 80 -75 -79 0
-15 -80 75 0
-15 80 -75 0
-16 -80 75 0
-16 80 -75 0
-17 -80 75 0
-17 80 -75 0
-18 -80 75 0
-18 80 -75 0
-19 -80 75 0
-19 80 -75 0
-20 -80 75 0
-20 80 -75 0
-42 -80 75 0
-42 80 -75 0
-11 -76 81 0
-11 -75 81 0
-11 -81 76 75 0
-12 -81 76 0
-12 81 -76 0
-13 -81 76 0
-13 81 -76 0
-14 -81 76 0
-14 81 -76 0
-15 -81 76 0
-15 -81 77 0
-15 81 -76 -77 0
-16 -81 76 0
-16 -81 78 0
-16 81 -76 -78 0
-17 -81 76 0
-17 -81 79 0
-17 81 -76 -79 0
-18 -81 76 0
-18 81 -76 0
-19 -81 76 0
-19 81 -76 0
-20 -81 76 0
-20 81 -76 0
-42 -81 76 0
-42 81 -76 0
-11 -82 77 0
-11 82 -77 0
-12 -77 82 0
-12 -75 82 0
-12 -82 77 75 0
-13 -82 77 0
-13 82 -77 0
-14 -82 77 0
-14 82 -77 0
-15 -77 82 0
-15 -76 82 0
-15 -82 77 76 0
-16 -82 77 0
-16 82 -77 0
-17 -82 77 0
-17 82 -77 0
-18 -82 77 0
-18 -82 78 0
-18 82 -77 -78 0
-19 -82 77 0
-19 -82 79 0
-19 82 -77 -79 0
-20 -82 77 0
-20 82 -77 0
-42 -82 77 0
-42 82 -77 0
-11 -83 78 0
-11 83 -78 0
-12 -83 78 0
-12 83 -78 0
-13 -78 83 0
-13 -75 83 0
-13 -83 78 75 0
-14 -83 78 0
-14 83 -78 0
-15 -83 78 0
-15 83 -78 0
-16 -78 83 0
-16 -76 83 0
-16 -83 78 76 0
-17 -83 78 0
-17 83 -78 0
-18 -78 83 0
-18 -77 83 0
-18 -83 78 77 0
-19 -83 78 0
-19 83 -78 0
-20 -83 78 0
-20 -83 79 0
-20 83 -78 -79 0
-42 -83 78 0
-42 83 -78 0
-11 -84 79 0
-11 84 -79 0
-12 -84 79 0
-12 84 -79 0
-13 -84 79 0
-13 84 -79 0
-14 -79 84 0
-14 -75 84 0
-14 -84 79 75 0
-15 -84 79 0
-15 84 -79 0
-16 -84 79 0
-16 84 -79 0
-17 -79 84 0
-17 -76 84 0
-17 -84 79 76 0
-18 -84 79 0
-18 84 -79 0
-19 -79 84 0
-19 -77 84 0
-19 -84 79 77 0
-20 -79 84 0
-20 -78 84 0
-20 -84 79 78 0
-42 -84 79 0
-42 84 -79 0
-21 -85 80 0
-21 -85 81 0
-21 85 -80 -81 0
-22 -85 80 0
-22 -85 82 0
-22 85 -80 -82 0
-23 -85 80 0
-23 -85 83 0
-23 85 -80 -83 0
-24 -85 80 0
-24 -85 84 0
-24 85 -80 -84 0
-25 -85 80 0
-25 85 -80 0
-26 -85 80 0
-26 85 -80 0
-27 -85 80 0
-27 85 -80 0
-28 -85 80 0
-28 85 -80 0
-29 -85 80 0
-29 85 -80 0
-30 -85 80 0
-30 85 -80 0
-43 -85 80 0
-43 85 -80 0
-21 -81 86 0
-21 -80 86 0
-21 -86 81 80 0
-22 -86 81 0
-22 86 -81 0
-23 -86 81 0
-23 86 -81 0
-24 -86 81 0
-24 86 -81 0
-25 -86 81 0
-25 -86 82 0
-25 86 -81 -82 0
-26 -86 81 0
-26 -86 83 0
-26 86 -81 -83 0
-27 -86 81 0
-27 -86 84 0
-27 86 -81 -84 0
-28 -86 81 0
-28 86 -81 0
-29 -86 81 0
-29 86 -81 0
-30 -86 81 0
-30 86 -81 0
-43 -86 81 0
-43 86 -81 0
-21 -87 82 0
-21 87 -82 0
-22 -82 87 0
-22 -80 87 0
-22 -87 82 80 0
-23 -87 82 0
-23 87 -82 0
-24 -87 82 0
-24 87 -82 0
-25 -82 87 0
-25 -81 87 0
-25 -87 82 81 0
-26 -87 82 0
-26 87 -82 0
-27 -87 82 0
-27 87 -82 0
-28 -87 82 0
-28 -87 83 0
-28 87 -82 -83 0
-29 -87 82 0
-29 -87 84 0
-29 87 -82 -84 0
-30 -87 82 0
-30 87 -82 0
-43 -87 82 0
-43 87 -82 0
-21 -88 83 0
-21 88 -83 0
-22 -88 83 0
-22 88 -83 0
-23 -83 88 0
-23 -80 88 0
-23 -88 83 80 0
-24 -88 83 0
-24 88 -83 0
-25 -88 83 0
-25 88 -83 0
-26 -83 88 0
-26 -81 88 0
-26 -88 83 81 0
-27 -88 83 0
-27 88 -83 0
-28 -83 88 0
-28 -82 88 0
-28 -88 83 82 0
-29 -88 83 0
-29 88 -83 0
-30 -88 83 0
-30 -88 84 0
-30 88 -83 -84 0
-43 -88 83 0
-43 88 -83 0
-21 -89 84 0
-21 89 -84 0
-22 -89 84 0
-22 89 -84 0
-23 -89 84 0
-23 89 -84 0
-24 -84 89 0
-24 -80 89 0
-24 -89 84 80 0
-25 -89 84 0
-25 89 -84 0
-26 -89 84 0
-26 89 -84 0
-27 -84 89 0
-27 -81 89 0
-27 -89 84 81 0
-28 -89 84 0
-28 89 -84 0
-29 -84 89 0
-29 -82 89 0
-29 -89 84 82 0
-30 -84 89 0
-30 -83 89 0
-30 -89 84 83 0
-43 -89 84 0
-43 89 -84 0
-31 -90 85 0
-31 -90 86 0
-31 90 -85 -86 0
-32 -90 85 0
-32 -90 87 0
-32 90 -85 -87 0
-33 -90 85 0
-33 -90 88 0
-33 90 -85 -88 0
-34 -90 85 0
-34 -90 89 0
-34 90 -85 -89 0
-35 -90 85 0
-35 90 -85 0
-36 -90 85 0
-36 90 -85 0
-37 -90 85 0
-37 90 -85 0
-38 -90 85 0
-38 90 -85 0
-39 -90 85 0
-39 90 -85 0
-40 -90 85 0
-40 90 -85 0
-44 -90 85 0
-44 90 -85 0
-31 -86 91 0
-31 -85 91 0
-31 -91 86 85 0
-32 -91 86 0
-32 91 -86 0
-33 -91 86 0
-33 91 -86 0
-34 -91 86 0
-34 91 -86 0
-35 -91 86 0
-35 -91 87 0
-35 91 -86 -87 0
-36 -91 86 0
-36 -91 88 0
-36 91 -86 -88 0
-37 -91 86 0
-37 -91 89 0
-37 91 -86 -89 0
-38 -91 86 0
-38 91 -86 0
-39 -91 86 0
-39 91 -86 0
-40 -91 86 0
-40 91 -86 0
-44 -91 86 0
-44 91 -86 0
-31 -92 87 0
-31 92 -87 0
-32 -87 92 0
-32 -85 92 0
-32 -92 87 85 0
-33 -92 87 0
-33 92 -87 0
-34 -92 87 0
-34 92 -87 0
-35 -87 92 0
-35 -86 92 0
-35 -92 87 86 0
-36 -92 87 0
-36 92 -87 0
-37 -92 87 0
-37 92 -87 0
-38 -92 87 0
-38 -92 88 0
-38 92 -87 -88 0
-39 -92 87 0
-39 -92 89 0
-39 92 -87 -89 0
-40 -92 87 0
-40 92 -87 0
-44 -92 87 0
-44 92 -87 0
-31 -93 88 0
-31 93 -88 0
-32 -93 88 0
-32 93 -88 0
-33 -88 93 0
-33 -85 93 0
-33 -93 88 85 0
-34 -93 88 0
-34 93 -88 0
-35 -93 88 0
-35 93 -88 0
-36 -88 93 0
-36 -86 93 0
-36 -93 88 86 0
-37 -93 88 0
-37 93 -88 0
-38 -88 93 0
-38 -87 93 0
-38 -93 88 87 0
-39 -93 88 0
-39 93 -88 0
-40 -93 88 0
-40 -93 89 0
-40 93 -88 -89 0
-44 -93 88 0
-44 93 -88 0
-31 -94 89 0
-31 94 -89 0
-32 -94 89 0
-32 94 -89 0
-33 -94 89 0
-33 94 -89 0
-34 -89 94 0
-34 -85 94 0
-34 -94 89 85 0
-35 -94 89 0
-35 94 -89 0
-36 -94 89 0
-36 94 -89 0
-37 -89 94 0
-37 -86 94 0
-37 -94 89 86 0
-38 -94 89 0
-38 94 -89 0
-39 -89 94 0
-39 -87 94 0
-39 -94 89 87 0
-40 -89 94 0
-40 -88 94 0
-40 -94 89 88 0
-44 -94 89 0
-44 94 -89 0
-95 0
-1 -100 95 0
-1 -100 96 0
-1 100 -95 -96 0
-2 -100 95 0
-2 -100 97 0
-2 100 -95 -97 0
-3 -100 95 0
-3 -100 98 0
-3 100 -95 -98 0
-4 -100 95 0
-4 -100 99 0
-4 100 -95 -99 0
-5 -100 95 0
-5 100 -95 0
-6 -100 95 0
-6 100 -95 0
-7 -100 95 0
-7 100 -95 0
-8 -100 95 0
-8 100 -95 0
-9 -100 95 0
-9 100 -95 0
-10 -100 95 0
-10 100 -95 0
-41 -100 95 0
-41 100 -95 0
-96 0
-1 -96 101 0
-1 -95 101 0
-1 -101 96 95 0
-2 -101 96 0
-2 101 -96 0
-3 -101 96 0
-3 101 -96 0
-4 -101 96 0
-4 101 -96 0
-5 -101 96 0
-5 -101 97 0
-5 101 -96 -97 0
-6 -101 96 0
-6 -101 98 0
-6 101 -96 -98 0
-7 -101 96 0
-7 -101 99 0
-7 101 -96 -99 0
-8 -101 96 0
-8 101 -96 0
-9 -101 96 0
-9 101 -96 0
-10 -101 96 0
-10 101 -96 0
-41 -101 96 0
-41 101 -96 0
-97 0
-1 -102 97 0
-1 102 -97 0
-2 -97 102 0
-2 -95 102 0
-2 -102 97 95 0
-3 -102 97 0
-3 102 -97 0
-4 -102 97 0
-4 102 -97 0
-5 -97 102 0
-5 -96 102 0
-5 -102 97 96 0
-6 -102 97 0
-6 102 -97 0
-7 -102 97 0
-7 102 -97 0
-8 -102 97 0
-8 -102 98 0
-8 102 -97 -98 0
-9 -102 97 0
-9 -102 99 0
-9 102 -97 -99 0
-10 -102 97 0
-10 102 -97 0
-41 -102 97 0
-41 102 -97 0
98 0
-1 -103 98 0
-1 103 -98 0
-2 -103 98 0
-2 103 -98 0
-3 -98 103 0
-3 -95 103 0
-3 -103 98 95 0
-4 -103 98 0
-4 103 -98 0
-5 -103 98 0
-5 103 -98 0
-6 -98 103 0
-6 -96 103 0
-6 -103 98 96 0
-7 -103 98 0
-7 103 -98 0
-8 -98 103 0
-8 -97 103 0
-8 -103 98 97 0
-9 -103 98 0
-9 103 -98 0
-10 -103 98 0
-10 -103 99 0
-10 103 -98 -99 0
-41 -103 98 0
-41 103 -98 0
99 0
-1 -104 99 0
-1 104 -99 0
-2 -104 99 0
-2 104 -99 0
-3 -104 99 0
-3 104 -99 0
-4 -99 104 0
-4 -95 104 0
-4 -104 99 95 0
-5 -104 99 0
-5 104 -99 0
-6 -104 99 0
-6 104 -99 0
-7 -99 104 0
-7 -96 104 0
-7 -104 99 96 0
-8 -104 99 0
-8 104 -99 0
-9 -99 104 0
-9 -97 104 0
-9 -104 99 97 0
-10 -99 104 0
-10 -98 104 0
-10 -104 99 98 0
-41 -104 99 0
-41 104 -99 0
-11 -105 100 0
-11 -105 101 0
-11 105 -100 -101 0
-12 -105 100 0
-12 -105 102 0
-12 105 -100 -102 0
-13 -105 100 0
-13 -105 103 0
-13 105 -100 -103 0
-14 -105 100 0
-14 -105 104 0
-14 105 -100 -104 0
-15 -105 100 0
-15 105 -100 0
-16 -105 100 0
-16 105 -100 0
-17 -105 100 0
-17 105 -100 0
-18 -105 100 0
-18 105 -100 0
-19 -105 100 0
-19 105 -100 0
-20 -105 100 0
-20 105 -100 0
-42 -105 100 0
-42 105 -100 0
-11 -101 106 0
-11 -100 106 0
-11 -106 101 100 0
-12 -106 101 0
-12 106 -101 0
-13 -106 101 0
-13 106 -101 0
-14 -106 101 0
-14 106 -101 0
-15 -106 101 0
-15 -106 102 0
-15 106 -101 -102 0
-16 -106 101 0
-16 -106 103 0
-16 106 -101 -103 0
-17 -106 101 0
-17 -106 104 0
-17 106 -101 -104 0
-18 -106 101 0
-18 106 -101 0
-19 -106 101 0
-19 106 -101 0
-20 -106 101 0
-20 106 -101 0
-42 -106 101 0
-42 106 -101 0
-11 -107 102 0
-11 107 -102 0
-12 -102 107 0
-12 -100 107 0
-12 -107 102 100 0
-13 -107 102 0
-13 107 -102 0
-14 -107 102 0
-14 107 -102 0
-15 -102 107 0
-15 -101 107 0
-15 -107 102 101 0
-16 -107 102 0
-16 107 -102 0
-17 -107 102 0
-17 107 -102 0
-18 -107 102 0
-18 -107 103 0
-18 107 -102 -103 0
-19 -107 102 0
-19 -107 104 0
-19 107 -102 -104 0
-20 -107 102 0
-20 107 -102 0
-42 -107 102 0
-42 107 -102 0
-11 -108 103 0
-11 108 -103 0
-12 -108 103 0
-12 108 -103 0
-13 -103 108 0
-13 -100 108 0
-13 -108 103 100 0
-14 -108 103 0
-14 108 -103 0
-15 -108 103 0
-15 108 -103 0
-16 -103 108 0
-16 -101 108 0
-16 -108 103 101 0
-17 -108 103 0
-17 108 -103 0
-18 -103 108 0
-18 -102 108 0
-18 -108 103 102 0
-19 -108 103 0
-19 108 -103 0
-20 -108 103 0
-20 -108 104 0
-20 108 -103 -104 0
-42 -108 103 0
-42 108 -103 0
-11 -109 104 0
-11 109 -104 0
-12 -109 104 0
-12 109 -104 0
-13 -109 104 0
-13 109 -104 0
-14 -104 109 0
-14 -100 109 0
-14 -109 104 100 0
-15 -109 104 0
-15 109 -104 0
-16 -109 104 0
-16 109 -104 0
-17 -104 109 0
-17 -101 109 0
-17 -109 104 101 0
-18 -109 104 0
-18 109 -104 0
-19 -104 109 0
-19 -102 109 0
-19 -109 104 102 0
-20 -104 109 0
-20 -103 109 0
-20 -109 104 103 0
-42 -109 104 0
-42 109 -104 0
-21 -110 105 0
-21 -110 106 0
-21 110 -105 -106 0
-22 -110 105 0
-22 -110 107 0
-22 110 -105 -107 0
-23 -110 105 0
-23 -110 108 0
-23 110 -105 -108 0
-24 -110 105 0
-24 -110 109 0
-24 110 -105 -109 0
-25 -110 105 0
-25 110 -105 0
-26 -110 105 0
-26 110 -105 0
-27 -110 105 0
-27 110 -105 0
-28 -110 105 0
-28 110 -105 0
-29 -110 105 0
-29 110 -105 0
-30 -110 105 0
-30 110 -105 0
-43 -110 105 0
-43 110 -105 0
-21 -106 111 0
-21 -105 111 0
-21 -111 106 105 0
-22 -111 106 0
-22 111 -106 0
-23 -111 106 0
-23 111 -106 0
-24 -111 106 0
-24 111 -106 0
-25 -111 106 0
-25 -111 107 0
-25 111 -106 -107 0
-26 -111 106 0
-26 -111 108 0
-26 111 -106 -108 0
-27 -111 106 0
-27 -111 109 0
-27 111 -106 -109 0
-28 -111 106 0
-28 111 -106 0
-29 -111 106 0
-29 111 -106 0
-30 -111 106 0
-30 111 -106 0
-43 -111 106 0
-43 111 -106 0
-21 -112 107 0
-21 112 -107 0
-22 -107 112 0
-22 -105 112 0
-22 -112 107 105 0
-23 -112 107 0
-23 112 -107 0
-24 -112 107 0
-24 112 -107 0
-25 -107 112 0
-25 -106 112 0
-25 -112 107 106 0
-26 -112 107 0
-26 112 -107 0
-27 -112 107 0
-27 112 -107 0
-28 -112 107 0
-28 -112 108 0
-28 112 -107 -108 0
-29 -112 107 0
-29 -112 109 0
-29 112 -107 -109 0
-30 -112 107 0
-30 112 -107 0
-43 -112 107 0
-43 112 -107 0
-21 -113 108 0
-21 113 -108 0
-22 -113 108 0
-22 113 -108 0
-23 -108 113 0
-23 -105 113 0
-23 -113 108 105 0
-24 -113 108 0
-24 113 -108 0
-25 -113 108 0
-25 113 -108 0
-26 -108 113 0
-26 -106 113 0
-26 -113 108 106 0
-27 -113 108 0
-27 113 -108 0
-28 -108 113 0
-28 -107 113 0
-28 -113 108 107 0
-29 -113 108 0
-29 113 -108 0
-30 -113 108 0
-30 -113 109 0
-30 113 -108 -109 0
-43 -113 108 0
-43 113 -108 0
-21 -114 109 0
-21 114 -109 0
-22 -114 109 0
-22 114 -109 0
-23 -114 109 0
-23 114 -109 0
-24 -109 114 0
-24 -105 114 0
-24 -114 109 105 0
-25 -114 109 0
-25 114 -109 0
-26 -114 109 0
-26 114 -109 0
-27 -109 114 0
-27 -106 114 0
-27 -114 109 106 0
-28 -114 109 0
-28 114 -109 0
-29 -109 114 0
-29 -107 114 0
-29 -114 109 107 0
-30 -109 114 0
-30 -108 114 0
-30 -114 109 108 0
-43 -114 109 0
-43 114 -109 0
-31 -115 110 0
-31 -115 111 0
-31 115 -110 -111 0
-32 -115 110 0
-32 -115 112 0
-32 115 -110 -112 0
-33 -115 110 0
-33 -115 113 0
-33 115 -110 -113 0
-34 -115 110 0
-34 -115 114 0
-34 115 -110 -114 0
-35 -115 110 0
-35 115 -110 0
-36 -115 110 0
-36 115 -110 0
-37 -115 110 0
-37 115 -110 0
-38 -115 110 0
-38 115 -110 0
-39 -115 110 0
-39 115 -110 0
-40 -115 110 0
-40 115 -110 0
-44 -115 110 0
-44 115 -110 0
-31 -111 116 0
-31 -110 116 0
-31 -116 111 110 0
-32 -116 111 0
-32 116 -111 0
-33 -116 111 0
-33 116 -111 0
-34 -116 111 0
-34 116 -111 0
-35 -116 111 0
-35 -116 112 0
-35 116 -111 -112 0
-36 -116 111 0
-36 -116 113 0
-36 116 -111 -113 0
-37 -116 111 0
-37 -116 114 0
-37 116 -111 -114 0
-38 -116 111 0
-38 116 -111 0
-39 -116 111 0
-39 116 -111 0
-40 -116 111 0
-40 116 -111 0
-44 -116 111 0
-44 116 -111 0
-31 -117 112 0
-31 117 -112 0
-32 -112 117 0
-32 -110 117 0
-32 -117 112 110 0
-33 -117 112 0
-33 117 -112 0
-34 -117 112 0
-34 117 -112 0
-35 -112 117 0
-35 -111 117 0
-35 -117 112 111 0
-36 -117 112 0
-36 117 -112 0
-37 -117 112 0
-37 117 -112 0
-38 -117 112 0
-38 -117 113 0
-38 117 -112 -113 0
-39 -117 112 0
-39 -117 114 0
-39 117 -112 -114 0
-40 -117 112 0
-40 117 -112 0
-44 -117 112 0
-44 117 -112 0
-31 -118 113 0
-31 118 -113 0
-32 -118 113 0
-32 118 -113 0
-33 -113 118 0
-33 -110 118 0
-33 -118 113 110 0
-34 -118 113 0
-34 118 -113 0
-35 -118 113 0
-35 118 -113 0
-36 -113 118 0
-36 -111 118 0
-36 -118 113 111 0
-37 -118 113 0
-37 118 -113 0
-38 -113 118 0
-38 -112 118 0
-38 -118 113 112 0
-39 -118 113 0
-39 118 -113 0
-40 -118 113 0
-40 -118 114 0
-40 118 -113 -114 0
-44 -118 113 0
-44 118 -113 0
-31 -119 114 0
-31 119 -114 0
-32 -119 114 0
-32 119 -114 0
-33 -119 114 0
-33 119 -114 0
-34 -114 119 0
-34 -110 119 0
-34 -119 114 110 0
-35 -119 114 0
-35 119 -114 0
-36 -119 114 0
-36 119 -114 0
-37 -114 119 0
-37 -111 119 0
-37 -119 114 111 0
-38 -119 114 0
-38 119 -114 0
-39 -114 119 0
-39 -112 119 0
-39 -119 114 112 0
-40 -114 119 0
-40 -113 119 0
-40 -119 114 113 0
-44 -119 114 0
-44 119 -114 0
-120 0
-1 -125 120 0
-1 -125 121 0
-1 125 -120 -121 0
-2 -125 120 0
-2 -125 122 0
-2 125 -120 -122 0
-3 -125 120 0
-3 -125 123 0
-3 125 -120 -123 0
-4 -125 120 0
-4 -125 124 0
-4 125 -120 -124 0
-5 -125 120 0
-5 125 -120 0
-6 -125 120 0
-6 125 -120 0
-7 -125 120 0
-7 125 -120 0
-8 -125 120 0
-8 125 -120 0
-9 -125 120 0
-9 125 -120 0
-10 -125 120 0
-10 125 -120 0
-41 -125 120 0
-41 125 -120 0
-121 0
-1 -121 126 0
-1 -120 126 0
-1 -126 121 120 0
-2 -126 121 0
-2 126 -121 0
-3 -126 121 0
-3 126 -121 0
-4 -126 121 0
-4 126 -121 0
-5 -126 121 0
-5 -126 122 0
-5 126 -121 -122 0
-6 -126 121 0
-6 -126 123 0
-6 126 -121 -123 0
-7 -126 121 0
-7 -126 124 0
-7 126 -121 -124 0
-8 -126 121 0
-8 126 -121 0
-9 -126 121 0
-9 126 -121 0
-10 -126 121 0
-10 126 -121 0
-41 -126 121 0
-41 126 -121 0
122 0
-1 -127 122 0
-1 127 -122 0
-2 -122 127 0
-2 -120 127 0
-2 -127 122 120 0
-3 -127 122 0
-3 127 -122 0
-4 -127 122 0
-4 127 -122 0
-5 -122 127 0
-5 -121 127 0
-5 -127 122 121 0
-6 -127 122 0
-6 127 -122 0
-7 -127 122 0
-7 127 -122 0
-8 -127 122 0
-8 -127 123 0
-8 127 -122 -123 0
-9 -127 122 0
-9 -127 124 0
-9 127 -122 -124 0
-10 -127 122 0
-10 127 -122 0
-41 -127 122 0
-41 127 -122 0
123 0
-1 -128 123 0
-1 128 -123 0
-2 -128 123 0
-2 128 -123 0
-3 -123 128 0
-3 -120 128 0
-3 -128 123 120 0
-4 -128 123 0
-4 128 -123 0
-5 -128 123 0
-5 128 -123 0
-6 -123 128 0
-6 -121 128 0
-6 -128 123 121 0
-7 -128 123 0
-7 128 -123 0
-8 -123 128 0
-8 -122 128 0
-8 -128 123 122 0
-9 -128 123 0
-9 128 -123 0
-10 -128 123 0
-10 -128 124 0
-10 128 -123 -124 0
-41 -128 123 0
-41 128 -123 0
124 0
-1 -129 124 0
-1 129 -124 0
-2 -129 124 0
-2 129 -124 0
-3 -129 124 0
-3 129 -124 0
-4 -124 129 0
-4 -120 129 0
-4 -129 124 120 0
-5 -129 124 0
-5 129 -124 0
-6 -129 124 0
-6 129 -124 0
-7 -124 129 0
-7 -121 129 0
-7 -129 124 121 0
-8 -129 124 0
-8 129 -124 0
-9 -124 129 0
-9 -122 129 0
-9 -129 124 122 0
-10 -124 129 0
-10 -123 129 0
-10 -129 124 123 0
-41 -129 124 0
-41 129 -124 0
-11 -130 125 0
-11 -130 126 0
-11 130 -125 -126 0
-12 -130 125 0
-12 -130 127 0
-12 130 -125 -127 0
-13 -130 125 0
-13 -130 128 0
-13 130 -125 -128 0
-14 -130 125 0
-14 -130 129 0
-14 130 -125 -129 0
-15 -130 125 0
-15 130 -125 0
-16 -130 125 0
-16 130 -125 0
-17 -130 125 0
-17 130 -125 0
-18 -130 125 0
-18 130 -125 0
-19 -130 125 0
-19 130 -125 0
-20 -130 125 0
-20 130 -125 0
-42 -130 125 0
-42 130 -125 0
-11 -126 131 0
-11 -125 131 0
-11 -131 126 125 0
-12 -131 126 0
-12 131 -126 0
-13 -131 126 0
-13 131 -126 0
-14 -131 126 0
-14 131 -126 0
-15 -131 126 0
-15 -131 127 0
-15 131 -126 -127 0
-16 -131 126 0
-16 -131 128 0
-16 131 -126 -128 0
-17 -131 126 0
-17 -131 129 0
-17 131 -126 -129 0
-18 -131 126 0
-18 131 -126 0
-19 -131 126 0
-19 131 -126 0
-20 -131 126 0
-20 131 -126 0
-42 -131 126 0
-42 131 -126 0
-11 -132 127 0
-11 132 -127 0
-12 -127 132 0
-12 -125 132 0
-12 -132 127 125 0
-13 -132 127 0
-13 132 -127 0
-14 -132 127 0
-14 132 -127 0
-15 -127 132 0
-15 -126 132 0
-15 -132 127 126 0
-16 -132 127 0
-16 132 -127 0
-17 -132 127 0
-17 132 -127 0
-18 -132 127 0
-18 -132 128 0
-18 132 -127 -128 0
-19 -132 127 0
-19 -132 129 0
-19 132 -127 -129 0
-20 -132 127 0
-20 132 -127 0
-42 -132 127 0
-42 132 -127 0
-11 -133 128 0
-11 133 -128 0
-12 -133 128 0
-12 133 -128 0
-13 -128 133 0
-13 -125 133 0
-13 -133 128 125 0
-14 -133 128 0
-14 133 -128 0
-15 -133 128 0
-15 133 -128 0
-16 -128 133 0
-16 -126 133 0
-16 -133 128 126 0
-17 -133 128 0
-17 133 -128 0
-18 -128 133 0
-18 -127 133 0
-18 -133 128 127 0
-19 -133 128 0
-19 133 -128 0
-20 -133 128 0
-20 -133 129 0
-20 133 -128 -129 0
-42 -133 128 0
-42 133 -128 0
-11 -134 129 0
-11 134 -129 0
-12 -134 129 0
-12 134 -129 0
-13 -134 129 0
-13 134 -129 0
-14 -129 134 0
-14 -125 134 0
-14 -134 129 125 0
-15 -134 129 0
-15 134 -129 0
-16 -134 129 0
-16 134 -129 0
-17 -129 134 0
-17 -126 134 0
-17 -134 129 126 0
-18 -134 129 0
-18 134 -129 0
-19 -129 134 0
-19 -127 134 0
-19 -134 129 127 0
-20 -129 134 0
-20 -128 134 0
-20 -134 129 128 0
-42 -134 129 0
-42 134 -129 0
-21 -135 130 0
-21 -135 131 0
-21 135 -130 -131 0
-22 -135 130 0
-22 -135 132 0
-22 135 -130 -132 0
-23 -135 130 0
-23 -135 133 0
-23 135 -130 -133 0
-24 -135 130 0
-24 -135 134 0
-24 135 -130 -134 0
-25 -135 130 0
-25 135 -130 0
-26 -135 130 0
-26 135 -130 0
-27 -135 130 0
-27 135 -130 0
-28 -135 130 0
-28 135 -130 0
-29 -135 130 0
-29 135 -130 0
-30 -135 130 0
-30 135 -130 0
-43 -135 130 0
-43 135 -130 0
-21 -131 136 0
-21 -130 136 0
-21 -136 131 130 0
-22 -136 131 0
-22 136 -131 0
-23 -136 131 0
-23 136 -131 0
-24 -136 131 0
-24 136 -131 0
-25 -136 131 0
-25 -136 132 0
-25 136 -131 -132 0
-26 -136 131 0
-26 -136 133 0
-26 136 -131 -133 0
-27 -136 131 0
-27 -136 134 0
-27 136 -131 -134 0
-28 -136 131 0
-28 136 -131 0
-29 -136 131 0
-29 136 -131 0
-30 -136 131 0
-30 136 -131 0
-43 -136 131 0
-43 136 -131 0
-21 -137 132 0
-21 137 -132 0
-22 -132 137 0
-22 -130 137 0
-22 -137 132 130 0
-23 -137 132 0
-23 137 -132 0
-24 -137 132 0
-24 137 -132 0
-25 -132 137 0
-25 -131 137 0
-25 -137 132 131 0
-26 -137 132 0
-26 137 -132 0
-27 -137 132 0
-27 137 -132 0
-28 -137 132 0
-28 -137 133 0
-28 137 -132 -133 0
-29 -137 132 0
-29 -137 134 0
-29 137 -132 -134 0
-30 -137 132 0
-30 137 -132 0
-43 -137 132 0
-43 137 -132 0
-21 -138 133 0
-21 138 -133 0
-22 -138 133 0
-22 138 -133 0
-23 -133 138 0
-23 -130 138 0
-23 -138 133 130 0
-24 -138 133 0
-24 138 -133 0
-25 -138 133 0
-25 138 -133 0
-26 -133 138 0
-26 -131 138 0
-26 -138 133 131 0
-27 -138 133 0
-27 138 -133 0
-28 -133 138 0
-28 -132 138 0
-28 -138 133 132 0
-29 -138 133 0
-29 138 -133 0
-30 -138 133 0
-30 -138 134 0
-30 138 -133 -134 0
-43 -138 133 0
-43 138 -133 0
-21 -139 134 0
-21 139 -134 0
-22 -139 134 0
-22 139 -134 0
-23 -139 134 0
-23 139 -134 0
-24 -134 139 0
-24 -130 139 0
-24 -139 134 130 0
-25 -139 134 0
-25 139 -134 0
-26 -139 134 0
-26 139 -134 0
-27 -134 139 0
-27 -131 139 0
-27 -139 134 131 0
-28 -139 134 0
-28 139 -134 0
-29 -134 139 0
-29 -132 139 0
-29 -139 134 132 0
-30 -134 139 0
-30 -133 139 0
-30 -139 134 133 0
-43 -139 134 0
-43 139 -134 0
-31 -140 135 0
-31 -140 136 0
-31 140 -135 -136 0
-32 -140 135 0
-32 -140 137 0
-32 140 -135 -137 0
-33 -140 135 0
-33 -140 138 0
-33 140 -135 -138 0
-34 -140 135 0
-34 -140 139 0
-34 140 -135 -139 0
-35 -140 135 0
-35 140 -135 0
-36 -140 135 0
-36 140 -135 0
-37 -140 135 0
-37 140 -135 0
-38 -140 135 0
-38 140 -135 0
-39 -140 135 0
-39 140 -135 0
-40 -140 135 0
-40 140 -135 0
-44 -140 135 0
-44 140 -135 0
-31 -136 141 0
-31 -135 141 0
-31 -141 136 135 0
-32 -141 136 0
-32 141 -136 0
-33 -141 136 0
-33 141 -136 0
-34 -141 136 0
-34 141 -136 0
-35 -141 136 0
-35 -141 137 0
-35 141 -136 -137 0
-36 -141 136 0
-36 -141 138 0
-36 141 -136 -138 0
-37 -141 136 0
-37 -141 139 0
-37 141 -136 -139 0
-38 -141 136 0
-38 141 -136 0
-39 -141 136 0
-39 141 -136 0
-40 -141 136 0
-40 141 -136 0
-44 -141 136 0
-44 141 -136 0
-31 -142 137 0
-31 142 -137 0
-32 -137 142 0
-32 -135 142 0
-32 -142 137 135 0
-33 -142 137 0
-33 142 -137 0
-34 -142 137 0
-34 142 -137 0
-35 -137 142 0
-35 -136 142 0
-35 -142 137 136 0
-36 -142 137 0
-36 142 -137 0
-37 -142 137 0
-37 142 -137 0
-38 -142 137 0
-38 -142 138 0
-38 142 -137 -138 0
-39 -142 137 0
-39 -142 139 0
-39 142 -137 -139 0
-40 -142 137 0
-40 142 -137 0
-44 -142 137 0
-44 142 -137 0
-31 -143 138 0
-31 143 -138 0
-32 -143 138 0
-32 143 -138 0
-33 -138 143 0
-33 -135 143 0
-33 -143 138 135 0
-34 -143 138 0
-34 143 -138 0
-35 -143 138 0
-35 143 -138 0
-36 -138 143 0
-36 -136 143 0
-36 -143 138 136 0
-37 -143 138 0
-37 143 -138 0
-38 -138 143 0
-38 -137 143 0
-38 -143 138 137 0
-39 -143 138 0
-39 143 -138 0
-40 -143 138 0
-40 -143 139 0
-40 143 -138 -139 0
-44 -143 138 0
-44 143 -138 0
-31 -144 139 0
-31 144 -139 0
-32 -144 139 0
-32 144 -139 0
-33 -144 139 0
-33 144 -139 0
-34 -139 144 0
-34 -135 144 0
-34 -144 139 135 0
-35 -144 139 0
-35 144 -139 0
-36 -144 139 0
-36 144 -139 0
-37 -139 144 0
-37 -136 144 0
-37 -144 139 136 0
-38 -144 139 0
-38 144 -139 0
-39 -139 144 0
-39 -137 144 0
-39 -144 139 137 0
-40 -139 144 0
-40 -138 144 0
-40 -144 139 138 0
-44 -144 139 0
-44 144 -139 0
-145 0
-1 -150 145 0
-1 -150 146 0
-1 150 -145 -146 0
-2 -150 145 0
-2 -150 147 0
-2 150 -145 -147 0
-3 -150 145 0
-3 -150 148 0
-3 150 -145 -148 0
-4 -150 145 0
-4 -150 149 0
-4 150 -145 -149 0
-5 -150 145 0
-5 150 -145 0
-6 -150 145 0
-6 150 -145 0
-7 -150 145 0
-7 150 -145 0
-8 -150 145 0
-8 150 -145 0
-9 -150 145 0
-9 150 -145 0
-10 -150 145 0
-10 150 -145 0
-41 -150 145 0
-41 150 -145 0
146 0
-1 -146 151 0
-1 -145 151 0
-1 -151 146 145 0
-2 -151 146 0
-2 151 -146 0
-3 -151 146 0
-3 151 -146 0
-4 -151 146 0
-4 151 -146 0
-5 -151 146 0
-5 -151 147 0
-5 151 -146 -147 0
-6 -151 146 0
-6 -151 148 0
-6 151 -146 -148 0
-7 -151 146 0
-7 -151 149 0
-7 151 -146 -149 0
-8 -151 146 0
-8 151 -146 0
-9 -151 146 0
-9 151 -146 0
-10 -151 146 0
-10 151 -146 0
-41 -151 146 0
-41 151 -146 0
-147 0
-1 -152 147 0
-1 152 -147 0
-2 -147 152 0
-2 -145 152 0
-2 -152 147 145 0
-3 -152 147 0
-3 152 -147 0
-4 -152 147 0
-4 152 -147 0
-5 -147 152 0
-5 -146 152 0
-5 -152 147 146 0
-6 -152 147 0
-6 152 -147 0
-7 -152 147 0
-7 152 -147 0
-8 -152 147 0
-8 -152 148 0
-8 152 -147 -148 0
-9 -152 147 0
-9 -152 149 0
-9 152 -147 -149 0
-10 -152 147 0
-10 152 -147 0
-41 -152 147 0
-41 152 -147 0
-148 0
-1 -153 148 0
-1 153 -148 0
-2 -153 148 0
-2 153 -148 0
-3 -148 153 0
-3 -145 153 0
-3 -153 148 145 0
-4 -153 148 0
-4 153 -148 0
-5 -153 148 0
-5 153 -148 0
-6 -148 153 0
-6 -146 153 0
-6 -153 148 146 0
-7 -153 148 0
-7 153 -148 0
-8 -148 153 0
-8 -147 153 0
-8 -153 148 147 0
-9 -153 148 0
-9 153 -148 0
-10 -153 148 0
-10 -153 149 0
-10 153 -148 -149 0
-41 -153 148 0
-41 153 -148 0
-149 0
-1 -154 149 0
-1 154 -149 0
-2 -154 149 0
-2 154 -149 0
-3 -154 149 0
-3 154 -149 0
-4 -149 154 0
-4 -145 154 0
-4 -154 149 145 0
-5 -154 149 0
-5 154 -149 0
-6 -154 149 0
-6 154 -149 0
-7 -149 154 0
-7 -146 154 0
-7 -154 149 146 0
-8 -154 149 0
-8 154 -149 0
-9 -149 154 0
-9 -147 154 0
-9 -154 149 147 0
-10 -149 154 0
-10 -148 154 0
-10 -154 149 148 0
-41 -154 149 0
-41 154 -149 0
-11 -155 150 0
-11 -155 151 0
-11 155 -150 -151 0
-12 -155 150 0
-12 -155 152 0
-12 155 -150 -152 0
-13 -155 150 0
-13 -155 153 0
-13 155 -150 -153 0
-14 -155 150 0
-14 -155 154 0
-14 155 -150 -154 0
-15 -155 150 0
-15 155 -150 0
-16 -155 150 0
-16 155 -150 0
-17 -155 150 0
-17 155 -150 0
-18 -155 150 0
-18 155 -150 0
-19 -155 150 0
-19 155 -150 0
-20 -155 150 0
-20 155 -150 0
-42 -155 150 0
-42 155 -150 0
-11 -151 156 0
-11 -150 156 0
-11 -156 151 150 0
-12 -156 151 0
-12 156 -151 0
-13 -156 151 0
-13 156 -151 0
-14 -156 151 0
-14 156 -151 0
-15 -156 151 0
-15 -156 152 0
-15 156 -151 -152 0
-16 -156 151 0
-16 -156 153 0
-16 156 -151 -153 0
-17 -156 151 0
-17 -156 154 0
-17 156 -151 -154 0
-18 -156 151 0
-18 156 -151 0
-19 -156 151 0
-19 156 -151 0
-20 -156 151 0
-20 156 -151 0
-42 -156 151 0
-42 156 -151 0
-11 -157 152 0
-11 157 -152 0
-12 -152 157 0
-12 -150 157 0
-12 -157 152 150 0
-13 -157 152 0
-13 157 -152 0
-14 -157 152 0
-14 157 -152 0
-15 -152 157 0
-15 -151 157 0
-15 -157 152 151 0
-16 -157 152 0
-16 157 -152 0
-17 -157 152 0
-17 157 -152 0
-18 -157 152 0
-18 -157 153 0
-18 157 -152 -153 0
-19 -157 152 0
-19 -157 154 0
-19 157 -152 -154 0
-20 -157 152 0
-20 157 -152 0
-42 -157 152 0
-42 157 -152 0
-11 -158 153 0
-11 158 -153 0
-12 -158 153 0
-12 158 -153 0
-13 -153 158 0
-13 -150 158 0
-13 -158 153 150 0
-14 -158 153 0
-14 158 -153 0
-15 -158 153 0
-15 158 -153 0
-16 -153 158 0
-16 -151 158 0
-16 -158 153 151 0
-17 -158 153 0
-17 158 -153 0
-18 -153 158 0
-18 -152 158 0
-18 -158 153 152 0
-19 -158 153 0
-19 158 -153 0
-20 -158 153 0
-20 -158 154 0
-20 158 -153 -154 0
-42 -158 153 0
-42 158 -153 0
-11 -159 154 0
-11 159 -154 0
-12 -159 154 0
-12 159 -154 0
-13 -159 154 0
-13 159 -154 0
-14 -154 159 0
-14 -150 159 0
-14 -159 154 150 0
-15 -159 154 0
-15 159 -154 0
-16 -159 154 0
-16 159 -154 0
-17 -154 159 0
-17 -151 159 0
-17 -159 154 151 0
-18 -159 154 0
-18 159 -154 0
-19 -154 159 0
-19 -152 159 0
-19 -159 154 152 0
-20 -154 159 0
-20 -153 159 0
-20 -159 154 153 0
-42 -159 154 0
-42 159 -154 0
-21 -160 155 0
-21 -160 156 0
-21 160 -155 -156 0
-22 -160 155 0
-22 -160 157 0
-22 160 -155 -157 0
-23 -160 155 0
-23 -160 158 0
-23 160 -155 -158 0
-24 -160 155 0
-24 -160 159 0
-24 160 -155 -159 0
-25 -160 155 0
-25 160 -155 0
-26 -160 155 0
-26 160 -155 0
-27 -160 155 0
-27 160 -155 0
-28 -160 155 0
-28 160 -155 0
-29 -160 155 0
-29 160 -155 0
-30 -160 155 0
-30 160 -155 0
-43 -160 155 0
-43 160 -155 0
-21 -156 161 0
-21 -155 161 0
-21 -161 156 155 0
-22 -161 156 0
-22 161 -156 0
-23 -161 156 0
-23 161 -156 0
-24 -161 156 0
-24 161 -156 0
-25 -161 156 0
-25 -161 157 0
-25 161 -156 -157 0
-26 -161 156 0
-26 -161 158 0
-26 161 -156 -158 0
-27 -161 156 0
-27 -161 159 0
-27 161 -156 -159 0
-28 -161 156 0
-28 161 -156 0
-29 -161 156 0
-29 161 -156 0
-30 -161 156 0
-30 161 -156 0
-43 -161 156 0
-43 161 -156 0
-21 -162 157 0
-21 162 -157 0
-22 -157 162 0
-22 -155 162 0
-22 -162 157 155 0
-23 -162 157 0
-23 162 -157 0
-24 -162 157 0
-24 162 -157 0
-25 -157 162 0
-25 -156 162 0
-25 -162 157 156 0
-26 -162 157 0
-26 162 -157 0
-27 -162 157 0
-27 162 -157 0
-28 -162 157 0
-28 -162 158 0
-28 162 -157 -158 0
-29 -162 157 0
-29 -162 159 0
-29 162 -157 -159 0
-30 -162 157 0
-30 162 -157 0
-43 -162 157 0
-43 162 -157 0
-21 -163 158 0
-21 163 -158 0
-22 -163 158 0
-22 163 -158 0
-23 -158 163 0
-23 -155 163 0
-23 -163 158 155 0
-24 -163 158 0
-24 163 -158 0
-25 -163 158 0
-25 163 -158 0
-26 -158 163 0
-26 -156 163 0
-26 -163 158 156 0
-27 -163 158 0
-27 163 -158 0
-28 -158 163 0
-28 -157 163 0
-28 -163 158 157 0
-29 -163 158 0
-29 163 -158 0
-30 -163 158 0
-30 -163 159 0
-30 163 -158 -159 0
-43 -163 158 0
-43 163 -158 0
-21 -164 159 0
-21 164 -159 0
-22 -164 159 0
-22 164 -159 0
-23 -164 159 0
-23 164 -159 0
-24 -159 164 0
-24 -155 164 0
-24 -164 159 155 0
-25 -164 159 0
-25 164 -159 0
-26 -164 159 0
-26 164 -159 0
-27 -159 164 0
-27 -156 164 0
-27 -164 159 156 0
-28 -164 159 0
-28 164 -159 0
-29 -159 164 0
-29 -157 164 0
-29 -164 159 157 0
-30 -159 164 0
-30 -158 164 0
-30 -164 159 158 0
-43 -164 159 0
-43 164 -159 0
-31 -165 160 0
-31 -165 161 0
-31 165 -160 -161 0
-32 -165 160 0
-32 -165 162 0
-32 165 -160 -162 0
-33 -165 160 0
-33 -165 163 0
-33 165 -160 -163 0
-34 -165 160 0
-34 -165 164 0
-34 165 -160 -164 0
-35 -165 160 0
-35 165 -160 0
-36 -165 160 0
-36 165 -160 0
-37 -165 160 0
-37 165 -160 0
-38 -165 160 0
-38 165 -160 0
-39 -165 160 0
-39 165 -160 0
-40 -165 160 0
-40 165 -160 0
-44 -165 160 0
-44 165 -160 0
-31 -161 166 0
-31 -160 166 0
-31 -166 161 160 0
-32 -166 161 0
-32 166 -161 0
-33 -166 161 0
-33 166 -161 0
-34 -166 161 0
-34 166 -161 0
-35 -166 161 0
-35 -166 162 0
-35 166 -161 -162 0
-36 -166 161 0
-36 -166 163 0
-36 166 -161 -163 0
-37 -166 161 0
-37 -166 164 0
-37 166 -161 -164 0
-38 -166 161 0
-38 166 -161 0
-39 -166 161 0
-39 166 -161 0
-40 -166 161 0
-40 166 -161 0
-44 -166 161 0
-44 166 -161 0
-31 -167 162 0
-31 167 -162 0
-32 -162 167 0
-32 -160 167 0
-32 -167 162 160 0
-33 -167 162 0
-33 167 -162 0
-34 -167 162 0
-34 167 -162 0
-35 -162 167 0
-35 -161 167 0
-35 -167 162 161 0
-36 -167 162 0
-36 167 -162 0
-37 -167 162 0
-37 167 -162 0
-38 -167 162 0
-38 -167 163 0
-38 167 -162 -163 0
-39 -167 162 0
-39 -167 164 0
-39 167 -162 -164 0
-40 -167 162 0
-40 167 -162 0
-44 -167 162 0
-44 167 -162 0
-31 -168 163 0
-31 168 -163 0
-32 -168 163 0
-32 168 -163 0
-33 -163 168 0
-33 -160 168 0
-33 -168 163 160 0
-34 -168 163 0
-34 168 -163 0
-35 -168 163 0
-35 168 -163 0
-36 -163 168 0
-36 -161 168 0
-36 -168 163 161 0
-37 -168 163 0
-37 168 -163 0
-38 -163 168 0
-38 -162 168 0
-38 -168 163 162 0
-39 -168 163 0
-39 168 -163 0
-40 -168 163 0
-40 -168 164 0
-40 168 -163 -164 0
-44 -168 163 0
-44 168 -163 0
-31 -169 164 0
-31 169 -164 0
-32 -169 164 0
-32 169 -164 0
-33 -169 164 0
-33 169 -164 0
-34 -164 169 0
-34 -160 169 0
-34 -169 164 160 0
-35 -169 164 0
-35 169 -164 0
-36 -169 164 0
-36 169 -164 0
-37 -164 169 0
-37 -161 169 0
-37 -169 164 161 0
-38 -169 164 0
-38 169 -164 0
-39 -164 169 0
-39 -162 169 0
-39 -169 164 162 0
-40 -164 169 0
-40 -163 169 0
-40 -169 164 163 0
-44 -169 164 0
-44 169 -164 0
-170 0
-1 -175 170 0
-1 -175 171 0
-1 175 -170 -171 0
-2 -175 170 0
-2 -175 172 0
-2 175 -170 -172 0
-3 -175 170 0
-3 -175 173 0
-3 175 -170 -173 0
-4 -175 170 0
-4 -175 174 0
-4 175 -170 -174 0
-5 -175 170 0
-5 175 -170 0
-6 -175 170 0
-6 175 -170 0
-7 -175 170 0
-7 175 -170 0
-8 -175 170 0
-8 175 -170 0
-9 -175 170 0
-9 175 -170 0
-10 -175 170 0
-10 175 -170 0
-41 -175 170 0
-41 175 -170 0
171 0
-1 -171 176 0
-1 -170 176 0
-1 -176 171 170 0
-2 -176 171 0
-2 176 -171 0
-3 -176 171 0
-3 176 -171 0
-4 -176 171 0
-4 176 -171 0
-5 -176 171 0
-5 -176 172 0
-5 176 -171 -172 0
-6 -176 171 0
-6 -176 173 0
-6 176 -171 -173 0
-7 -176 171 0
-7 -176 174 0
-7 176 -171 -174 0
-8 -176 171 0
-8 176 -171 0
-9 -176 171 0
-9 176 -171 0
-10 -176 171 0
-10 176 -171 0
-41 -176 171 0
-41 176 -171 0
-172 0
-1 -177 172 0
-1 177 -172 0
-2 -172 177 0
-2 -170 177 0
-2 -177 172 170 0
-3 -177 172 0
-3 177 -172 0
-4 -177 172 0
-4 177 -172 0
-5 -172 177 0
-5 -171 177 0
-5 -177 172 171 0
-6 -177 172 0
-6 177 -172 0
-7 -177 172 0
-7 177 -172 0
-8 -177 172 0
-8 -177 173 0
-8 177 -172 -173 0
-9 -177 172 0
-9 -177 174 0
-9 177 -172 -174 0
-10 -177 172 0
-10 177 -172 0
-41 -177 172 0
-41 177 -172 0
-173 0
-1 -178 173 0
-1 178 -173 0
-2 -178 173 0
-2 178 -173 0
-3 -173 178 0
-3 -170 178 0
-3 -178 173 170 0
-4 -178 173 0
-4 178 -173 0
-5 -178 173 0
-5 178 -173 0
-6 -173 178 0
-6 -171 178 0
-6 -178 173 171 0
-7 -178 173 0
-7 178 -173 0
-8 -173 178 0
-8 -172 178 0
-8 -178 173 172 0
-9 -178 173 0
-9 178 -173 0
-10 -178 173 0
-10 -178 174 0
-10 178 -173 -174 0
-41 -178 173 0
-41 178 -173 0
174 0
-1 -179 174 0
-1 179 -174 0
-2 -179 174 0
-2 179 -174 0
-3 -179 174 0
-3 179 -174 0
-4 -174 179 0
-4 -170 179 0
-4 -179 174 170 0
-5 -179 174 0
-5 179 -174 0
-6 -179 174 0
-6 179 -174 0
-7 -174 179 0
-7 -171 179 0
-7 -179 174 171 0
-8 -179 174 0
-8 179 -174 0
-9 -174 179 0
-9 -172 179 0
-9 -179 174 172 0
-10 -174 179 0
-10 -173 179 0
-10 -179 174 173 0
-41 -179 174 0
-41 179 -174 0
-11 -180 175 0
-11 -180 176 0
-11 180 -175 -176 0
-12 -180 175 0
-12 -180 177 0
-12 180 -175 -177 0
-13 -180 175 0
-13 -180 178 0
-13 180 -175 -178 0
-14 -180 175 0
-14 -180 179 0
-14 180 -175 -179 0
-15 -180 175 0
-15 180 -175 0
-16 -180 175 0
-16 180 -175 0
-17 -180 175 0
-17 180 -175 0
-18 -180 175 0
-18 180 -175 0
-19 -180 175 0
-19 180 -175 0
-20 -180 175 0
-20 180 -175 0
-42 -180 175 0
-42 180 -175 0
-11 -176 181 0
-11 -175 181 0
-11 -181 176 175 0
-12 -181 176 0
-12 181 -176 0
-13 -181 176 0
-13 181 -176 0
-14 -181 176 0
-14 181 -176 0
-15 -181 176 0
-15 -181 177 0
-15 181 -176 -177 0
-16 -181 176 0
-16 -181 178 0
-16 181 -176 -178 0
-17 -181 176 0
-17 -181 179 0
-17 181 -176 -179 0
-18 -181 176 0
-18 181 -176 0
-19 -181 176 0
-19 181 -176 0
-20 -181 176 0
-20 181 -176 0
-42 -181 176 0
-42 181 -176 0
-11 -182 177 0
-11 182 -177 0
-12 -177 182 0
-12 -175 182 0
-12 -182 177 175 0
-13 -182 177 0
-13 182 -177 0
-14 -182 177 0
-14 182 -177 0
-15 -177 182 0
-15 -176 182 0
-15 -182 177 176 0
-16 -182 177 0
-16 182 -177 0
-17 -182 177 0
-17 182 -177 0
-18 -182 177 0
-18 -182 178 0
-18 182 -177 -178 0
-19 -182 177 0
-19 -182 179 0
-19 182 -177 -179 0
-20 -182 177 0
-20 182 -177 0
-42 -182 177 0
-42 182 -177 0
-11 -183 178 0
-11 183 -178 0
-12 -183 178 0
-12 183 -178 0
-13 -178 183 0
-13 -175 183 0
-13 -183 178 175 0
-14 -183 178 0
-14 183 -178 0
-15 -183 178 0
-15 183 -178 0
-16 -178 183 0
-16 -176 183 0
-16 -183 178 176 0
-17 -183 178 0
-17 183 -178 0
-18 -178 183 0
-18 -177 183 0
-18 -183 178 177 0
-19 -183 178 0
-19 183 -178 0
-20 -183 178 0
-20 -183 179 0
-20 183 -178 -179 0
-42 -183 178 0
-42 183 -178 0
-11 -184 179 0
-11 184 -179 0
-12 -184 179 0
-12 184 -179 0
-13 -184 179 0
-13 184 -179 0
-14 -179 184 0
-14 -175 184 0
-14 -184 179 175 0
-15 -184 179 0
-15 184 -179 0
-16 -184 179 0
-16 184 -179 0
-17 -179 184 0
-17 -176 184 0
-17 -184 179 176 0
-18 -184 179 0
-18 184 -179 0
-19 -179 184 0
-19 -177 184 0
-19 -184 179 177 0
-20 -179 184 0
-20 -178 184 0
-20 -184 179 178 0
-42 -184 179 0
-42 184 -179 0
-21 -185 180 0
-21 -185 181 0
-21 185 -180 -181 0
-22 -185 180 0
-22 -185 182 0
-22 185 -180 -182 0
-23 -185 180 0
-23 -185 183 0
-23 185 -180 -183 0
-24 -185 180 0
-24 -185 184 0
-24 185 -180 -184 0
-25 -185 180 0
-25 185 -180 0
-26 -185 180 0
-26 185 -180 0
-27 -185 180 0
-27 185 -180 0
-28 -185 180 0
-28 185 -180 0
-29 -185 180 0
-29 185 -180 0
-30 -185 180 0
-30 185 -180 0
-43 -185 180 0
-43 185 -180 0
-21 -181 186 0
-21 -180 186 0
-21 -186 181 180 0
-22 -186 181 0
-22 186 -181 0
-23 -186 181 0
-23 186 -181 0
-24 -186 181 0
-24 186 -181 0
-25 -186 181 0
-25 -186 182 0
-25 186 -181 -182 0
-26 -186 181 0
-26 -186 183 0
-26 186 -181 -183 0
-27 -186 181 0
-27 -186 184 0
-27 186 -181 -184 0
-28 -186 181 0
-28 186 -181 0
-29 -186 181 0
-29 186 -181 0
-30 -186 181 0
-30 186 -181 0
-43 -186 181 0
-43 186 -181 0
-21 -187 182 0
-21 187 -182 0
-22 -182 187 0
-22 -180 187 0
-22 -187 182 180 0
-23 -187 182 0
-23 187 -182 0
-24 -187 182 0
-24 187 -182 0
-25 -182 187 0
-25 -181 187 0
-25 -187 182 181 0
-26 -187 182 0
-26 187 -182 0
-27 -187 182 0
-27 187 -182 0
-28 -187 182 0
-28 -187 183 0
-28 187 -182 -183 0
-29 -187 182 0
-29 -187 184 0
-29 187 -182 -184 0
-30 -187 182 0
-30 187 -182 0
-43 -187 182 0
-43 187 -182 0
-21 -188 183 0
-21 188 -183 0
-22 -188 183 0
-22 188 -183 0
-23 -183 188 0
-23 -180 188 0
-23 -188 183 180 0
-24 -188 183 0
-24 188 -183 0
-25 -188 183 0
-25 188 -183 0
-26 -183 188 0
-26 -181 188 0
-26 -188 183 181 0
-27 -188 183 0
-27 188 -183 0
-28 -183 188 0
-28 -182 188 0
-28 -188 183 182 0
-29 -188 183 0
-29 188 -183 0
-30 -188 183 0
-30 -188 184 0
-30 188 -183 -184 0
-43 -188 183 0
-43 188 -183 0
-21 -189 184 0
-21 189 -184 0
-22 -189 184 0
-22 189 -184 0
-23 -189 184 0
-23 189 -184 0
-24 -184 189 0
-24 -180 189 0
-24 -189 184 180 0
-25 -189 184 0
-25 189 -184 0
-26 -189 184 0
-26 189 -184 0
-27 -184 189 0
-27 -181 189 0
-27 -189 184 181 0
-28 -189 184 0
-28 189 -184 0
-29 -184 189 0
-29 -182 189 0
-29 -189 184 182 0
-30 -184 189 0
-30 -183 189 0
-30 -189 184 183 0
-43 -189 184 0
-43 189 -184 0
-31 -190 185 0
-31 -190 186 0
-31 190 -185 -186 0
-32 -190 185 0
-32 -190 187 0
-32 190 -185 -187 0
-33 -190 185 0
-33 -190 188 0
-33 190 -185 -188 0
-34 -190 185 0
-34 -190 189 0
-34 190 -185 -189 0
-35 -190 185 0
-35 190 -185 0
-36 -190 185 0
-36 190 -185 0
-37 -190 185 0
-37 190 -185 0
-38 -190 185 0
-38 190 -185 0
-39 -190 185 0
-39 190 -185 0
-40 -190 185 0
-40 190 -185 0
-44 -190 185 0
-44 190 -185 0
-31 -186 191 0
-31 -185 191 0
-31 -191 186 185 0
-32 -191 186 0
-32 191 -186 0
-33 -191 186 0
-33 191 -186 0
-34 -191 186 0
-34 191 -186 0
-35 -191 186 0
-35 -191 187 0
-35 191 -186 -187 0
-36 -191 186 0
-36 -191 188 0
-36 191 -186 -188 0
-37 -191 186 0
-37 -191 189 0
-37 191 -186 -189 0
-38 -191 186 0
-38 191 -186 0
-39 -191 186 0
-39 191 -186 0
-40 -191 186 0
-40 191 -186 0
-44 -191 186 0
-44 191 -186 0
-31 -192 187 0
-31 192 -187 0
-32 -187 192 0
-32 -185 192 0
-32 -192 187 185 0
-33 -192 187 0
-33 192 -187 0
-34 -192 187 0
-34 192 -187 0
-35 -187 192 0
-35 -186 192 0
-35 -192 187 186 0
-36 -192 187 0
-36 192 -187 0
-37 -192 187 0
-37 192 -187 0
-38 -192 187 0
-38 -192 188 0
-38 192 -187 -188 0
-39 -192 187 0
-39 -192 189 0
-39 192 -187 -189 0
-40 -192 187 0
-40 192 -187 0
-44 -192 187 0
-44 192 -187 0
-31 -193 188 0
-31 193 -188 0
-32 -193 188 0
-32 193 -188 0
-33 -188 193 0
-33 -185 193 0
-33 -193 188 185 0
-34 -193 188 0
-34 193 -188 0
-35 -193 188 0
-35 193 -188 0
-36 -188 193 0
-36 -186 193 0
-36 -193 188 186 0
-37 -193 188 0
-37 193 -188 0
-38 -188 193 0
-38 -187 193 0
-38 -193 188 187 0
-39 -193 188 0
-39 193 -188 0
-40 -193 188 0
-40 -193 189 0
-40 193 -188 -189 0
-44 -193 188 0
-44 193 -188 0
-31 -194 189 0
-31 194 -189 0
-32 -194 189 0
-32 194 -189 0
-33 -194 189 0
-33 194 -189 0
-34 -189 194 0
-34 -185 194 0
-34 -194 189 185 0
-35 -194 189 0
-35 194 -189 0
-36 -194 189 0
-36 194 -189 0
-37 -189 194 0
-37 -186 194 0
-37 -194 189 186 0
-38 -194 189 0
-38 194 -189 0
-39 -189 194 0
-39 -187 194 0
-39 -194 189 187 0
-40 -189 194 0
-40 -188 194 0
-40 -194 189 188 0
-44 -194 189 0
-44 194 -189 0
-195 0
-1 -200 195 0
-1 -200 196 0
-1 200 -195 -196 0
-2 -200 195 0
-2 -200 197 0
-2 200 -195 -197 0
-3 -200 195 0
-3 -200 198 0
-3 200 -195 -198 0
-4 -200 195 0
-4 -200 199 0
-4 200 -195 -199 0
-5 -200 195 0
-5 200 -195 0
-6 -200 195 0
-6 200 -195 0
-7 -200 195 0
-7 200 -195 0
-8 -200 195 0
-8 200 -195 0
-9 -200 195 0
-9 200 -195 0
-10 -200 195 0
-10 200 -195 0
-41 -200 195 0
-41 200 -195 0
196 0
-1 -196 201 0
-1 -195 201 0
-1 -201 196 195 0
-2 -201 196 0
-2 201 -196 0
-3 -201 196 0
-3 201 -196 0
-4 -201 196 0
-4 201 -196 0
-5 -201 196 0
-5 -201 197 0
-5 201 -196 -197 0
-6 -201 196 0
-6 -201 198 0
-6 201 -196 -198 0
-7 -201 196 0
-7 -201 199 0
-7 201 -196 -199 0
-8 -201 196 0
-8 201 -196 0
-9 -201 196 0
-9 201 -196 0
-10 -201 196 0
-10 201 -196 0
-41 -201 196 0
-41 201 -196 0
-197 0
-1 -202 197 0
-1 202 -197 0
-2 -197 202 0
-2 -195 202 0
-2 -202 197 195 0
-3 -202 197 0
-3 202 -197 0
-4 -202 197 0
-4 202 -197 0
-5 -197 202 0
-5 -196 202 0
-5 -202 197 196 0
-6 -202 197 0
-6 202 -197 0
-7 -202 197 0
-7 202 -197 0
-8 -202 197 0
-8 -202 198 0
-8 202 -197 -198 0
-9 -202 197 0
-9 -202 199 0
-9 202 -197 -199 0
-10 -202 197 0
-10 202 -197 0
-41 -202 197 0
-41 202 -197 0
198 0
-1 -203 198 0
-1 203 -198 0
-2 -203 198 0
-2 203 -198 0
-3 -198 203 0
-3 -195 203 0
-3 -203 198 195 0
-4 -203 198 0
-4 203 -198 0
-5 -203 198 0
-5 203 -198 0
-6 -198 203 0
-6 -196 203 0
-6 -203 198 196 0
-7 -203 198 0
-7 203 -198 0
-8 -198 203 0
-8 -197 203 0
-8 -203 198 197 0
-9 -203 198 0
-9 203 -198 0
-10 -203 198 0
-10 -203 199 0
-10 203 -198 -199 0
-41 -203 198 0
-41 203 -198 0
199 0
-1 -204 199 0
-1 204 -199 0
-2 -204 199 0
-2 204 -199 0
-3 -204 199 0
-3 204 -199 0
-4 -199 204 0
-4 -195 204 0
-4 -204 199 195 0
-5 -204 199 0
-5 204 -199 0
-6 -204 199 0
-6 204 -199 0
-7 -199 204 0
-7 -196 204 0
-7 -204 199 196 0
-8 -204 199 0
-8 204 -199 0
-9 -199 204 0
-9 -197 204 0
-9 -204 199 197 0
-10 -199 204 0
-10 -198 204 0
-10 -204 199 198 0
-41 -204 199 0
-41 204 -199 0
-11 -205 200 0
-11 -205 201 0
-11 205 -200 -201 0
-12 -205 200 0
-12 -205 202 0
-12 205 -200 -202 0
-13 -205 200 0
-13 -205 203 0
-13 205 -200 -203 0
-14 -205 200 0
-14 -205 204 0
-14 205 -200 -204 0
-15 -205 200 0
-15 205 -200 0
-16 -205 200 0
-16 205 -200 0
-17 -205 200 0
-17 205 -200 0
-18 -205 200 0
-18 205 -200 0
-19 -205 200 0
-19 205 -200 0
-20 -205 200 0
-20 205 -200 0
-42 -205 200 0
-42 205 -200 0
-11 -201 206 0
-11 -200 206 0
-11 -206 201 200 0
-12 -206 201 0
-12 206 -201 0
-13 -206 201 0
-13 206 -201 0
-14 -206 201 0
-14 206 -201 0
-15 -206 201 0
-15 -206 202 0
-15 206 -201 -202 0
-16 -206 201 0
-16 -206 203 0
-16 206 -201 -203 0
-17 -206 201 0
-17 -206 204 0
-17 206 -201 -204 0
-18 -206 201 0
-18 206 -201 0
-19 -206 201 0
-19 206 -201 0
-20 -206 201 0
-20 206 -201 0
-42 -206 201 0
-42 206 -201 0
-11 -207 202 0
-11 207 -202 0
-12 -202 207 0
-12 -200 207 0
-12 -207 202 200 0
-13 -207 202 0
-13 207 -202 0
-14 -207 202 0
-14 207 -202 0
-15 -202 207 0
-15 -201 207 0
-15 -207 202 201 0
-16 -207 202 0
-16 207 -202 0
-17 -207 202 0
-17 207 -202 0
-18 -207 202 0
-18 -207 203 0
-18 207 -202 -203 0
-19 -207 202 0
-19 -207 204 0
-19 207 -202 -204 0
-20 -207 202 0
-20 207 -202 0
-42 -207 202 0
-42 207 -202 0
-11 -208 203 0
-11 208 -203 0
-12 -208 203 0
-12 208 -203 0
-13 -203 208 0
-13 -200 208 0
-13 -208 203 200 0
-14 -208 203 0
-14 208 -203 0
-15 -208 203 0
-15 208 -203 0
-16 -203 208 0
-16 -201 208 0
-16 -208 203 201 0
-17 -208 203 0
-17 208 -203 0
-18 -203 208 0
-18 -202 208 0
-18 -208 203 202 0
-19 -208 203 0
-19 208 -203 0
-20 -208 203 0
-20 -208 204 0
-20 208 -203 -204 0
-42 -208 203 0
-42 208 -203 0
-11 -209 204 0
-11 209 -204 0
-12 -209 204 0
-12 209 -204 0
-13 -209 204 0
-13 209 -204 0
-14 -204 209 0
-14 -200 209 0
-14 -209 204 200 0
-15 -209 204 0
-15 209 -204 0
-16 -209 204 0
-16 209 -204 0
-17 -204 209 0
-17 -201 209 0
-17 -209 204 201 0
-18 -209 204 0
-18 209 -204 0
-19 -204 209 0
-19 -202 209 0
-19 -209 204 202 0
-20 -204 209 0
-20 -203 209 0
-20 -209 204 203 0
-42 -209 204 0
-42 209 -204 0
-21 -210 205 0
-21 -210 206 0
-21 210 -205 -206 0
-22 -210 205 0
-22 -210 207 0
-22 210 -205 -207 0
-23 -210 205 0
-23 -210 208 0
-23 210 -205 -208 0
-24 -210 205 0
-24 -210 209 0
-24 210 -205 -209 0
-25 -210 205 0
-25 210 -205 0
-26 -210 205 0
-26 210 -205 0
-27 -210 205 0
-27 210 -205 0
-28 -210 205 0
-28 210 -205 0
-29 -210 205 0
-29 210 -205 0
-30 -210 205 0
-30 210 -205 0
-43 -210 205 0
-43 210 -205 0
-21 -206 211 0
-21 -205 211 0
-21 -211 206 205 0
-22 -211 206 0
-22 211 -206 0
-23 -211 206 0
-23 211 -206 0
-24 -211 206 0
-24 211 -206 0
-25 -211 206 0
-25 -211 207 0
-25 211 -206 -207 0
-26 -211 206 0
-26 -211 208 0
-26 211 -206 -208 0
-27 -211 206 0
-27 -211 209 0
-27 211 -206 -209 0
-28 -211 206 0
-28 211 -206 0
-29 -211 206 0
-29 211 -206 0
-30 -211 206 0
-30 211 -206 0
-43 -211 206 0
-43 211 -206 0
-21 -212 207 0
-21 212 -207 0
-22 -207 212 0
-22 -205 212 0
-22 -212 207 205 0
-23 -212 207 0
-23 212 -207 0
-24 -212 207 0
-24 212 -207 0
-25 -207 212 0
-25 -206 212 0
-25 -212 207 206 0
-26 -212 207 0
-26 212 -207 0
-27 -212 207 0
-27 212 -207 0
-28 -212 207 0
-28 -212 208 0
-28 212 -207 -208 0
-29 -212 207 0
-29 -212 209 0
-29 212 -207 -209 0
-30 -212 207 0
-30 212 -207 0
-43 -212 207 0
-43 212 -207 0
-21 -213 208 0
-21 213 -208 0
-22 -213 208 0
-22 213 -208 0
-23 -208 213 0
-23 -205 213 0
-23 -213 208 205 0
-24 -213 208 0
-24 213 -208 0
-25 -213 208 0
-25 213 -208 0
-26 -208 213 0
-26 -206 213 0
-26 -213 208 206 0
-27 -213 208 0
-27 213 -208 0
-28 -208 213 0
-28 -207 213 0
-28 -213 208 207 0
-29 -213 208 0
-29 213 -208 0
-30 -213 208 0
-30 -213 209 0
-30 213 -208 -209 0
-43 -213 208 0
-43 213 -208 0
-21 -214 209 0
-21 214 -209 0
-22 -214 209 0
-22 214 -209 0
-23 -214 209 0
-23 214 -209 0
-24 -209 214 0
-24 -205 214 0
-24 -214 209 205 0
-25 -214 209 0
-25 214 -209 0
-26 -214 209 0
-26 214 -209 0
-27 -209 214 0
-27 -206 214 0
-27 -214 209 206 0
-28 -214 209 0
-28 214 -209 0
-29 -209 214 0
-29 -207 214 0
-29 -214 209 207 0
-30 -209 214 0
-30 -208 214 0
-30 -214 209 208 0
-43 -214 209 0
-43 214 -209 0
-31 -215 210 0
-31 -215 211 0
-31 215 -210 -211 0
-32 -215 210 0
-32 -215 212 0
-32 215 -210 -212 0
-33 -215 210 0
-33 -215 213 0
-33 215 -210 -213 0
-34 -215 210 0
-34 -215 214 0
-34 215 -210 -214 0
-35 -215 210 0
-35 215 -210 0
-36 -215 210 0
-36 215 -210 0
-37 -215 210 0
-37 215 -210 0
-38 -215 210 0
-38 215 -210 0
-39 -215 210 0
-39 215 -210 0
-40 -215 210 0
-40 215 -210 0
-44 -215 210 0
-44 215 -210 0
-31 -211 216 0
-31 -210 216 0
-31 -216 211 210 0
-32 -216 211 0
-32 216 -211 0
-33 -216 211 0
-33 216 -211 0
-34 -216 211 0
-34 216 -211 0
-35 -216 211 0
-35 -216 212 0
-35 216 -211 -212 0
-36 -216 211 0
-36 -216 213 0
-36 216 -211 -213 0
-37 -216 211 0
-37 -216 214 0
-37 216 -211 -214 0
-38 -216 211 0
-38 216 -211 0
-39 -216 211 0
-39 216 -211 0
-40 -216 211 0
-40 216 -211 0
-44 -216 211 0
-44 216 -211 0
-31 -217 212 0
-31 217 -212 0
-32 -212 217 0
-32 -210 217 0
-32 -217 212 210 0
-33 -217 212 0
-33 217 -212 0
-34 -217 212 0
-34 217 -212 0
-35 -212 217 0
-35 -211 217 0
-35 -217 212 211 0
-36 -217 212 0
-36 217 -212 0
-37 -217 212 0
-37 217 -212 0
-38 -217 212 0
-38 -217 213 0
-38 217 -212 -213 0
-39 -217 212 0
-39 -217 214 0
-39 217 -212 -214 0
-40 -217 212 0
-40 217 -212 0
-44 -217 212 0
-44 217 -212 0
-31 -218 213 0
-31 218 -213 0
-32 -218 213 0
-32 218 -213 0
-33 -213 218 0
-33 -210 218 0
-33 -218 213 210 0
-34 -218 213 0
-34 218 -213 0
-35 -218 213 0
-35 218 -213 0
-36 -213 218 0
-36 -211 218 0
-36 -218 213 211 0
-37 -218 213 0
-37 218 -213 0
-38 -213 218 0
-38 -212 218 0
-38 -218 213 212 0
-39 -218 213 0
-39 218 -213 0
-40 -218 213 0
-40 -218 214 0
-40 218 -213 -214 0
-44 -218 213 0
-44 218 -213 0
-31 -219 214 0
-31 219 -214 0
-32 -219 214 0
-32 219 -214 0
-33 -219 214 0
-33 219 -214 0
-34 -214 219 0
-34 -210 219 0
-34 -219 214 210 0
-35 -219 214 0
-35 219 -214 0
-36 -219 214 0
-36 219 -214 0
-37 -214 219 0
-37 -211 219 0
-37 -219 214 211 0
-38 -219 214 0
-38 219 -214 0
-39 -214 219 0
-39 -212 219 0
-39 -219 214 212 0
-40 -214 219 0
-40 -213 219 0
-40 -219 214 213 0
-44 -219 214 0
-44 219 -214 0
-220 0
-1 -225 220 0
-1 -225 221 0
-1 225 -220 -221 0
-2 -225 220 0
-2 -225 222 0
-2 225 -220 -222 0
-3 -225 220 0
-3 -225 223 0
-3 225 -220 -223 0
-4 -225 220 0
-4 -225 224 0
-4 225 -220 -224 0
-5 -225 220 0
-5 225 -220 0
-6 -225 220 0
-6 225 -220 0
-7 -225 220 0
-7 225 -220 0
-8 -225 220 0
-8 225 -220 0
-9 -225 220 0
-9 225 -220 0
-10 -225 220 0
-10 225 -220 0
-41 -225 220 0
-41 225 -220 0
221 0
-1 -221 226 0
-1 -220 226 0
-1 -226 221 220 0
-2 -226 221 0
-2 226 -221 0
-3 -226 221 0
-3 226 -221 0
-4 -226 221 0
-4 226 -221 0
-5 -226 221 0
-5 -226 222 0
-5 226 -221 -222 0
-6 -226 221 0
-6 -226 223 0
-6 226 -221 -223 0
-7 -226 221 0
-7 -226 224 0
-7 226 -221 -224 0
-8 -226 221 0
-8 226 -221 0
-9 -226 221 0
-9 226 -221 0
-10 -226 221 0
-10 226 -221 0
-41 -226 221 0
-41 226 -221 0
222 0
-1 -227 222 0
-1 227 -222 0
-2 -222 227 0
-2 -220 227 0
-2 -227 222 220 0
-3 -227 222 0
-3 227 -222 0
-4 -227 222 0
-4 227 -222 0
-5 -222 227 0
-5 -221 227 0
-5 -227 222 221 0
-6 -227 222 0
-6 227 -222 0
-7 -227 222 0
-7 227 -222 0
-8 -227 222 0
-8 -227 223 0
-8 227 -222 -223 0
-9 -227 222 0
-9 -227 224 0
-9 227 -222 -224 0
-10 -227 222 0
-10 227 -222 0
-41 -227 222 0
-41 227 -222 0
223 0
-1 -228 223 0
-1 228 -223 0
-2 -228 223 0
-2 228 -223 0
-3 -223 228 0
-3 -220 228 0
-3 -228 223 220 0
-4 -228 223 0
-4 228 -223 0
-5 -228 223 0
-5 228 -223 0
-6 -223 228 0
-6 -221 228 0
-6 -228 223 221 0
-7 -228 223 0
-7 228 -223 0
-8 -223 228 0
-8 -222 228 0
-8 -228 223 222 0
-9 -228 223 0
-9 228 -223 0
-10 -228 223 0
-10 -228 224 0
-10 228 -223 -224 0
-41 -228 223 0
-41 228 -223 0
224 0
-1 -229 224 0
-1 229 -224 0
-2 -229 224 0
-2 229 -224 0
-3 -229 224 0
-3 229 -224 0
-4 -224 229 0
-4 -220 229 0
-4 -229 224 220 0
-5 -229 224 0
-5 229 -224 0
-6 -229 224 0
-6 229 -224 0
-7 -224 229 0
-7 -221 229 0
-7 -229 224 221 0
-8 -229 224 0
-8 229 -224 0
-9 -224 229 0
-9 -222 229 0
-9 -229 224 222 0
-10 -224 229 0
-10 -223 229 0
-10 -229 224 223 0
-41 -229 224 0
-41 229 -224 0
-11 -230 225 0
-11 -230 226 0
-11 230 -225 -226 0
-12 -230 225 0
-12 -230 227 0
-12 230 -225 -227 0
-13 -230 225 0
-13 -230 228 0
-13 230 -225 -228 0
-14 -230 225 0
-14 -230 229 0
-14 230 -225 -229 0
-15 -230 225 0
-15 230 -225 0
-16 -230 225 0
-16 230 -225 0
-17 -230 225 0
-17 230 -225 0
-18 -230 225 0
-18 230 -225 0
-19 -230 225 0
-19 230 -225 0
-20 -230 225 0
-20 230 -225 0
-42 -230 225 0
-42 230 -225 0
-11 -226 231 0
-11 -225 231 0
-11 -231 226 225 0
-12 -231 226 0
-12 231 -226 0
-13 -231 226 0
-13 231 -226 0
-14 -231 226 0
-14 231 -226 0
-15 -231 226 0
-15 -231 227 0
-15 231 -226 -227 0
-16 -231 226 0
-16 -231 228 0
-16 231 -226 -228 0
-17 -231 226 0
-17 -231 229 0
-17 231 -226 -229 0
-18 -231 226 0
-18 231 -226 0
-19 -231 226 0
-19 231 -226 0
-20 -231 226 0
-20 231 -226 0
-42 -231 226 0
-42 231 -226 0
-11 -232 227 0
-11 232 -227 0
-12 -227 232 0
-12 -225 232 0
-12 -232 227 225 0
-13 -232 227 0
-13 232 -227 0
-14 -232 227 0
-14 232 -227 0
-15 -227 232 0
-15 -226 232 0
-15 -232 227 226 0
-16 -232 227 0
-16 232 -227 0
-17 -232 227 0
-17 232 -227 0
-18 -232 227 0
-18 -232 228 0
-18 232 -227 -228 0
-19 -232 227 0
-19 -232 229 0
-19 232 -227 -229 0
-20 -232 227 0
-20 232 -227 0
-42 -232 227 0
-42 232 -227 0
-11 -233 228 0
-11 233 -228 0
-12 -233 228 0
-12 233 -228 0
-13 -228 233 0
-13 -225 233 0
-13 -233 228 225 0
-14 -233 228 0
-14 233 -228 0
-15 -233 228 0
-15 233 -228 0
-16 -228 233 0
-16 -226 233 0
-16 -233 228 226 0
-17 -233 228 0
-17 233 -228 0
-18 -228 233 0
-18 -227 233 0
-18 -233 228 227 0
-19 -233 228 0
-19 233 -228 0
-20 -233 228 0
-20 -233 229 0
-20 233 -228 -229 0
-42 -233 228 0
-42 233 -228 0
-11 -234 229 0
-11 234 -229 0
-12 -234 229 0
-12 234 -229 0
-13 -234 229 0
-13 234 -229 0
-14 -229 234 0
-14 -225 234 0
-14 -234 229 225 0
-15 -234 229 0
-15 234 -229 0
-16 -234 229 0
-16 234 -229 0
-17 -229 234 0
-17 -226 234 0
-17 -234 229 226 0
-18 -234 229 0
-18 234 -229 0
-19 -229 234 0
-19 -227 234 0
-19 -234 229 227 0
-20 -229 234 0
-20 -228 234 0
-20 -234 229 228 0
-42 -234 229 0
-42 234 -229 0
-21 -235 230 0
-21 -235 231 0
-21 235 -230 -231 0
-22 -235 230 0
-22 -235 232 0
-22 235 -230 -232 0
-23 -235 230 0
-23 -235 233 0
-23 235 -230 -233 0
-24 -235 230 0
-24 -235 234 0
-24 235 -230 -234 0
-25 -235 230 0
-25 235 -230 0
-26 -235 230 0
-26 235 -230 0
-27 -235 230 0
-27 235 -230 0
-28 -235 230 0
-28 235 -230 0
-29 -235 230 0
-29 235 -230 0
-30 -235 230 0
-30 235 -230 0
-43 -235 230 0
-43 235 -230 0
-21 -231 236 0
-21 -230 236 0
-21 -236 231 230 0
-22 -236 231 0
-22 236 -231 0
-23 -236 231 0
-23 236 -231 0
-24 -236 231 0
-24 236 -231 0
-25 -236 231 0
-25 -236 232 0
-25 236 -231 -232 0
-26 -236 231 0
-26 -236 233 0
-26 236 -231 -233 0
-27 -236 231 0
-27 -236 234 0
-27 236 -231 -234 0
-28 -236 231 0
-28 236 -231 0
-29 -236 231 0
-29 236 -231 0
-30 -236 231 0
-30 236 -231 0
-43 -236 231 0
-43 236 -231 0
-21 -237 232 0
-21 237 -232 0
-22 -232 237 0
-22 -230 237 0
-22 -237 232 230 0
-23 -237 232 0
-23 237 -232 0
-24 -237 232 0
-24 237 -232 0
-25 -232 237 0
-25 -231 237 0
-25 -237 232 231 0
-26 -237 232 0
-26 237 -232 0
-27 -237 232 0
-27 237 -232 0
-28 -237 232 0
-28 -237 233 0
-28 237 -232 -233 0
-29 -237 232 0
-29 -237 234 0
-29 237 -232 -234 0
-30 -237 232 0
-30 237 -232 0
-43 -237 232 0
-43 237 -232 0
-21 -238 233 0
-21 238 -233 0
-22 -238 233 0
-22 238 -233 0
-23 -233 238 0
-23 -230 238 0
-23 -238 233 230 0
-24 -238 233 0
-24 238 -233 0
-25 -238 233 0
-25 238 -233 0
-26 -233 238 0
-26 -231 238 0
-26 -238 233 231 0
-27 -238 233 0
-27 238 -233 0
-28 -233 238 0
-28 -232 238 0
-28 -238 233 232 0
-29 -238 233 0
-29 238 -233 0
-30 -238 233 0
-30 -238 234 0
-30 238 -233 -234 0
-43 -238 233 0
-43 238 -233 0
-21 -239 234 0
-21 239 -234 0
-22 -239 234 0
-22 239 -234 0
-23 -239 234 0
-23 239 -234 0
-24 -234 239 0
-24 -230 239 0
-24 -239 234 230 0
-25 -239 234 0
-25 239 -234 0
-26 -239 234 0
-26 239 -234 0
-27 -234 239 0
-27 -231 239 0
-27 -239 234 231 0
-28 -239 234 0
-28 239 -234 0
-29 -234 239 0
-29 -232 239 0
-29 -239 234 232 0
-30 -234 239 0
-30 -233 239 0
-30 -239 234 233 0
-43 -239 234 0
-43 239 -234 0
-31 -240 235 0
-31 -240 236 0
-31 240 -235 -236 0
-32 -240 235 0
-32 -240 237 0
-32 240 -235 -237 0
-33 -240 235 0
-33 -240 238 0
-33 240 -235 -238 0
-34 -240 235 0
-34 -240 239 0
-34 240 -235 -239 0
-35 -240 235 0
-35 240 -235 0
-36 -240 235 0
-36 240 -235 0
-37 -240 235 0
-37 240 -235 0
-38 -240 235 0
-38 240 -235 0
-39 -240 235 0
-39 240 -235 0
-40 -240 235 0
-40 240 -235 0
-44 -240 235 0
-44 240 -235 0
-31 -236 241 0
-31 -235 241 0
-31 -241 236 235 0
-32 -241 236 0
-32 241 -236 0
-33 -241 236 0
-33 241 -236 0
-34 -241 236 0
-34 241 -236 0
-35 -241 236 0
-35 -241 237 0
-35 241 -236 -237 0
-36 -241 236 0
-36 -241 238 0
-36 241 -236 -238 0
-37 -241 236 0
-37 -241 239 0
-37 241 -236 -239 0
-38 -241 236 0
-38 241 -236 0
-39 -241 236 0
-39 241 -236 0
-40 -241 236 0
-40 241 -236 0
-44 -241 236 0
-44 241 -236 0
-31 -242 237 0
-31 242 -237 0
-32 -237 242 0
-32 -235 242 0
-32 -242 237 235 0
-33 -242 237 0
-33 242 -237 0
-34 -242 237 0
-34 242 -237 0
-35 -237 242 0
-35 -236 242 0
-35 -242 237 236 0
-36 -242 237 0
-36 242 -237 0
-37 -242 237 0
-37 242 -237 0
-38 -242 237 0
-38 -242 238 0
-38 242 -237 -238 0
-39 -242 237 0
-39 -242 239 0
-39 242 -237 -239 0
-40 -242 237 0
-40 242 -237 0
-44 -242 237 0
-44 242 -237 0
-31 -243 238 0
-31 243 -238 0
-32 -243 238 0
-32 243 -238 0
-33 -238 243 0
-33 -235 243 0
-33 -243 238 235 0
-34 -243 238 0
-34 243 -238 0
-35 -243 238 0
-35 243 -238 0
-36 -238 243 0
-36 -236 243 0
-36 -243 238 236 0
-37 -243 238 0
-37 243 -238 0
-38 -238 243 0
-38 -237 243 0
-38 -243 238 237 0
-39 -243 238 0
-39 243 -238 0
-40 -243 238 0
-40 -243 239 0
-40 243 -238 -239 0
-44 -243 238 0
-44 243 -238 0
-31 -244 239 0
-31 244 -239 0
-32 -244 239 0
-32 244 -239 0
-33 -244 239 0
-33 244 -239 0
-34 -239 244 0
-34 -235 244 0
-34 -244 239 235 0
-35 -244 239 0
-35 244 -239 0
-36 -244 239 0
-36 244 -239 0
-37 -239 244 0
-37 -236 244 0
-37 -244 239 236 0
-38 -244 239 0
-38 244 -239 0
-39 -239 244 0
-39 -237 244 0
-39 -244 239 237 0
-40 -239 244 0
-40 -238 244 0
-40 -244 239 238 0
-44 -244 239 0
-44 244 -239 0
245 0
-1 -250 245 0
-1 -250 246 0
-1 250 -245 -246 0
-2 -250 245 0
-2 -250 247 0
-2 250 -245 -247 0
-3 -250 245 0
-3 -250 248 0
-3 250 -245 -248 0
-4 -250 245 0
-4 -250 249 0
-4 250 -245 -249 0
-5 -250 245 0
-5 250 -245 0
-6 -250 245 0
-6 250 -245 0
-7 -250 245 0
-7 250 -245 0
-8 -250 245 0
-8 250 -245 0
-9 -250 245 0
-9 250 -245 0
-10 -250 245 0
-10 250 -245 0
-41 -250 245 0
-41 250 -245 0
246 0
-1 -246 251 0
-1 -245 251 0
-1 -251 246 245 0
-2 -251 246 0
-2 251 -246 0
-3 -251 246 0
-3 251 -246 0
-4 -251 246 0
-4 251 -246 0
-5 -251 246 0
-5 -251 247 0
-5 251 -246 -247 0
-6 -251 246 0
-6 -251 248 0
-6 251 -246 -248 0
-7 -251 246 0
-7 -251 249 0
-7 251 -246 -249 0
-8 -251 246 0
-8 251 -246 0
-9 -251 246 0
-9 251 -246 0
-10 -251 246 0
-10 251 -246 0
-41 -251 246 0
-41 251 -246 0
-247 0
-1 -252 247 0
-1 252 -247 0
-2 -247 252 0
-2 -245 252 0
-2 -252 247 245 0
-3 -252 247 0
-3 252 -247 0
-4 -252 247 0
-4 252 -247 0
-5 -247 252 0
-5 -246 252 0
-5 -252 247 246 0
-6 -252 247 0
-6 252 -247 0
-7 -252 247 0
-7 252 -247 0
-8 -252 247 0
-8 -252 248 0
-8 252 -247 -248 0
-9 -252 247 0
-9 -252 249 0
-9 252 -247 -249 0
-10 -252 247 0
-10 252 -247 0
-41 -252 247 0
-41 252 -247 0
-248 0
-1 -253 248 0
-1 253 -248 0
-2 -253 248 0
-2 253 -248 0
-3 -248 253 0
-3 -245 253 0
-3 -253 248 245 0
-4 -253 248 0
-4 253 -248 0
-5 -253 248 0
-5 253 -248 0
-6 -248 253 0
-6 -246 253 0
-6 -253 248 246 0
-7 -253 248 0
-7 253 -248 0
-8 -248 253 0
-8 -247 253 0
-8 -253 248 247 0
-9 -253 248 0
-9 253 -248 0
-10 -253 248 0
-10 -253 249 0
-10 253 -248 -249 0
-41 -253 248 0
-41 253 -248 0
-249 0
-1 -254 249 0
-1 254 -249 0
-2 -254 249 0
-2 254 -249 0
-3 -254 249 0
-3 254 -249 0
-4 -249 254 0
-4 -245 254 0
-4 -254 249 245 0
-5 -254 249 0
-5 254 -249 0
-6 -254 249 0
-6 254 -249 0
-7 -249 254 0
-7 -246 254 0
-7 -254 249 246 0
-8 -254 249 0
-8 254 -249 0
-9 -249 254 0
-9 -247 254 0
-9 -254 249 247 0
-10 -249 254 0
-10 -248 254 0
-10 -254 249 248 0
-41 -254 249 0
-41 254 -249 0
-11 -255 250 0
-11 -255 251 0
-11 255 -250 -251 0
-12 -255 250 0
-12 -255 252 0
-12 255 -250 -252 0
-13 -255 250 0
-13 -255 253 0
-13 255 -250 -253 0
-14 -255 250 0
-14 -255 254 0
-14 255 -250 -254 0
-15 -255 250 0
-15 255 -250 0
-16 -255 250 0
-16 255 -250 0
-17 -255 250 0
-17 255 -250 0
-18 -255 250 0
-18 255 -250 0
-19 -255 250 0
-19 255 -250 0
-20 -255 250 0
-20 255 -250 0
-42 -255 250 0
-42 255 -250 0
-11 -251 256 0
-11 -250 256 0
-11 -256 251 250 0
-12 -256 251 0
-12 256 -251 0
-13 -256 251 0
-13 256 -251 0
-14 -256 251 0
-14 256 -251 0
-15 -256 251 0
-15 -256 252 0
-15 256 -251 -252 0
-16 -256 251 0
-16 -256 253 0
-16 256 -251 -253 0
-17 -256 251 0
-17 -256 254 0
-17 256 -251 -254 0
-18 -256 251 0
-18 256 -251 0
-19 -256 251 0
-19 256 -251 0
-20 -256 251 0
-20 256 -251 0
-42 -256 251 0
-42 256 -251 0
-11 -257 252 0
-11 257 -252 0
-12 -252 257 0
-12 -250 257 0
-12 -257 252 250 0
-13 -257 252 0
-13 257 -252 0
-14 -257 252 0
-14 257 -252 0
-15 -252 257 0
-15 -251 257 0
-15 -257 252 251 0
-16 -257 252 0
-16 257 -252 0
-17 -257 252 0
-17 257 -252 0
-18 -257 252 0
-18 -257 253 0
-18 257 -252 -253 0
-19 -257 252 0
-19 -257 254 0
-19 257 -252 -254 0
-20 -257 252 0
-20 257 -252 0
-42 -257 252 0
-42 257 -252 0
-11 -258 253 0
-11 258 -253 0
-12 -258 253 0
-12 258 -253 0
-13 -253 258 0
-13 -250 258 0
-13 -258 253 250 0
-14 -258 253 0
-14 258 -253 0
-15 -258 253 0
-15 258 -253 0
-16 -253 258 0
-16 -251 258 0
-16 -258 253 251 0
-17 -258 253 0
-17 258 -253 0
-18 -253 258 0
-18 -252 258 0
-18 -258 253 252 0
-19 -258 253 0
-19 258 -253 0
-20 -258 253 0
-20 -258 254 0
-20 258 -253 -254 0
-42 -258 253 0
-42 258 -253 0
-11 -259 254 0
-11 259 -254 0
-12 -259 254 0
-12 259 -254 0
-13 -259 254 0
-13 259 -254 0
-14 -254 259 0
-14 -250 259 0
-14 -259 254 250 0
-15 -259 254 0
-15 259 -254 0
-16 -259 254 0
-16 259 -254 0
-17 -254 259 0
-17 -251 259 0
-17 -259 254 251 0
-18 -259 254 0
-18 259 -254 0
-19 -254 259 0
-19 -252 259 0
-19 -259 254 252 0
-20 -254 259 0
-20 -253 259 0
-20 -259 254 253 0
-42 -259 254 0
-42 259 -254 0
-21 -260 255 0
-21 -260 256 0
-21 260 -255 -256 0
-22 -260 255 0
-22 -260 257 0
-22 260 -255 -257 0
-23 -260 255 0
-23 -260 258 0
-23 260 -255 -258 0
-24 -260 255 0
-24 -260 259 0
-24 260 -255 -259 0
-25 -260 255 0
-25 260 -255 0
-26 -260 255 0
-26 260 -255 0
-27 -260 255 0
-27 260 -255 0
-28 -260 255 0
-28 260 -255 0
-29 -260 255 0
-29 260 -255 0
-30 -260 255 0
-30 260 -255 0
-43 -260 255 0
-43 260 -255 0
-21 -256 261 0
-21 -255 261 0
-21 -261 256 255 0
-22 -261 256 0
-22 261 -256 0
-23 -261 256 0
-23 261 -256 0
-24 -261 256 0
-24 261 -256 0
-25 -261 256 0
-25 -261 257 0
-25 261 -256 -257 0
-26 -261 256 0
-26 -261 258 0
-26 261 -256 -258 0
-27 -261 256 0
-27 -261 259 0
-27 261 -256 -259 0
-28 -261 256 0
-28 261 -256 0
-29 -261 256 0
-29 261 -256 0
-30 -261 256 0
-30 261 -256 0
-43 -261 256 0
-43 261 -256 0
-21 -262 257 0
-21 262 -257 0
-22 -257 262 0
-22 -255 262 0
-22 -262 257 255 0
-23 -262 257 0
-23 262 -257 0
-24 -262 257 0
-24 262 -257 0
-25 -257 262 0
-25 -256 262 0
-25 -262 257 256 0
-26 -262 257 0
-26 262 -257 0
-27 -262 257 0
-27 262 -257 0
-28 -262 257 0
-28 -262 258 0
-28 262 -257 -258 0
-29 -262 257 0
-29 -262 259 0
-29 262 -257 -259 0
-30 -262 257 0
-30 262 -257 0
-43 -262 257 0
-43 262 -257 0
-21 -263 258 0
-21 263 -258 0
-22 -263 258 0
-22 263 -258 0
-23 -258 263 0
-23 -255 263 0
-23 -263 258 255 0
-24 -263 258 0
-24 263 -258 0
-25 -263 258 0
-25 263 -258 0
-26 -258 263 0
-26 -256 263 0
-26 -263 258 256 0
-27 -263 258 0
-27 263 -258 0
-28 -258 263 0
-28 -257 263 0
-28 -263 258 257 0
-29 -263 258 0
-29 263 -258 0
-30 -263 258 0
-30 -263 259 0
-30 263 -258 -259 0
-43 -263 258 0
-43 263 -258 0
-21 -264 259 0
-21 264 -259 0
-22 -264 259 0
-22 264 -259 0
-23 -264 259 0
-23 264 -259 0
-24 -259 264 0
-24 -255 264 0
-24 -264 259 255 0
-25 -264 259 0
-25 264 -259 0
-26 -264 259 0
-26 264 -259 0
-27 -259 264 0
-27 -256 264 0
-27 -264 259 256 0
-28 -264 259 0
-28 264 -259 0
-29 -259 264 0
-29 -257 264 0
-29 -264 259 257 0
-30 -259 264 0
-30 -258 264 0
-30 -264 259 258 0
-43 -264 259 0
-43 264 -259 0
-31 -265 260 0
-31 -265 261 0
-31 265 -260 -261 0
-32 -265 260 0
-32 -265 262 0
-32 265 -260 -262 0
-33 -265 260 0
-33 -265 263 0
-33 265 -260 -263 0
-34 -265 260 0
-34 -265 264 0
-34 265 -260 -264 0
-35 -265 260 0
-35 265 -260 0
-36 -265 260 0
-36 265 -260 0
-37 -265 260 0
-37 265 -260 0
-38 -265 260 0
-38 265 -260 0
-39 -265 260 0
-39 265 -260 0
-40 -265 260 0
-40 265 -260 0
-44 -265 260 0
-44 265 -260 0
-31 -261 266 0
-31 -260 266 0
-31 -266 261 260 0
-32 -266 261 0
-32 266 -261 0
-33 -266 261 0
-33 266 -261 0
-34 -266 261 0
-34 266 -261 0
-35 -266 261 0
-35 -266 262 0
-35 266 -261 -262 0
-36 -266 261 0
-36 -266 263 0
-36 266 -261 -263 0
-37 -266 261 0
-37 -266 264 0
-37 266 -261 -264 0
-38 -266 261 0
-38 266 -261 0
-39 -266 261 0
-39 266 -261 0
-40 -266 261 0
-40 266 -261 0
-44 -266 261 0
-44 266 -261 0
-31 -267 262 0
-31 267 -262 0
-32 -262 267 0
-32 -260 267 0
-32 -267 262 260 0
-33 -267 262 0
-33 267 -262 0
-34 -267 262 0
-34 267 -262 0
-35 -262 267 0
-35 -261 267 0
-35 -267 262 261 0
-36 -267 262 0
-36 267 -262 0
-37 -267 262 0
-37 267 -262 0
-38 -267 262 0
-38 -267 263 0
-38 267 -262 -263 0
-39 -267 262 0
-39 -267 264 0
-39 267 -262 -264 0
-40 -267 262 0
-40 267 -262 0
-44 -267 262 0
-44 267 -262 0
-31 -268 263 0
-31 268 -263 0
-32 -268 263 0
-32 268 -263 0
-33 -263 268 0
-33 -260 268 0
-33 -268 263 260 0
-34 -268 263 0
-34 268 -263 0
-35 -268 263 0
-35 268 -263 0
-36 -263 268 0
-36 -261 268 0
-36 -268 263 261 0
-37 -268 263 0
-37 268 -263 0
-38 -263 268 0
-38 -262 268 0
-38 -268 263 262 0
-39 -268 263 0
-39 268 -263 0
-40 -268 263 0
-40 -268 264 0
-40 268 -263 -264 0
-44 -268 263 0
-44 268 -263 0
-31 -269 264 0
-31 269 -264 0
-32 -269 264 0
-32 269 -264 0
-33 -269 264 0
-33 269 -264 0
-34 -264 269 0
-34 -260 269 0
-34 -269 264 260 0
-35 -269 264 0
-35 269 -264 0
-36 -269 264 0
-36 269 -264 0
-37 -264 269 0
-37 -261 269 0
-37 -269 264 261 0
-38 -269 264 0
-38 269 -264 0
-39 -264 269 0
-39 -262 269 0
-39 -269 264 262 0
-40 -264 269 0
-40 -263 269 0
-40 -269 264 263 0
-44 -269 264 0
-44 269 -264 0
270 0
-1 -275 270 0
-1 -275 271 0
-1 275 -270 -271 0
-2 -275 270 0
-2 -275 272 0
-2 275 -270 -272 0
-3 -275 270 0
-3 -275 273 0
-3 275 -270 -273 0
-4 -275 270 0
-4 -275 274 0
-4 275 -270 -274 0
-5 -275 270 0
-5 275 -270 0
-6 -275 270 0
-6 275 -270 0
-7 -275 270 0
-7 275 -270 0
-8 -275 270 0
-8 275 -270 0
-9 -275 270 0
-9 275 -270 0
-10 -275 270 0
-10 275 -270 0
-41 -275 270 0
-41 275 -270 0
271 0
-1 -271 276 0
-1 -270 276 0
-1 -276 271 270 0
-2 -276 271 0
-2 276 -271 0
-3 -276 271 0
-3 276 -271 0
-4 -276 271 0
-4 276 -271 0
-5 -276 271 0
-5 -276 272 0
-5 276 -271 -272 0
-6 -276 271 0
-6 -276 273 0
-6 276 -271 -273 0
-7 -276 271 0
-7 -276 274 0
-7 276 -271 -274 0
-8 -276 271 0
-8 276 -271 0
-9 -276 271 0
-9 276 -271 0
-10 -276 271 0
-10 276 -271 0
-41 -276 271 0
-41 276 -271 0
-272 0
-1 -277 272 0
-1 277 -272 0
-2 -272 277 0
-2 -270 277 0
-2 -277 272 270 0
-3 -277 272 0
-3 277 -272 0
-4 -277 272 0
-4 277 -272 0
-5 -272 277 0
-5 -271 277 0
-5 -277 272 271 0
-6 -277 272 0
-6 277 -272 0
-7 -277 272 0
-7 277 -272 0
-8 -277 272 0
-8 -277 273 0
-8 277 -272 -273 0
-9 -277 272 0
-9 -277 274 0
-9 277 -272 -274 0
-10 -277 272 0
-10 277 -272 0
-41 -277 272 0
-41 277 -272 0
-273 0
-1 -278 273 0
-1 278 -273 0
-2 -278 273 0
-2 278 -273 0
-3 -273 278 0
-3 -270 278 0
-3 -278 273 270 0
-4 -278 273 0
-4 278 -273 0
-5 -278 273 0
-5 278 -273 0
-6 -273 278 0
-6 -271 278 0
-6 -278 273 271 0
-7 -278 273 0
-7 278 -273 0
-8 -273 278 0
-8 -272 278 0
-8 -278 273 272 0
-9 -278 273 0
-9 278 -273 0
-10 -278 273 0
-10 -278 274 0
-10 278 -273 -274 0
-41 -278 273 0
-41 278 -273 0
274 0
-1 -279 274 0
-1 279 -274 0
-2 -279 274 0
-2 279 -274 0
-3 -279 274 0
-3 279 -274 0
-4 -274 279 0
-4 -270 279 0
-4 -279 274 270 0
-5 -279 274 0
-5 279 -274 0
-6 -279 274 0
-6 279 -274 0
-7 -274 279 0
-7 -271 279 0
-7 -279 274 271 0
-8 -279 274 0
-8 279 -274 0
-9 -274 279 0
-9 -272 279 0
-9 -279 274 272 0
-10 -274 279 0
-10 -273 279 0
-10 -279 274 273 0
-41 -279 274 0
-41 279 -274 0
-11 -280 275 0
-11 -280 276 0
-11 280 -275 -276 0
-12 -280 275 0
-12 -280 277 0
-12 280 -275 -277 0
-13 -280 275 0
-13 -280 278 0
-13 280 -275 -278 0
-14 -280 275 0
-14 -280 279 0
-14 280 -275 -279 0
-15 -280 275 0
-15 280 -275 0
-16 -280 275 0
-16 280 -275 0
-17 -280 275 0
-17 280 -275 0
-18 -280 275 0
-18 280 -275 0
-19 -280 275 0
-19 280 -275 0
-20 -280 275 0
-20 280 -275 0
-42 -280 275 0
-42 280 -275 0
-11 -276 281 0
-11 -275 281 0
-11 -281 276 275 0
-12 -281 276 0
-12 281 -276 0
-13 -281 276 0
-13 281 -276 0
-14 -281 276 0
-14 281 -276 0
-15 -281 276 0
-15 -281 277 0
-15 281 -276 -277 0
-16 -281 276 0
-16 -281 278 0
-16 281 -276 -278 0
-17 -281 276 0
-17 -281 279 0
-17 281 -276 -279 0
-18 -281 276 0
-18 281 -276 0
-19 -281 276 0
-19 281 -276 0
-20 -281 276 0
-20 281 -276 0
-42 -281 276 0
-42 281 -276 0
-11 -282 277 0
-11 282 -277 0
-12 -277 282 0
-12 -275 282 0
-12 -282 277 275 0
-13 -282 277 0
-13 282 -277 0
-14 -282 277 0
-14 282 -277 0
-15 -277 282 0
-15 -276 282 0
-15 -282 277 276 0
-16 -282 277 0
-16 282 -277 0
-17 -282 277 0
-17 282 -277 0
-18 -282 277 0
-18 -282 278 0
-18 282 -277 -278 0
-19 -282 277 0
-19 -282 279 0
-19 282 -277 -279 0
-20 -282 277 0
-20 282 -277 0
-42 -282 277 0
-42 282 -277 0
-11 -283 278 0
-11 283 -278 0
-12 -283 278 0
-12 283 -278 0
-13 -278 283 0
-13 -275 283 0
-13 -283 278 275 0
-14 -283 278 0
-14 283 -278 0
-15 -283 278 0
-15 283 -278 0
-16 -278 283 0
-16 -276 283 0
-16 -283 278 276 0
-17 -283 278 0
-17 283 -278 0
-18 -278 283 0
-18 -277 283 0
-18 -283 278 277 0
-19 -283 278 0
-19 283 -278 0
-20 -283 278 0
-20 -283 279 0
-20 283 -278 -279 0
-42 -283 278 0
-42 283 -278 0
-11 -284 279 0
-11 284 -279 0
-12 -284 279 0
-12 284 -279 0
-13 -284 279 0
-13 284 -279 0
-14 -279 284 0
-14 -275 284 0
-14 -284 279 275 0
-15 -284 279 0
-15 284 -279 0
-16 -284 279 0
-16 284 -279 0
-17 -279 284 0
-17 -276 284 0
-17 -284 279 276 0
-18 -284 279 0
-18 284 -279 0
-19 -279 284 0
-19 -277 284 0
-19 -284 279 277 0
-20 -279 284 0
-20 -278 284 0
-20 -284 279 278 0
-42 -284 279 0
-42 284 -279 0
-21 -285 280 0
-21 -285 281 0
-21 285 -280 -281 0
-22 -285 280 0
-22 -285 282 0
-22 285 -280 -282 0
-23 -285 280 0
-23 -285 283 0
-23 285 -280 -283 0
-24 -285 280 0
-24 -285 284 0
-24 285 -280 -284 0
-25 -285 280 0
-25 285 -280 0
-26 -285 280 0
-26 285 -280 0
-27 -285 280 0
-27 285 -280 0
-28 -285 280 0
-28 285 -280 0
-29 -285 280 0
-29 285 -280 0
-30 -285 280 0
-30 285 -280 0
-43 -285 280 0
-43 285 -280 0
-21 -281 286 0
-21 -280 286 0
-21 -286 281 280 0
-22 -286 281 0
-22 286 -281 0
-23 -286 281 0
-23 286 -281 0
-24 -286 281 0
-24 286 -281 0
-25 -286 281 0
-25 -286 282 0
-25 286 -281 -282 0
-26 -286 281 0
-26 -286 283 0
-26 286 -281 -283 0
-27 -286 281 0
-27 -286 284 0
-27 286 -281 -284 0
-28 -286 281 0
-28 286 -281 0
-29 -286 281 0
-29 286 -281 0
-30 -286 281 0
-30 286 -281 0
-43 -286 281 0
-43 286 -281 0
-21 -287 282 0
-21 287 -282 0
-22 -282 287 0
-22 -280 287 0
-22 -287 282 280 0
-23 -287 282 0
-23 287 -282 0
-24 -287 282 0
-24 287 -282 0
-25 -282 287 0
-25 -281 287 0
-25 -287 282 281 0
-26 -287 282 0
-26 287 -282 0
-27 -287 282 0
-27 287 -282 0
-28 -287 282 0
-28 -287 283 0
-28 287 -282 -283 0
-29 -287 282 0
-29 -287 284 0
-29 287 -282 -284 0
-30 -287 282 0
-30 287 -282 0
-43 -287 282 0
-43 287 -282 0
-21 -288 283 0
-21 288 -283 0
-22 -288 283 0
-22 288 -283 0
-23 -283 288 0
-23 -280 288 0
-23 -288 283 280 0
-24 -288 283 0
-24 288 -283 0
-25 -288 283 0
-25 288 -283 0
-26 -283 288 0
-26 -281 288 0
-26 -288 283 281 0
-27 -288 283 0
-27 288 -283 0
-28 -283 288 0
-28 -282 288 0
-28 -288 283 282 0
-29 -288 283 0
-29 288 -283 0
-30 -288 283 0
-30 -288 284 0
-30 288 -283 -284 0
-43 -288 283 0
-43 288 -283 0
-21 -289 284 0
-21 289 -284 0
-22 -289 284 0
-22 289 -284 0
-23 -289 284 0
-23 289 -284 0
-24 -284 289 0
-24 -280 289 0
-24 -289 284 280 0
-25 -289 284 0
-25 289 -284 0
-26 -289 284 0
-26 289 -284 0
-27 -284 289 0
-27 -281 289 0
-27 -289 284 281 0
-28 -289 284 0
-28 289 -284 0
-29 -284 289 0
-29 -282 289 0
-29 -289 284 282 0
-30 -284 289 0
-30 -283 289 0
-30 -289 284 283 0
-43 -289 284 0
-43 289 -284 0
-31 -290 285 0
-31 -290 286 0
-31 290 -285 -286 0
-32 -290 285 0
-32 -290 287 0
-32 290 -285 -287 0
-33 -290 285 0
-33 -290 288 0
-33 290 -285 -288 0
-34 -290 285 0
-34 -290 289 0
-34 290 -285 -289 0
-35 -290 285 0
-35 290 -285 0
-36 -290 285 0
-36 290 -285 0
-37 -290 285 0
-37 290 -285 0
-38 -290 285 0
-38 290 -285 0
-39 -290 285 0
-39 290 -285 0
-40 -290 285 0
-40 290 -285 0
-44 -290 285 0
-44 290 -285 0
-31 -286 291 0
-31 -285 291 0
-31 -291 286 285 0
-32 -291 286 0
-32 291 -286 0
-33 -291 286 0
-33 291 -286 0
-34 -291 286 0
-34 291 -286 0
-35 -291 286 0
-35 -291 287 0
-35 291 -286 -287 0
-36 -291 286 0
-36 -291 288 0
-36 291 -286 -288 0
-37 -291 286 0
-37 -291 289 0
-37 291 -286 -289 0
-38 -291 286 0
-38 291 -286 0
-39 -291 286 0
-39 291 -286 0
-40 -291 286 0
-40 291 -286 0
-44 -291 286 0
-44 291 -286 0
-31 -292 287 0
-31 292 -287 0
-32 -287 292 0
-32 -285 292 0
-32 -292 287 285 0
-33 -292 287 0
-33 292 -287 0
-34 -292 287 0
-34 292 -287 0
-35 -287 292 0
-35 -286 292 0
-35 -292 287 286 0
-36 -292 287 0
-36 292 -287 0
-37 -292 287 0
-37 292 -287 0
-38 -292 287 0
-38 -292 288 0
-38 292 -287 -288 0
-39 -292 287 0
-39 -292 289 0
-39 292 -287 -289 0
-40 -292 287 0
-40 292 -287 0
-44 -292 287 0
-44 292 -287 0
-31 -293 288 0
-31 293 -288 0
-32 -293 288 0
-32 293 -288 0
-33 -288 293 0
-33 -285 293 0
-33 -293 288 285 0
-34 -293 288 0
-34 293 -288 0
-35 -293 288 0
-35 293 -288 0
-36 -288 293 0
-36 -286 293 0
-36 -293 288 286 0
-37 -293 288 0
-37 293 -288 0
-38 -288 293 0
-38 -287 293 0
-38 -293 288 287 0
-39 -293 288 0
-39 293 -288 0
-40 -293 288 0
-40 -293 289 0
-40 293 -288 -289 0
-44 -293 288 0
-44 293 -288 0
-31 -294 289 0
-31 294 -289 0
-32 -294 289 0
-32 294 -289 0
-33 -294 289 0
-33 294 -289 0
-34 -289 294 0
-34 -285 294 0
-34 -294 289 285 0
-35 -294 289 0
-35 294 -289 0
-36 -294 289 0
-36 294 -289 0
-37 -289 294 0
-37 -286 294 0
-37 -294 289 286 0
-38 -294 289 0
-38 294 -289 0
-39 -289 294 0
-39 -287 294 0
-39 -294 289 287 0
-40 -289 294 0
-40 -288 294 0
-40 -294 289 288 0
-44 -294 289 0
-44 294 -289 0
295 0
-1 -300 295 0
-1 -300 296 0
-1 300 -295 -296 0
-2 -300 295 0
-2 -300 297 0
-2 300 -295 -297 0
-3 -300 295 0
-3 -300 298 0
-3 300 -295 -298 0
-4 -300 295 0
-4 -300 299 0
-4 300 -295 -299 0
-5 -300 295 0
-5 300 -295 0
-6 -300 295 0
-6 300 -295 0
-7 -300 295 0
-7 300 -295 0
-8 -300 295 0
-8 300 -295 0
-9 -300 295 0
-9 300 -295 0
-10 -300 295 0
-10 300 -295 0
-41 -300 295 0
-41 300 -295 0
296 0
-1 -296 301 0
-1 -295 301 0
-1 -301 296 295 0
-2 -301 296 0
-2 301 -296 0
-3 -301 296 0
-3 301 -296 0
-4 -301 296 0
-4 301 -296 0
-5 -301 296 0
-5 -301 297 0
-5 301 -296 -297 0
-6 -301 296 0
-6 -301 298 0
-6 301 -296 -298 0
-7 -301 296 0
-7 -301 299 0
-7 301 -296 -299 0
-8 -301 296 0
-8 301 -296 0
-9 -301 296 0
-9 301 -296 0
-10 -301 296 0
-10 301 -296 0
-41 -301 296 0
-41 301 -296 0
-297 0
-1 -302 297 0
-1 302 -297 0
-2 -297 302 0
-2 -295 302 0
-2 -302 297 295 0
-3 -302 297 0
-3 302 -297 0
-4 -302 297 0
-4 302 -297 0
-5 -297 302 0
-5 -296 302 0
-5 -302 297 296 0
-6 -302 297 0
-6 302 -297 0
-7 -302 297 0
-7 302 -297 0
-8 -302 297 0
-8 -302 298 0
-8 302 -297 -298 0
-9 -302 297 0
-9 -302 299 0
-9 302 -297 -299 0
-10 -302 297 0
-10 302 -297 0
-41 -302 297 0
-41 302 -297 0
298 0
-1 -303 298 0
-1 303 -298 0
-2 -303 298 0
-2 303 -298 0
-3 -298 303 0
-3 -295 303 0
-3 -303 298 295 0
-4 -303 298 0
-4 303 -298 0
-5 -303 298 0
-5 303 -298 0
-6 -298 303 0
-6 -296 303 0
-6 -303 298 296 0
-7 -303 298 0
-7 303 -298 0
-8 -298 303 0
-8 -297 303 0
-8 -303 298 297 0
-9 -303 298 0
-9 303 -298 0
-10 -303 298 0
-10 -303 299 0
-10 303 -298 -299 0
-41 -303 298 0
-41 303 -298 0
299 0
-1 -304 299 0
-1 304 -299 0
-2 -304 299 0
-2 304 -299 0
-3 -304 299 0
-3 304 -299 0
-4 -299 304 0
-4 -295 304 0
-4 -304 299 295 0
-5 -304 299 0
-5 304 -299 0
-6 -304 299 0
-6 304 -299 0
-7 -299 304 0
-7 -296 304 0
-7 -304 299 296 0
-8 -304 299 0
-8 304 -299 0
-9 -299 304 0
-9 -297 304 0
-9 -304 299 297 0
-10 -299 304 0
-10 -298 304 0
-10 -304 299 298 0
-41 -304 299 0
-41 304 -299 0
-11 -305 300 0
-11 -305 301 0
-11 305 -300 -301 0
-12 -305 300 0
-12 -305 302 0
-12 305 -300 -302 0
-13 -305 300 0
-13 -305 303 0
-13 305 -300 -303 0
-14 -305 300 0
-14 -305 304 0
-14 305 -300 -304 0
-15 -305 300 0
-15 305 -300 0
-16 -305 300 0
-16 305 -300 0
-17 -305 300 0
-17 305 -300 0
-18 -305 300 0
-18 305 -300 0
-19 -305 300 0
-19 305 -300 0
-20 -305 300 0
-20 305 -300 0
-42 -305 300 0
-42 305 -300 0
-11 -301 306 0
-11 -300 306 0
-11 -306 301 300 0
-12 -306 301 0
-12 306 -301 0
-13 -306 301 0
-13 306 -301 0
-14 -306 301 0
-14 306 -301 0
-15 -306 301 0
-15 -306 302 0
-15 306 -301 -302 0
-16 -306 301 0
-16 -306 303 0
-16 306 -301 -303 0
-17 -306 301 0
-17 -306 304 0
-17 306 -301 -304 0
-18 -306 301 0
-18 306 -301 0
-19 -306 301 0
-19 306 -301 0
-20 -306 301 0
-20 306 -301 0
-42 -306 301 0
-42 306 -301 0
-11 -307 302 0
-11 307 -302 0
-12 -302 307 0
-12 -300 307 0
-12 -307 302 300 0
-13 -307 302 0
-13 307 -302 0
-14 -307 302 0
-14 307 -302 0
-15 -302 307 0
-15 -301 307 0
-15 -307 302 301 0
-16 -307 302 0
-16 307 -302 0
-17 -307 302 0
-17 307 -302 0
-18 -307 302 0
-18 -307 303 0
-18 307 -302 -303 0
-19 -307 302 0
-19 -307 304 0
-19 307 -302 -304 0
-20 -307 302 0
-20 307 -302 0
-42 -307 302 0
-42 307 -302 0
-11 -308 303 0
-11 308 -303 0
-12 -308 303 0
-12 308 -303 0
-13 -303 308 0
-13 -300 308 0
-13 -308 303 300 0
-14 -308 303 0
-14 308 -303 0
-15 -308 303 0
-15 308 -303 0
-16 -303 308 0
-16 -301 308 0
-16 -308 303 301 0
-17 -308 303 0
-17 308 -303 0
-18 -303 308 0
-18 -302 308 0
-18 -308 303 302 0
-19 -308 303 0
-19 308 -303 0
-20 -308 303 0
-20 -308 304 0
-20 308 -303 -304 0
-42 -308 303 0
-42 308 -303 0
-11 -309 304 0
-11 309 -304 0
-12 -309 304 0
-12 309 -304 0
-13 -309 304 0
-13 309 -304 0
-14 -304 309 0
-14 -300 309 0
-14 -309 304 300 0
-15 -309 304 0
-15 309 -304 0
-16 -309 304 0
-16 309 -304 0
-17 -304 309 0
-17 -301 309 0
-17 -309 304 301 0
-18 -309 304 0
-18 309 -304 0
-19 -304 309 0
-19 -302 309 0
-19 -309 304 302 0
-20 -304 309 0
-20 -303 309 0
-20 -309 304 303 0
-42 -309 304 0
-42 309 -304 0
-21 -310 305 0
-21 -310 306 0
-21 310 -305 -306 0
-22 -310 305 0
-22 -310 307 0
-22 310 -305 -307 0
-23 -310 305 0
-23 -310 308 0
-23 310 -305 -308 0
-24 -310 305 0
-24 -310 309 0
-24 310 -305 -309 0
-25 -310 305 0
-25 310 -305 0
-26 -310 305 0
-26 310 -305 0
-27 -310 305 0
-27 310 -305 0
-28 -310 305 0
-28 310 -305 0
-29 -310 305 0
-29 310 -305 0
-30 -310 305 0
-30 310 -305 0
-43 -310 305 0
-43 310 -305 0
-21 -306 311 0
-21 -305 311 0
-21 -311 306 305 0
-22 -311 306 0
-22 311 -306 0
-23 -311 306 0
-23 311 -306 0
-24 -311 306 0
-24 311 -306 0
-25 -311 306 0
-25 -311 307 0
-25 311 -306 -307 0
-26 -311 306 0
-26 -311 308 0
-26 311 -306 -308 0
-27 -311 306 0
-27 -311 309 0
-27 311 -306 -309 0
-28 -311 306 0
-28 311 -306 0
-29 -311 306 0
-29 311 -306 0
-30 -311 306 0
-30 311 -306 0
-43 -311 306 0
-43 311 -306 0
-21 -312 307 0
-21 312 -307 0
-22 -307 312 0
-22 -305 312 0
-22 -312 307 305 0
-23 -312 307 0
-23 312 -307 0
-24 -312 307 0
-24 312 -307 0
-25 -307 312 0
-25 -306 312 0
-25 -312 307 306 0
-26 -312 307 0
-26 312 -307 0
-27 -312 307 0
-27 312 -307 0
-28 -312 307 0
-28 -312 308 0
-28 312 -307 -308 0
-29 -312 307 0
-29 -312 309 0
-29 312 -307 -309 0
-30 -312 307 0
-30 312 -307 0
-43 -312 307 0
-43 312 -307 0
-21 -313 308 0
-21 313 -308 0
-22 -313 308 0
-22 313 -308 0
-23 -308 313 0
-23 -305 313 0
-23 -313 308 305 0
-24 -313 308 0
-24 313 -308 0
-25 -313 308 0
-25 313 -308 0
-26 -308 313 0
-26 -306 313 0
-26 -313 308 306 0
-27 -313 308 0
-27 313 -308 0
-28 -308 313 0
-28 -307 313 0
-28 -313 308 307 0
-29 -313 308 0
-29 313 -308 0
-30 -313 308 0
-30 -313 309 0
-30 313 -308 -309 0
-43 -313 308 0
-43 313 -308 0
-21 -314 309 0
-21 314 -309 0
-22 -314 309 0
-22 314 -309 0
-23 -314 309 0
-23 314 -309 0
-24 -309 314 0
-24 -305 314 0
-24 -314 309 305 0
-25 -314 309 0
-25 314 -309 0
-26 -314 309 0
-26 314 -309 0
-27 -309 314 0
-27 -306 314 0
-27 -314 309 306 0
-28 -314 309 0
-28 314 -309 0
-29 -309 314 0
-29 -307 314 0
-29 -314 309 307 0
-30 -309 314 0
-30 -308 314 0
-30 -314 309 308 0
-43 -314 309 0
-43 314 -309 0
-31 -315 310 0
-31 -315 311 0
-31 315 -310 -311 0
-32 -315 310 0
-32 -315 312 0
-32 315 -310 -312 0
-33 -315 310 0
-33 -315 313 0
-33 315 -310 -313 0
-34 -315 310 0
-34 -315 314 0
-34 315 -310 -314 0
-35 -315 310 0
-35 315 -310 0
-36 -315 310 0
-36 315 -310 0
-37 -315 310 0
-37 315 -310 0
-38 -315 310 0
-38 315 -310 0
-39 -315 310 0
-39 315 -310 0
-40 -315 310 0
-40 315 -310 0
-44 -315 310 0
-44 315 -310 0
-31 -311 316 0
-31 -310 316 0
-31 -316 311 310 0
-32 -316 311 0
-32 316 -311 0
-33 -316 311 0
-33 316 -311 0
-34 -316 311 0
-34 316 -311 0
-35 -316 311 0
-35 -316 312 0
-35 316 -311 -312 0
-36 -316 311 0
-36 -316 313 0
-36 316 -311 -313 0
-37 -316 311 0
-37 -316 314 0
-37 316 -311 -314 0
-38 -316 311 0
-38 316 -311 0
-39 -316 311 0
-39 316 -311 0
-40 -316 311 0
-40 316 -311 0
-44 -316 311 0
-44 316 -311 0
-31 -317 312 0
-31 317 -312 0
-32 -312 317 0
-32 -310 317 0
-32 -317 312 310 0
-33 -317 312 0
-33 317 -312 0
-34 -317 312 0
-34 317 -312 0
-35 -312 317 0
-35 -311 317 0
-35 -317 312 311 0
-36 -317 312 0
-36 317 -312 0
-37 -317 312 0
-37 317 -312 0
-38 -317 312 0
-38 -317 313 0
-38 317 -312 -313 0
-39 -317 312 0
-39 -317 314 0
-39 317 -312 -314 0
-40 -317 312 0
-40 317 -312 0
-44 -317 312 0
-44 317 -312 0
-31 -318 313 0
-31 318 -313 0
-32 -318 313 0
-32 318 -313 0
-33 -313 318 0
-33 -310 318 0
-33 -318 313 310 0
-34 -318 313 0
-34 318 -313 0
-35 -318 313 0
-35 318 -313 0
-36 -313 318 0
-36 -311 318 0
-36 -318 313 311 0
-37 -318 313 0
-37 318 -313 0
-38 -313 318 0
-38 -312 318 0
-38 -318 313 312 0
-39 -318 313 0
-39 318 -313 0
-40 -318 313 0
-40 -318 314 0
-40 318 -313 -314 0
-44 -318 313 0
-44 318 -313 0
-31 -319 314 0
-31 319 -314 0
-32 -319 314 0
-32 319 -314 0
-33 -319 314 0
-33 319 -314 0
-34 -314 319 0
-34 -310 319 0
-34 -319 314 310 0
-35 -319 314 0
-35 319 -314 0
-36 -319 314 0
-36 319 -314 0
-37 -314 319 0
-37 -311 319 0
-37 -319 314 311 0
-38 -319 314 0
-38 319 -314 0
-39 -314 319 0
-39 -312 319 0
-39 -319 314 312 0
-40 -314 319 0
-40 -313 319 0
-40 -319 314 313 0
-44 -319 314 0
-44 319 -314 0
320 0
-1 -325 320 0
-1 -325 321 0
-1 325 -320 -321 0
-2 -325 320 0
-2 -325 322 0
-2 325 -320 -322 0
-3 -325 320 0
-3 -325 323 0
-3 325 -320 -323 0
-4 -325 320 0
-4 -325 324 0
-4 325 -320 -324 0
-5 -325 320 0
-5 325 -320 0
-6 -325 320 0
-6 325 -320 0
-7 -325 320 0
-7 325 -320 0
-8 -325 320 0
-8 325 -320 0
-9 -325 320 0
-9 325 -320 0
-10 -325 320 0
-10 325 -320 0
-41 -325 320 0
-41 325 -320 0
321 0
-1 -321 326 0
-1 -320 326 0
-1 -326 321 320 0
-2 -326 321 0
-2 326 -321 0
-3 -326 321 0
-3 326 -321 0
-4 -326 321 0
-4 326 -321 0
-5 -326 321 0
-5 -326 322 0
-5 326 -321 -322 0
-6 -326 321 0
-6 -326 323 0
-6 326 -321 -323 0
-7 -326 321 0
-7 -326 324 0
-7 326 -321 -324 0
-8 -326 321 0
-8 326 -321 0
-9 -326 321 0
-9 326 -321 0
-10 -326 321 0
-10 326 -321 0
-41 -326 321 0
-41 326 -321 0
322 0
-1 -327 322 0
-1 327 -322 0
-2 -322 327 0
-2 -320 327 0
-2 -327 322 320 0
-3 -327 322 0
-3 327 -322 0
-4 -327 322 0
-4 327 -322 0
-5 -322 327 0
-5 -321 327 0
-5 -327 322 321 0
-6 -327 322 0
-6 327 -322 0
-7 -327 322 0
-7 327 -322 0
-8 -327 322 0
-8 -327 323 0
-8 327 -322 -323 0
-9 -327 322 0
-9 -327 324 0
-9 327 -322 -324 0
-10 -327 322 0
-10 327 -322 0
-41 -327 322 0
-41 327 -322 0
323 0
-1 -328 323 0
-1 328 -323 0
-2 -328 323 0
-2 328 -323 0
-3 -323 328 0
-3 -320 328 0
-3 -328 323 320 0
-4 -328 323 0
-4 328 -323 0
-5 -328 323 0
-5 328 -323 0
-6 -323 328 0
-6 -321 328 0
-6 -328 323 321 0
-7 -328 323 0
-7 328 -323 0
-8 -323 328 0
-8 -322 328 0
-8 -328 323 322 0
-9 -328 323 0
-9 328 -323 0
-10 -328 323 0
-10 -328 324 0
-10 328 -323 -324 0
-41 -328 323 0
-41 328 -323 0
324 0
-1 -329 324 0
-1 329 -324 0
-2 -329 324 0
-2 329 -324 0
-3 -329 324 0
-3 329 -324 0
-4 -324 329 0
-4 -320 329 0
-4 -329 324 320 0
-5 -329 324 0
-5 329 -324 0
-6 -329 324 0
-6 329 -324 0
-7 -324 329 0
-7 -321 329 0
-7 -329 324 321 0
-8 -329 324 0
-8 329 -324 0
-9 -324 329 0
-9 -322 329 0
-9 -329 324 322 0
-10 -324 329 0
-10 -323 329 0
-10 -329 324 323 0
-41 -329 324 0
-41 329 -324 0
-11 -330 325 0
-11 -330 326 0
-11 330 -325 -326 0
-12 -330 325 0
-12 -330 327 0
-12 330 -325 -327 0
-13 -330 325 0
-13 -330 328 0
-13 330 -325 -328 0
-14 -330 325 0
-14 -330 329 0
-14 330 -325 -329 0
-15 -330 325 0
-15 330 -325 0
-16 -330 325 0
-16 330 -325 0
-17 -330 325 0
-17 330 -325 0
-18 -330 325 0
-18 330 -325 0
-19 -330 325 0
-19 330 -325 0
-20 -330 325 0
-20 330 -325 0
-42 -330 325 0
-42 330 -325 0
-11 -326 331 0
-11 -325 331 0
-11 -331 326 325 0
-12 -331 326 0
-12 331 -326 0
-13 -331 326 0
-13 331 -326 0
-14 -331 326 0
-14 331 -326 0
-15 -331 326 0
-15 -331 327 0
-15 331 -326 -327 0
-16 -331 326 0
-16 -331 328 0
-16 331 -326 -328 0
-17 -331 326 0
-17 -331 329 0
-17 331 -326 -329 0
-18 -331 326 0
-18 331 -326 0
-19 -331 326 0
-19 331 -326 0
-20 -331 326 0
-20 331 -326 0
-42 -331 326 0
-42 331 -326 0
-11 -332 327 0
-11 332 -327 0
-12 -327 332 0
-12 -325 332 0
-12 -332 327 325 0
-13 -332 327 0
-13 332 -327 0
-14 -332 327 0
-14 332 -327 0
-15 -327 332 0
-15 -326 332 0
-15 -332 327 326 0
-16 -332 327 0
-16 332 -327 0
-17 -332 327 0
-17 332 -327 0
-18 -332 327 0
-18 -332 328 0
-18 332 -327 -328 0
-19 -332 327 0
-19 -332 329 0
-19 332 -327 -329 0
-20 -332 327 0
-20 332 -327 0
-42 -332 327 0
-42 332 -327 0
-11 -333 328 0
-11 333 -328 0
-12 -333 328 0
-12 333 -328 0
-13 -328 333 0
-13 -325 333 0
-13 -333 328 325 0
-14 -333 328 0
-14 333 -328 0
-15 -333 328 0
-15 333 -328 0
-16 -328 333 0
-16 -326 333 0
-16 -333 328 326 0
-17 -333 328 0
-17 333 -328 0
-18 -328 333 0
-18 -327 333 0
-18 -333 328 327 0
-19 -333 328 0
-19 333 -328 0
-20 -333 328 0
-20 -333 329 0
-20 333 -328 -329 0
-42 -333 328 0
-42 333 -328 0
-11 -334 329 0
-11 334 -329 0
-12 -334 329 0
-12 334 -329 0
-13 -334 329 0
-13 334 -329 0
-14 -329 334 0
-14 -325 334 0
-14 -334 329 325 0
-15 -334 329 0
-15 334 -329 0
-16 -334 329 0
-16 334 -329 0
-17 -329 334 0
-17 -326 334 0
-17 -334 329 326 0
-18 -334 329 0
-18 334 -329 0
-19 -329 334 0
-19 -327 334 0
-19 -334 329 327 0
-20 -329 334 0
-20 -328 334 0
-20 -334 329 328 0
-42 -334 329 0
-42 334 -329 0
-21 -335 330 0
-21 -335 331 0
-21 335 -330 -331 0
-22 -335 330 0
-22 -335 332 0
-22 335 -330 -332 0
-23 -335 330 0
-23 -335 333 0
-23 335 -330 -333 0
-24 -335 330 0
-24 -335 334 0
-24 335 -330 -334 0
-25 -335 330 0
-25 335 -330 0
-26 -335 330 0
-26 335 -330 0
-27 -335 330 0
-27 335 -330 0
-28 -335 330 0
-28 335 -330 0
-29 -335 330 0
-29 335 -330 0
-30 -335 330 0
-30 335 -330 0
-43 -335 330 0
-43 335 -330 0
-21 -331 336 0
-21 -330 336 0
-21 -336 331 330 0
-22 -336 331 0
-22 336 -331 0
-23 -336 331 0
-23 336 -331 0
-24 -336 331 0
-24 336 -331 0
-25 -336 331 0
-25 -336 332 0
-25 336 -331 -332 0
-26 -336 331 0
-26 -336 333 0
-26 336 -331 -333 0
-27 -336 331 0
-27 -336 334 0
-27 336 -331 -334 0
-28 -336 331 0
-28 336 -331 0
-29 -336 331 0
-29 336 -331 0
-30 -336 331 0
-30 336 -331 0
-43 -336 331 0
-43 336 -331 0
-21 -337 332 0
-21 337 -332 0
-22 -332 337 0
-22 -330 337 0
-22 -337 332 330 0
-23 -337 332 0
-23 337 -332 0
-24 -337 332 0
-24 337 -332 0
-25 -332 337 0
-25 -331 337 0
-25 -337 332 331 0
-26 -337 332 0
-26 337 -332 0
-27 -337 332 0
-27 337 -332 0
-28 -337 332 0
-28 -337 333 0
-28 337 -332 -333 0
-29 -337 332 0
-29 -337 334 0
-29 337 -332 -334 0
-30 -337 332 0
-30 337 -332 0
-43 -337 332 0
-43 337 -332 0
-21 -338 333 0
-21 338 -333 0
-22 -338 333 0
-22 338 -333 0
-23 -333 338 0
-23 -330 338 0
-23 -338 333 330 0
-24 -338 333 0
-24 338 -333 0
-25 -338 333 0
-25 338 -333 0
-26 -333 338 0
-26 -331 338 0
-26 -338 333 331 0
-27 -338 333 0
-27 338 -333 0
-28 -333 338 0
-28 -332 338 0
-28 -338 333 332 0
-29 -338 333 0
-29 338 -333 0
-30 -338 333 0
-30 -338 334 0
-30 338 -333 -334 0
-43 -338 333 0
-43 338 -333 0
-21 -339 334 0
-21 339 -334 0
-22 -339 334 0
-22 339 -334 0
-23 -339 334 0
-23 339 -334 0
-24 -334 339 0
-24 -330 339 0
-24 -339 334 330 0
-25 -339 334 0
-25 339 -334 0
-26 -339 334 0
-26 339 -334 0
-27 -334 339 0
-27 -331 339 0
-27 -339 334 331 0
-28 -339 334 0
-28 339 -334 0
-29 -334 339 0
-29 -332 339 0
-29 -339 334 332 0
-30 -334 339 0
-30 -333 339 0
-30 -339 334 333 0
-43 -339 334 0
-43 339 -334 0
-31 -340 335 0
-31 -340 336 0
-31 340 -335 -336 0
-32 -340 335 0
-32 -340 337 0
-32 340 -335 -337 0
-33 -340 335 0
-33 -340 338 0
-33 340 -335 -338 0
-34 -340 335 0
-34 -340 339 0
-34 340 -335 -339 0
-35 -340 335 0
-35 340 -335 0
-36 -340 335 0
-36 340 -335 0
-37 -340 335 0
-37 340 -335 0
-38 -340 335 0
-38 340 -335 0
-39 -340 335 0
-39 340 -335 0
-40 -340 335 0
-40 340 -335 0
-44 -340 335 0
-44 340 -335 0
-31 -336 341 0
-31 -335 341 0
-31 -341 336 335 0
-32 -341 336 0
-32 341 -336 0
-33 -341 336 0
-33 341 -336 0
-34 -341 336 0
-34 341 -336 0
-35 -341 336 0
-35 -341 337 0
-35 341 -336 -337 0
-36 -341 336 0
-36 -341 338 0
-36 341 -336 -338 0
-37 -341 336 0
-37 -341 339 0
-37 341 -336 -339 0
-38 -341 336 0
-38 341 -336 0
-39 -341 336 0
-39 341 -336 0
-40 -341 336 0
-40 341 -336 0
-44 -341 336 0
-44 341 -336 0
-31 -342 337 0
-31 342 -337 0
-32 -337 342 0
-32 -335 342 0
-32 -342 337 335 0
-33 -342 337 0
-33 342 -337 0
-34 -342 337 0
-34 342 -337 0
-35 -337 342 0
-35 -336 342 0
-35 -342 337 336 0
-36 -342 337 0
-36 342 -337 0
-37 -342 337 0
-37 342 -337 0
-38 -342 337 0
-38 -342 338 0
-38 342 -337 -338 0
-39 -342 337 0
-39 -342 339 0
-39 342 -337 -339 0
-40 -342 337 0
-40 342 -337 0
-44 -342 337 0
-44 342 -337 0
-31 -343 338 0
-31 343 -338 0
-32 -343 338 0
-32 343 -338 0
-33 -338 343 0
-33 -335 343 0
-33 -343 338 335 0
-34 -343 338 0
-34 343 -338 0
-35 -343 338 0
-35 343 -338 0
-36 -338 343 0
-36 -336 343 0
-36 -343 338 336 0
-37 -343 338 0
-37 343 -338 0
-38 -338 343 0
-38 -337 343 0
-38 -343 338 337 0
-39 -343 338 0
-39 343 -338 0
-40 -343 338 0
-40 -343 339 0
-40 343 -338 -339 0
-44 -343 338 0
-44 343 -338 0
-31 -344 339 0
-31 344 -339 0
-32 -344 339 0
-32 344 -339 0
-33 -344 339 0
-33 344 -339 0
-34 -339 344 0
-34 -335 344 0
-34 -344 339 335 0
-35 -344 339 0
-35 344 -339 0
-36 -344 339 0
-36 344 -339 0
-37 -339 344 0
-37 -336 344 0
-37 -344 339 336 0
-38 -344 339 0
-38 344 -339 0
-39 -339 344 0
-39 -337 344 0
-39 -344 339 337 0
-40 -339 344 0
-40 -338 344 0
-40 -344 339 338 0
-44 -344 339 0
-44 344 -339 0
-65 66 0
-66 67 0
-67 68 0
-68 69 0
-90 91 0
-91 92 0
-92 93 0
-93 94 0
-115 116 0
-116 117 0
-117 118 0
-118 119 0
-140 141 0
-141 142 0
-142 143 0
-143 144 0
-165 166 0
-166 167 0
-167 168 0
-168 169 0
-190 191 0
-191 192 0
-192 193 0
-193 194 0
-215 216 0
-216 217 0
-217 218 0
-218 219 0
-240 241 0
-241 242 0
-242 243 0
-243 244 0
-265 266 0
-266 267 0
-267 268 0
-268 269 0
-290 291 0
-291 292 0
-292 293 0
-293 294 0
-315 316 0
-316 317 0
-317 318 0
-318 319 0
-340 341 0
-341 342 0
-342 343 0
-343 344 0
