p cnf 432 11315
1 2 3 4 5 6 7 8 9 10 11 12 13 14 15 46 0
-1 -2 0
-1 -3 0
-1 -4 0
-1 -5 0
-1 -6 0
-1 -7 0
-1 -8 0
-1 -9 0
-1 -10 0
-1 -11 0
-1 -12 0
-1 -13 0
-1 -14 0
-1 -15 0
-1 -46 0
-2 -3 0
-2 -4 0
-2 -5 0
-2 -6 0
-2 -7 0
-2 -8 0
-2 -9 0
-2 -10 0
-2 -11 0
-2 -12 0
-2 -13 0
-2 -14 0
-2 -15 0
-2 -46 0
-3 -4 0
-3 -5 0
-3 -6 0
-3 -7 0
-3 -8 0
-3 -9 0
-3 -10 0
-3 -11 0
-3 -12 0
-3 -13 0
-3 -14 0
-3 -15 0
-3 -46 0
-4 -5 0
-4 -6 0
-4 -7 0
-4 -8 0
-4 -9 0
-4 -10 0
-4 -11 0
-4 -12 0
-4 -13 0
-4 -14 0
-4 -15 0
-4 -46 0
-5 -6 0
-5 -7 0
-5 -8 0
-5 -9 0
-5 -10 0
-5 -11 0
-5 -12 0
-5 -13 0
-5 -14 0
-5 -15 0
-5 -46 0
-6 -7 0
-6 -8 0
-6 -9 0
-6 -10 0
-6 -11 0
-6 -12 0
-6 -13 0
-6 -14 0
-6 -15 0
-6 -46 0
-7 -8 0
-7 -9 0
-7 -10 0
-7 -11 0
-7 -12 0
-7 -13 0
-7 -14 0
-7 -15 0
-7 -46 0
-8 -9 0
-8 -10 0
-8 -11 0
-8 -12 0
-8 -13 0
-8 -14 0
-8 -15 0
-8 -46 0
-9 -10 0
-9 -11 0
-9 -12 0
-9 -13 0
-9 -14 0
-9 -15 0
-9 -46 0
-10 -11 0
-10 -12 0
-10 -13 0
-10 -14 0
-10 -15 0
-10 -46 0
-11 -12 0
-11 -13 0
-11 -14 0
-11 -15 0
-11 -46 0
-12 -13 0
-12 -14 0
-12 -15 0
-12 -46 0
-13 -14 0
-13 -15 0
-13 -46 0
-14 -15 0
-14 -46 0
-15 -46 0
16 17 18 19 20 21 22 23 24 25 26 27 28 29 30 47 0
-16 -17 0
-16 -18 0
-16 -19 0
-16 -20 0
-16 -21 0
-16 -22 0
-16 -23 0
-16 -24 0
-16 -25 0
-16 -26 0
-16 -27 0
-16 -28 0
-16 -29 0
-16 -30 0
-16 -47 0
-17 -18 0
-17 -19 0
-17 -20 0
-17 -21 0
-17 -22 0
-17 -23 0
-17 -24 0
-17 -25 0
-17 -26 0
-17 -27 0
-17 -28 0
-17 -29 0
-17 -30 0
-17 -47 0
-18 -19 0
-18 -20 0
-18 -21 0
-18 -22 0
-18 -23 0
-18 -24 0
-18 -25 0
-18 -26 0
-18 -27 0
-18 -28 0
-18 -29 0
-18 -30 0
-18 -47 0
-19 -20 0
-19 -21 0
-19 -22 0
-19 -23 0
-19 -24 0
-19 -25 0
-19 -26 0
-19 -27 0
-19 -28 0
-19 -29 0
-19 -30 0
-19 -47 0
-20 -21 0
-20 -22 0
-20 -23 0
-20 -24 0
-20 -25 0
-20 -26 0
-20 -27 0
-20 -28 0
-20 -29 0
-20 -30 0
-20 -47 0
-21 -22 0
-21 -23 0
-21 -24 0
-21 -25 0
-21 -26 0
-21 -27 0
-21 -28 0
-21 -29 0
-21 -30 0
-21 -47 0
-22 -23 0
-22 -24 0
-22 -25 0
-22 -26 0
-22 -27 0
-22 -28 0
-22 -29 0
-22 -30 0
-22 -47 0
-23 -24 0
-23 -25 0
-23 -26 0
-23 -27 0
-23 -28 0
-23 -29 0
-23 -30 0
-23 -47 0
-24 -25 0
-24 -26 0
-24 -27 0
-24 -28 0
-24 -29 0
-24 -30 0
-24 -47 0
-25 -26 0
-25 -27 0
-25 -28 0
-25 -29 0
-25 -30 0
-25 -47 0
-26 -27 0
-26 -28 0
-26 -29 0
-26 -30 0
-26 -47 0
-27 -28 0
-27 -29 0
-27 -30 0
-27 -47 0
-28 -29 0
-28 -30 0
-28 -47 0
-29 -30 0
-29 -47 0
-30 -47 0
31 32 33 34 35 36 37 38 39 40 41 42 43 44 45 48 0
-31 -32 0
-31 -33 0
-31 -34 0
-31 -35 0
-31 -36 0
-31 -37 0
-31 -38 0
-31 -39 0
-31 -40 0
-31 -41 0
-31 -42 0
-31 -43 0
-31 -44 0
-31 -45 0
-31 -48 0
-32 -33 0
-32 -34 0
-32 -35 0
-32 -36 0
-32 -37 0
-32 -38 0
-32 -39 0
-32 -40 0
-32 -41 0
-32 -42 0
-32 -43 0
-32 -44 0
-32 -45 0
-32 -48 0
-33 -34 0
-33 -35 0
-33 -36 0
-33 -37 0
-33 -38 0
-33 -39 0
-33 -40 0
-33 -41 0
-33 -42 0
-33 -43 0
-33 -44 0
-33 -45 0
-33 -48 0
-34 -35 0
-34 -36 0
-34 -37 0
-34 -38 0
-34 -39 0
-34 -40 0
-34 -41 0
-34 -42 0
-34 -43 0
-34 -44 0
-34 -45 0
-34 -48 0
-35 -36 0
-35 -37 0
-35 -38 0
-35 -39 0
-35 -40 0
-35 -41 0
-35 -42 0
-35 -43 0
-35 -44 0
-35 -45 0
-35 -48 0
-36 -37 0
-36 -38 0
-36 -39 0
-36 -40 0
-36 -41 0
-36 -42 0
-36 -43 0
-36 -44 0
-36 -45 0
-36 -48 0
-37 -38 0
-37 -39 0
-37 -40 0
-37 -41 0
-37 -42 0
-37 -43 0
-37 -44 0
-37 -45 0
-37 -48 0
-38 -39 0
-38 -40 0
-38 -41 0
-38 -42 0
-38 -43 0
-38 -44 0
-38 -45 0
-38 -48 0
-39 -40 0
-39 -41 0
-39 -42 0
-39 -43 0
-39 -44 0
-39 -45 0
-39 -48 0
-40 -41 0
-40 -42 0
-40 -43 0
-40 -44 0
-40 -45 0
-40 -48 0
-41 -42 0
-41 -43 0
-41 -44 0
-41 -45 0
-41 -48 0
-42 -43 0
-42 -44 0
-42 -45 0
-42 -48 0
-43 -44 0
-43 -45 0
-43 -48 0
-44 -45 0
-44 -48 0
-45 -48 0
-1 -16 0
-2 -17 0
-3 -18 0
-4 -19 0
-5 -20 0
-6 -21 0
-7 -22 0
-8 -23 0
-9 -24 0
-10 -25 0
-11 -26 0
-12 -27 0
-13 -28 0
-14 -29 0
-15 -30 0
-16 -31 0
-17 -32 0
-18 -33 0
-19 -34 0
-20 -35 0
-21 -36 0
-22 -37 0
-23 -38 0
-24 -39 0
-25 -40 0
-26 -41 0
-27 -42 0
-28 -43 0
-29 -44 0
-30 -45 0
-6 -18 0
-6 -19 0
-6 -20 0
-7 -17 0
-7 -19 0
-7 -20 0
-8 -17 0
-8 -18 0
-8 -20 0
-9 -17 0
-9 -18 0
-9 -19 0
-10 -16 0
-10 -19 0
-10 -20 0
-10 -23 0
-10 -24 0
-11 -16 0
-11 -18 0
-11 -20 0
-11 -22 0
-11 -24 0
-12 -16 0
-12 -18 0
-12 -19 0
-12 -22 0
-12 -23 0
-13 -16 0
-13 -17 0
-13 -20 0
-13 -21 0
-13 -24 0
-13 -27 0
-14 -16 0
-14 -17 0
-14 -19 0
-14 -21 0
-14 -23 0
-14 -26 0
-15 -16 0
-15 -17 0
-15 -18 0
-15 -21 0
-15 -22 0
-15 -25 0
-21 -33 0
-21 -34 0
-21 -35 0
-22 -32 0
-22 -34 0
-22 -35 0
-23 -32 0
-23 -33 0
-23 -35 0
-24 -32 0
-24 -33 0
-24 -34 0
-25 -31 0
-25 -34 0
-25 -35 0
-25 -38 0
-25 -39 0
-26 -31 0
-26 -33 0
-26 -35 0
-26 -37 0
-26 -39 0
-27 -31 0
-27 -33 0
-27 -34 0
-27 -37 0
-27 -38 0
-28 -31 0
-28 -32 0
-28 -35 0
-28 -36 0
-28 -39 0
-28 -42 0
-29 -31 0
-29 -32 0
-29 -34 0
-29 -36 0
-29 -38 0
-29 -41 0
-30 -31 0
-30 -32 0
-30 -33 0
-30 -36 0
-30 -37 0
-30 -40 0
-49 0
-1 -55 49 0
-1 -55 50 0
-1 55 -49 -50 0
-2 -55 49 0
-2 -55 51 0
-2 55 -49 -51 0
-3 -55 49 0
-3 -55 52 0
-3 55 -49 -52 0
-4 -55 49 0
-4 -55 53 0
-4 55 -49 -53 0
-5 -55 49 0
-5 -55 54 0
-5 55 -49 -54 0
-6 -55 49 0
-6 55 -49 0
-7 -55 49 0
-7 55 -49 0
-8 -55 49 0
-8 55 -49 0
-9 -55 49 0
-9 55 -49 0
-10 -55 49 0
-10 55 -49 0
-11 -55 49 0
-11 55 -49 0
-12 -55 49 0
-12 55 -49 0
-13 -55 49 0
-13 55 -49 0
-14 -55 49 0
-14 55 -49 0
-15 -55 49 0
-15 55 -49 0
-46 -55 49 0
-46 55 -49 0
-50 0
-1 -50 56 0
-1 -49 56 0
-1 -56 50 49 0
-2 -56 50 0
-2 56 -50 0
-3 -56 50 0
-3 56 -50 0
-4 -56 50 0
-4 56 -50 0
-5 -56 50 0
-5 56 -50 0
-6 -56 50 0
-6 -56 51 0
-6 56 -50 -51 0
-7 -56 50 0
-7 -56 52 0
-7 56 -50 -52 0
-8 -56 50 0
-8 -56 53 0
-8 56 -50 -53 0
-9 -56 50 0
-9 -56 54 0
-9 56 -50 -54 0
-10 -56 50 0
-10 56 -50 0
-11 -56 50 0
-11 56 -50 0
-12 -56 50 0
-12 56 -50 0
-13 -56 50 0
-13 56 -50 0
-14 -56 50 0
-14 56 -50 0
-15 -56 50 0
-15 56 -50 0
-46 -56 50 0
-46 56 -50 0
-51 0
-1 -57 51 0
-1 57 -51 0
-2 -51 57 0
-2 -49 57 0
-2 -57 51 49 0
-3 -57 51 0
-3 57 -51 0
-4 -57 51 0
-4 57 -51 0
-5 -57 51 0
-5 57 -51 0
-6 -51 57 0
-6 -50 57 0
-6 -57 51 50 0
-7 -57 51 0
-7 57 -51 0
-8 -57 51 0
-8 57 -51 0
-9 -57 51 0
-9 57 -51 0
-10 -57 51 0
-10 -57 52 0
-10 57 -51 -52 0
-11 -57 51 0
-11 -57 53 0
-11 57 -51 -53 0
-12 -57 51 0
-12 -57 54 0
-12 57 -51 -54 0
-13 -57 51 0
-13 57 -51 0
-14 -57 51 0
-14 57 -51 0
-15 -57 51 0
-15 57 -51 0
-46 -57 51 0
-46 57 -51 0
-52 0
-1 -58 52 0
-1 58 -52 0
-2 -58 52 0
-2 58 -52 0
-3 -52 58 0
-3 -49 58 0
-3 -58 52 49 0
-4 -58 52 0
-4 58 -52 0
-5 -58 52 0
-5 58 -52 0
-6 -58 52 0
-6 58 -52 0
-7 -52 58 0
-7 -50 58 0
-7 -58 52 50 0
-8 -58 52 0
-8 58 -52 0
-9 -58 52 0
-9 58 -52 0
-10 -52 58 0
-10 -51 58 0
-10 -58 52 51 0
-11 -58 52 0
-11 58 -52 0
-12 -58 52 0
-12 58 -52 0
-13 -58 52 0
-13 -58 53 0
-13 58 -52 -53 0
-14 -58 52 0
-14 -58 54 0
-14 58 -52 -54 0
-15 -58 52 0
-15 58 -52 0
-46 -58 52 0
-46 58 -52 0
-53 0
-1 -59 53 0
-1 59 -53 0
-2 -59 53 0
-2 59 -53 0
-3 -59 53 0
-3 59 -53 0
-4 -53 59 0
-4 -49 59 0
-4 -59 53 49 0
-5 -59 53 0
-5 59 -53 0
-6 -59 53 0
-6 59 -53 0
-7 -59 53 0
-7 59 -53 0
-8 -53 59 0
-8 -50 59 0
-8 -59 53 50 0
-9 -59 53 0
-9 59 -53 0
-10 -59 53 0
-10 59 -53 0
-11 -53 59 0
-11 -51 59 0
-11 -59 53 51 0
-12 -59 53 0
-12 59 -53 0
-13 -53 59 0
-13 -52 59 0
-13 -59 53 52 0
-14 -59 53 0
-14 59 -53 0
-15 -59 53 0
-15 -59 54 0
-15 59 -53 -54 0
-46 -59 53 0
-46 59 -53 0
-54 0
-1 -60 54 0
-1 60 -54 0
-2 -60 54 0
-2 60 -54 0
-3 -60 54 0
-3 60 -54 0
-4 -60 54 0
-4 60 -54 0
-5 -54 60 0
-5 -49 60 0
-5 -60 54 49 0
-6 -60 54 0
-6 60 -54 0
-7 -60 54 0
-7 60 -54 0
-8 -60 54 0
-8 60 -54 0
-9 -54 60 0
-9 -50 60 0
-9 -60 54 50 0
-10 -60 54 0
-10 60 -54 0
-11 -60 54 0
-11 60 -54 0
-12 -54 60 0
-12 -51 60 0
-12 -60 54 51 0
-13 -60 54 0
-13 60 -54 0
-14 -54 60 0
-14 -52 60 0
-14 -60 54 52 0
-15 -54 60 0
-15 -53 60 0
-15 -60 54 53 0
-46 -60 54 0
-46 60 -54 0
-16 -61 55 0
-16 -61 56 0
-16 61 -55 -56 0
-17 -61 55 0
-17 -61 57 0
-17 61 -55 -57 0
-18 -61 55 0
-18 -61 58 0
-18 61 -55 -58 0
-19 -61 55 0
-19 -61 59 0
-19 61 -55 -59 0
-20 -61 55 0
-20 -61 60 0
-20 61 -55 -60 0
-21 -61 55 0
-21 61 -55 0
-22 -61 55 0
-22 61 -55 0
-23 -61 55 0
-23 61 -55 0
-24 -61 55 0
-24 61 -55 0
-25 -61 55 0
-25 61 -55 0
-26 -61 55 0
-26 61 -55 0
-27 -61 55 0
-27 61 -55 0
-28 -61 55 0
-28 61 -55 0
-29 -61 55 0
-29 61 -55 0
-30 -61 55 0
-30 61 -55 0
-47 -61 55 0
-47 61 -55 0
-16 -56 62 0
-16 -55 62 0
-16 -62 56 55 0
-17 -62 56 0
-17 62 -56 0
-18 -62 56 0
-18 62 -56 0
-19 -62 56 0
-19 62 -56 0
-20 -62 56 0
-20 62 -56 0
-21 -62 56 0
-21 -62 57 0
-21 62 -56 -57 0
-22 -62 56 0
-22 -62 58 0
-22 62 -56 -58 0
-23 -62 56 0
-23 -62 59 0
-23 62 -56 -59 0
-24 -62 56 0
-24 -62 60 0
-24 62 -56 -60 0
-25 -62 56 0
-25 62 -56 0
-26 -62 56 0
-26 62 -56 0
-27 -62 56 0
-27 62 -56 0
-28 -62 56 0
-28 62 -56 0
-29 -62 56 0
-29 62 -56 0
-30 -62 56 0
-30 62 -56 0
-47 -62 56 0
-47 62 -56 0
-16 -63 57 0
-16 63 -57 0
-17 -57 63 0
-17 -55 63 0
-17 -63 57 55 0
-18 -63 57 0
-18 63 -57 0
-19 -63 57 0
-19 63 -57 0
-20 -63 57 0
-20 63 -57 0
-21 -57 63 0
-21 -56 63 0
-21 -63 57 56 0
-22 -63 57 0
-22 63 -57 0
-23 -63 57 0
-23 63 -57 0
-24 -63 57 0
-24 63 -57 0
-25 -63 57 0
-25 -63 58 0
-25 63 -57 -58 0
-26 -63 57 0
-26 -63 59 0
-26 63 -57 -59 0
-27 -63 57 0
-27 -63 60 0
-27 63 -57 -60 0
-28 -63 57 0
-28 63 -57 0
-29 -63 57 0
-29 63 -57 0
-30 -63 57 0
-30 63 -57 0
-47 -63 57 0
-47 63 -57 0
-16 -64 58 0
-16 64 -58 0
-17 -64 58 0
-17 64 -58 0
-18 -58 64 0
-18 -55 64 0
-18 -64 58 55 0
-19 -64 58 0
-19 64 -58 0
-20 -64 58 0
-20 64 -58 0
-21 -64 58 0
-21 64 -58 0
-22 -58 64 0
-22 -56 64 0
-22 -64 58 56 0
-23 -64 58 0
-23 64 -58 0
-24 -64 58 0
-24 64 -58 0
-25 -58 64 0
-25 -57 64 0
-25 -64 58 57 0
-26 -64 58 0
-26 64 -58 0
-27 -64 58 0
-27 64 -58 0
-28 -64 58 0
-28 -64 59 0
-28 64 -58 -59 0
-29 -64 58 0
-29 -64 60 0
-29 64 -58 -60 0
-30 -64 58 0
-30 64 -58 0
-47 -64 58 0
-47 64 -58 0
-16 -65 59 0
-16 65 -59 0
-17 -65 59 0
-17 65 -59 0
-18 -65 59 0
-18 65 -59 0
-19 -59 65 0
-19 -55 65 0
-19 -65 59 55 0
-20 -65 59 0
-20 65 -59 0
-21 -65 59 0
-21 65 -59 0
-22 -65 59 0
-22 65 -59 0
-23 -59 65 0
-23 -56 65 0
-23 -65 59 56 0
-24 -65 59 0
-24 65 -59 0
-25 -65 59 0
-25 65 -59 0
-26 -59 65 0
-26 -57 65 0
-26 -65 59 57 0
-27 -65 59 0
-27 65 -59 0
-28 -59 65 0
-28 -58 65 0
-28 -65 59 58 0
-29 -65 59 0
-29 65 -59 0
-30 -65 59 0
-30 -65 60 0
-30 65 -59 -60 0
-47 -65 59 0
-47 65 -59 0
-16 -66 60 0
-16 66 -60 0
-17 -66 60 0
-17 66 -60 0
-18 -66 60 0
-18 66 -60 0
-19 -66 60 0
-19 66 -60 0
-20 -60 66 0
-20 -55 66 0
-20 -66 60 55 0
-21 -66 60 0
-21 66 -60 0
-22 -66 60 0
-22 66 -60 0
-23 -66 60 0
-23 66 -60 0
-24 -60 66 0
-24 -56 66 0
-24 -66 60 56 0
-25 -66 60 0
-25 66 -60 0
-26 -66 60 0
-26 66 -60 0
-27 -60 66 0
-27 -57 66 0
-27 -66 60 57 0
-28 -66 60 0
-28 66 -60 0
-29 -60 66 0
-29 -58 66 0
-29 -66 60 58 0
-30 -60 66 0
-30 -59 66 0
-30 -66 60 59 0
-47 -66 60 0
-47 66 -60 0
-31 -67 61 0
-31 -67 62 0
-31 67 -61 -62 0
-32 -67 61 0
-32 -67 63 0
-32 67 -61 -63 0
-33 -67 61 0
-33 -67 64 0
-33 67 -61 -64 0
-34 -67 61 0
-34 -67 65 0
-34 67 -61 -65 0
-35 -67 61 0
-35 -67 66 0
-35 67 -61 -66 0
-36 -67 61 0
-36 67 -61 0
-37 -67 61 0
-37 67 -61 0
-38 -67 61 0
-38 67 -61 0
-39 -67 61 0
-39 67 -61 0
-40 -67 61 0
-40 67 -61 0
-41 -67 61 0
-41 67 -61 0
-42 -67 61 0
-42 67 -61 0
-43 -67 61 0
-43 67 -61 0
-44 -67 61 0
-44 67 -61 0
-45 -67 61 0
-45 67 -61 0
-48 -67 61 0
-48 67 -61 0
-31 -62 68 0
-31 -61 68 0
-31 -68 62 61 0
-32 -68 62 0
-32 68 -62 0
-33 -68 62 0
-33 68 -62 0
-34 -68 62 0
-34 68 -62 0
-35 -68 62 0
-35 68 -62 0
-36 -68 62 0
-36 -68 63 0
-36 68 -62 -63 0
-37 -68 62 0
-37 -68 64 0
-37 68 -62 -64 0
-38 -68 62 0
-38 -68 65 0
-38 68 -62 -65 0
-39 -68 62 0
-39 -68 66 0
-39 68 -62 -66 0
-40 -68 62 0
-40 68 -62 0
-41 -68 62 0
-41 68 -62 0
-42 -68 62 0
-42 68 -62 0
-43 -68 62 0
-43 68 -62 0
-44 -68 62 0
-44 68 -62 0
-45 -68 62 0
-45 68 -62 0
-48 -68 62 0
-48 68 -62 0
-31 -69 63 0
-31 69 -63 0
-32 -63 69 0
-32 -61 69 0
-32 -69 63 61 0
-33 -69 63 0
-33 69 -63 0
-34 -69 63 0
-34 69 -63 0
-35 -69 63 0
-35 69 -63 0
-36 -63 69 0
-36 -62 69 0
-36 -69 63 62 0
-37 -69 63 0
-37 69 -63 0
-38 -69 63 0
-38 69 -63 0
-39 -69 63 0
-39 69 -63 0
-40 -69 63 0
-40 -69 64 0
-40 69 -63 -64 0
-41 -69 63 0
-41 -69 65 0
-41 69 -63 -65 0
-42 -69 63 0
-42 -69 66 0
-42 69 -63 -66 0
-43 -69 63 0
-43 69 -63 0
-44 -69 63 0
-44 69 -63 0
-45 -69 63 0
-45 69 -63 0
-48 -69 63 0
-48 69 -63 0
-31 -70 64 0
-31 70 -64 0
-32 -70 64 0
-32 70 -64 0
-33 -64 70 0
-33 -61 70 0
-33 -70 64 61 0
-34 -70 64 0
-34 70 -64 0
-35 -70 64 0
-35 70 -64 0
-36 -70 64 0
-36 70 -64 0
-37 -64 70 0
-37 -62 70 0
-37 -70 64 62 0
-38 -70 64 0
-38 70 -64 0
-39 -70 64 0
-39 70 -64 0
-40 -64 70 0
-40 -63 70 0
-40 -70 64 63 0
-41 -70 64 0
-41 70 -64 0
-42 -70 64 0
-42 70 -64 0
-43 -70 64 0
-43 -70 65 0
-43 70 -64 -65 0
-44 -70 64 0
-44 -70 66 0
-44 70 -64 -66 0
-45 -70 64 0
-45 70 -64 0
-48 -70 64 0
-48 70 -64 0
-31 -71 65 0
-31 71 -65 0
-32 -71 65 0
-32 71 -65 0
-33 -71 65 0
-33 71 -65 0
-34 -65 71 0
-34 -61 71 0
-34 -71 65 61 0
-35 -71 65 0
-35 71 -65 0
-36 -71 65 0
-36 71 -65 0
-37 -71 65 0
-37 71 -65 0
-38 -65 71 0
-38 -62 71 0
-38 -71 65 62 0
-39 -71 65 0
-39 71 -65 0
-40 -71 65 0
-40 71 -65 0
-41 -65 71 0
-41 -63 71 0
-41 -71 65 63 0
-42 -71 65 0
-42 71 -65 0
-43 -65 71 0
-43 -64 71 0
-43 -71 65 64 0
-44 -71 65 0
-44 71 -65 0
-45 -71 65 0
-45 -71 66 0
-45 71 -65 -66 0
-48 -71 65 0
-48 71 -65 0
-31 -72 66 0
-31 72 -66 0
-32 -72 66 0
-32 72 -66 0
-33 -72 66 0
-33 72 -66 0
-34 -72 66 0
-34 72 -66 0
-35 -66 72 0
-35 -61 72 0
-35 -72 66 61 0
-36 -72 66 0
-36 72 -66 0
-37 -72 66 0
-37 72 -66 0
-38 -72 66 0
-38 72 -66 0
-39 -66 72 0
-39 -62 72 0
-39 -72 66 62 0
-40 -72 66 0
-40 72 -66 0
-41 -72 66 0
-41 72 -66 0
-42 -66 72 0
-42 -63 72 0
-42 -72 66 63 0
-43 -72 66 0
-43 72 -66 0
-44 -66 72 0
-44 -64 72 0
-44 -72 66 64 0
-45 -66 72 0
-45 -65 72 0
-45 -72 66 65 0
-48 -72 66 0
-48 72 -66 0
-73 0
-1 -79 73 0
-1 -79 74 0
-1 79 -73 -74 0
-2 -79 73 0
-2 -79 75 0
-2 79 -73 -75 0
-3 -79 73 0
-3 -79 76 0
-3 79 -73 -76 0
-4 -79 73 0
-4 -79 77 0
-4 79 -73 -77 0
-5 -79 73 0
-5 -79 78 0
-5 79 -73 -78 0
-6 -79 73 0
-6 79 -73 0
-7 -79 73 0
-7 79 -73 0
-8 -79 73 0
-8 79 -73 0
-9 -79 73 0
-9 79 -73 0
-10 -79 73 0
-10 79 -73 0
-11 -79 73 0
-11 79 -73 0
-12 -79 73 0
-12 79 -73 0
-13 -79 73 0
-13 79 -73 0
-14 -79 73 0
-14 79 -73 0
-15 -79 73 0
-15 79 -73 0
-46 -79 73 0
-46 79 -73 0
-74 0
-1 -74 80 0
-1 -73 80 0
-1 -80 74 73 0
-2 -80 74 0
-2 80 -74 0
-3 -80 74 0
-3 80 -74 0
-4 -80 74 0
-4 80 -74 0
-5 -80 74 0
-5 80 -74 0
-6 -80 74 0
-6 -80 75 0
-6 80 -74 -75 0
-7 -80 74 0
-7 -80 76 0
-7 80 -74 -76 0
-8 -80 74 0
-8 -80 77 0
-8 80 -74 -77 0
-9 -80 74 0
-9 -80 78 0
-9 80 -74 -78 0
-10 -80 74 0
-10 80 -74 0
-11 -80 74 0
-11 80 -74 0
-12 -80 74 0
-12 80 -74 0
-13 -80 74 0
-13 80 -74 0
-14 -80 74 0
-14 80 -74 0
-15 -80 74 0
-15 80 -74 0
-46 -80 74 0
-46 80 -74 0
-75 0
-1 -81 75 0
-1 81 -75 0
-2 -75 81 0
-2 -73 81 0
-2 -81 75 73 0
-3 -81 75 0
-3 81 -75 0
-4 -81 75 0
-4 81 -75 0
-5 -81 75 0
-5 81 -75 0
-6 -75 81 0
-6 -74 81 0
-6 -81 75 74 0
-7 -81 75 0
-7 81 -75 0
-8 -81 75 0
-8 81 -75 0
-9 -81 75 0
-9 81 -75 0
-10 -81 75 0
-10 -81 76 0
-10 81 -75 -76 0
-11 -81 75 0
-11 -81 77 0
-11 81 -75 -77 0
-12 -81 75 0
-12 -81 78 0
-12 81 -75 -78 0
-13 -81 75 0
-13 81 -75 0
-14 -81 75 0
-14 81 -75 0
-15 -81 75 0
-15 81 -75 0
-46 -81 75 0
-46 81 -75 0
-76 0
-1 -82 76 0
-1 82 -76 0
-2 -82 76 0
-2 82 -76 0
-3 -76 82 0
-3 -73 82 0
-3 -82 76 73 0
-4 -82 76 0
-4 82 -76 0
-5 -82 76 0
-5 82 -76 0
-6 -82 76 0
-6 82 -76 0
-7 -76 82 0
-7 -74 82 0
-7 -82 76 74 0
-8 -82 76 0
-8 82 -76 0
-9 -82 76 0
-9 82 -76 0
-10 -76 82 0
-10 -75 82 0
-10 -82 76 75 0
-11 -82 76 0
-11 82 -76 0
-12 -82 76 0
-12 82 -76 0
-13 -82 76 0
-13 -82 77 0
-13 82 -76 -77 0
-14 -82 76 0
-14 -82 78 0
-14 82 -76 -78 0
-15 -82 76 0
-15 82 -76 0
-46 -82 76 0
-46 82 -76 0
-77 0
-1 -83 77 0
-1 83 -77 0
-2 -83 77 0
-2 83 -77 0
-3 -83 77 0
-3 83 -77 0
-4 -77 83 0
-4 -73 83 0
-4 -83 77 73 0
-5 -83 77 0
-5 83 -77 0
-6 -83 77 0
-6 83 -77 0
-7 -83 77 0
-7 83 -77 0
-8 -77 83 0
-8 -74 83 0
-8 -83 77 74 0
-9 -83 77 0
-9 83 -77 0
-10 -83 77 0
-10 83 -77 0
-11 -77 83 0
-11 -75 83 0
-11 -83 77 75 0
-12 -83 77 0
-12 83 -77 0
-13 -77 83 0
-13 -76 83 0
-13 -83 77 76 0
-14 -83 77 0
-14 83 -77 0
-15 -83 77 0
-15 -83 78 0
-15 83 -77 -78 0
-46 -83 77 0
-46 83 -77 0
78 0
-1 -84 78 0
-1 84 -78 0
-2 -84 78 0
-2 84 -78 0
-3 -84 78 0
-3 84 -78 0
-4 -84 78 0
-4 84 -78 0
-5 -78 84 0
-5 -73 84 0
-5 -84 78 73 0
-6 -84 78 0
-6 84 -78 0
-7 -84 78 0
-7 84 -78 0
-8 -84 78 0
-8 84 -78 0
-9 -78 84 0
-9 -74 84 0
-9 -84 78 74 0
-10 -84 78 0
-10 84 -78 0
-11 -84 78 0
-11 84 -78 0
-12 -78 84 0
-12 -75 84 0
-12 -84 78 75 0
-13 -84 78 0
-13 84 -78 0
-14 -78 84 0
-14 -76 84 0
-14 -84 78 76 0
-15 -78 84 0
-15 -77 84 0
-15 -84 78 77 0
-46 -84 78 0
-46 84 -78 0
-16 -85 79 0
-16 -85 80 0
-16 85 -79 -80 0
-17 -85 79 0
-17 -85 81 0
-17 85 -79 -81 0
-18 -85 79 0
-18 -85 82 0
-18 85 -79 -82 0
-19 -85 79 0
-19 -85 83 0
-19 85 -79 -83 0
-20 -85 79 0
-20 -85 84 0
-20 85 -79 -84 0
-21 -85 79 0
-21 85 -79 0
-22 -85 79 0
-22 85 -79 0
-23 -85 79 0
-23 85 -79 0
-24 -85 79 0
-24 85 -79 0
-25 -85 79 0
-25 85 -79 0
-26 -85 79 0
-26 85 -79 0
-27 -85 79 0
-27 85 -79 0
-28 -85 79 0
-28 85 -79 0
-29 -85 79 0
-29 85 -79 0
-30 -85 79 0
-30 85 -79 0
-47 -85 79 0
-47 85 -79 0
-16 -80 86 0
-16 -79 86 0
-16 -86 80 79 0
-17 -86 80 0
-17 86 -80 0
-18 -86 80 0
-18 86 -80 0
-19 -86 80 0
-19 86 -80 0
-20 -86 80 0
-20 86 -80 0
-21 -86 80 0
-21 -86 81 0
-21 86 -80 -81 0
-22 -86 80 0
-22 -86 82 0
-22 86 -80 -82 0
-23 -86 80 0
-23 -86 83 0
-23 86 -80 -83 0
-24 -86 80 0
-24 -86 84 0
-24 86 -80 -84 0
-25 -86 80 0
-25 86 -80 0
-26 -86 80 0
-26 86 -80 0
-27 -86 80 0
-27 86 -80 0
-28 -86 80 0
-28 86 -80 0
-29 -86 80 0
-29 86 -80 0
-30 -86 80 0
-30 86 -80 0
-47 -86 80 0
-47 86 -80 0
-16 -87 81 0
-16 87 -81 0
-17 -81 87 0
-17 -79 87 0
-17 -87 81 79 0
-18 -87 81 0
-18 87 -81 0
-19 -87 81 0
-19 87 -81 0
-20 -87 81 0
-20 87 -81 0
-21 -81 87 0
-21 -80 87 0
-21 -87 81 80 0
-22 -87 81 0
-22 87 -81 0
-23 -87 81 0
-23 87 -81 0
-24 -87 81 0
-24 87 -81 0
-25 -87 81 0
-25 -87 82 0
-25 87 -81 -82 0
-26 -87 81 0
-26 -87 83 0
-26 87 -81 -83 0
-27 -87 81 0
-27 -87 84 0
-27 87 -81 -84 0
-28 -87 81 0
-28 87 -81 0
-29 -87 81 0
-29 87 -81 0
-30 -87 81 0
-30 87 -81 0
-47 -87 81 0
-47 87 -81 0
-16 -88 82 0
-16 88 -82 0
-17 -88 82 0
-17 88 -82 0
-18 -82 88 0
-18 -79 88 0
-18 -88 82 79 0
-19 -88 82 0
-19 88 -82 0
-20 -88 82 0
-20 88 -82 0
-21 -88 82 0
-21 88 -82 0
-22 -82 88 0
-22 -80 88 0
-22 -88 82 80 0
-23 -88 82 0
-23 88 -82 0
-24 -88 82 0
-24 88 -82 0
-25 -82 88 0
-25 -81 88 0
-25 -88 82 81 0
-26 -88 82 0
-26 88 -82 0
-27 -88 82 0
-27 88 -82 0
-28 -88 82 0
-28 -88 83 0
-28 88 -82 -83 0
-29 -88 82 0
-29 -88 84 0
-29 88 -82 -84 0
-30 -88 82 0
-30 88 -82 0
-47 -88 82 0
-47 88 -82 0
-16 -89 83 0
-16 89 -83 0
-17 -89 83 0
-17 89 -83 0
-18 -89 83 0
-18 89 -83 0
-19 -83 89 0
-19 -79 89 0
-19 -89 83 79 0
-20 -89 83 0
-20 89 -83 0
-21 -89 83 0
-21 89 -83 0
-22 -89 83 0
-22 89 -83 0
-23 -83 89 0
-23 -80 89 0
-23 -89 83 80 0
-24 -89 83 0
-24 89 -83 0
-25 -89 83 0
-25 89 -83 0
-26 -83 89 0
-26 -81 89 0
-26 -89 83 81 0
-27 -89 83 0
-27 89 -83 0
-28 -83 89 0
-28 -82 89 0
-28 -89 83 82 0
-29 -89 83 0
-29 89 -83 0
-30 -89 83 0
-30 -89 84 0
-30 89 -83 -84 0
-47 -89 83 0
-47 89 -83 0
-16 -90 84 0
-16 90 -84 0
-17 -90 84 0
-17 90 -84 0
-18 -90 84 0
-18 90 -84 0
-19 -90 84 0
-19 90 -84 0
-20 -84 90 0
-20 -79 90 0
-20 -90 84 79 0
-21 -90 84 0
-21 90 -84 0
-22 -90 84 0
-22 90 -84 0
-23 -90 84 0
-23 90 -84 0
-24 -84 90 0
-24 -80 90 0
-24 -90 84 80 0
-25 -90 84 0
-25 90 -84 0
-26 -90 84 0
-26 90 -84 0
-27 -84 90 0
-27 -81 90 0
-27 -90 84 81 0
-28 -90 84 0
-28 90 -84 0
-29 -84 90 0
-29 -82 90 0
-29 -90 84 82 0
-30 -84 90 0
-30 -83 90 0
-30 -90 84 83 0
-47 -90 84 0
-47 90 -84 0
-31 -91 85 0
-31 -91 86 0
-31 91 -85 -86 0
-32 -91 85 0
-32 -91 87 0
-32 91 -85 -87 0
-33 -91 85 0
-33 -91 88 0
-33 91 -85 -88 0
-34 -91 85 0
-34 -91 89 0
-34 91 -85 -89 0
-35 -91 85 0
-35 -91 90 0
-35 91 -85 -90 0
-36 -91 85 0
-36 91 -85 0
-37 -91 85 0
-37 91 -85 0
-38 -91 85 0
-38 91 -85 0
-39 -91 85 0
-39 91 -85 0
-40 -91 85 0
-40 91 -85 0
-41 -91 85 0
-41 91 -85 0
-42 -91 85 0
-42 91 -85 0
-43 -91 85 0
-43 91 -85 0
-44 -91 85 0
-44 91 -85 0
-45 -91 85 0
-45 91 -85 0
-48 -91 85 0
-48 91 -85 0
-31 -86 92 0
-31 -85 92 0
-31 -92 86 85 0
-32 -92 86 0
-32 92 -86 0
-33 -92 86 0
-33 92 -86 0
-34 -92 86 0
-34 92 -86 0
-35 -92 86 0
-35 92 -86 0
-36 -92 86 0
-36 -92 87 0
-36 92 -86 -87 0
-37 -92 86 0
-37 -92 88 0
-37 92 -86 -88 0
-38 -92 86 0
-38 -92 89 0
-38 92 -86 -89 0
-39 -92 86 0
-39 -92 90 0
-39 92 -86 -90 0
-40 -92 86 0
-40 92 -86 0
-41 -92 86 0
-41 92 -86 0
-42 -92 86 0
-42 92 -86 0
-43 -92 86 0
-43 92 -86 0
-44 -92 86 0
-44 92 -86 0
-45 -92 86 0
-45 92 -86 0
-48 -92 86 0
-48 92 -86 0
-31 -93 87 0
-31 93 -87 0
-32 -87 93 0
-32 -85 93 0
-32 -93 87 85 0
-33 -93 87 0
-33 93 -87 0
-34 -93 87 0
-34 93 -87 0
-35 -93 87 0
-35 93 -87 0
-36 -87 93 0
-36 -86 93 0
-36 -93 87 86 0
-37 -93 87 0
-37 93 -87 0
-38 -93 87 0
-38 93 -87 0
-39 -93 87 0
-39 93 -87 0
-40 -93 87 0
-40 -93 88 0
-40 93 -87 -88 0
-41 -93 87 0
-41 -93 89 0
-41 93 -87 -89 0
-42 -93 87 0
-42 -93 90 0
-42 93 -87 -90 0
-43 -93 87 0
-43 93 -87 0
-44 -93 87 0
-44 93 -87 0
-45 -93 87 0
-45 93 -87 0
-48 -93 87 0
-48 93 -87 0
-31 -94 88 0
-31 94 -88 0
-32 -94 88 0
-32 94 -88 0
-33 -88 94 0
-33 -85 94 0
-33 -94 88 85 0
-34 -94 88 0
-34 94 -88 0
-35 -94 88 0
-35 94 -88 0
-36 -94 88 0
-36 94 -88 0
-37 -88 94 0
-37 -86 94 0
-37 -94 88 86 0
-38 -94 88 0
-38 94 -88 0
-39 -94 88 0
-39 94 -88 0
-40 -88 94 0
-40 -87 94 0
-40 -94 88 87 0
-41 -94 88 0
-41 94 -88 0
-42 -94 88 0
-42 94 -88 0
-43 -94 88 0
-43 -94 89 0
-43 94 -88 -89 0
-44 -94 88 0
-44 -94 90 0
-44 94 -88 -90 0
-45 -94 88 0
-45 94 -88 0
-48 -94 88 0
-48 94 -88 0
-31 -95 89 0
-31 95 -89 0
-32 -95 89 0
-32 95 -89 0
-33 -95 89 0
-33 95 -89 0
-34 -89 95 0
-34 -85 95 0
-34 -95 89 85 0
-35 -95 89 0
-35 95 -89 0
-36 -95 89 0
-36 95 -89 0
-37 -95 89 0
-37 95 -89 0
-38 -89 95 0
-38 -86 95 0
-38 -95 89 86 0
-39 -95 89 0
-39 95 -89 0
-40 -95 89 0
-40 95 -89 0
-41 -89 95 0
-41 -87 95 0
-41 -95 89 87 0
-42 -95 89 0
-42 95 -89 0
-43 -89 95 0
-43 -88 95 0
-43 -95 89 88 0
-44 -95 89 0
-44 95 -89 0
-45 -95 89 0
-45 -95 90 0
-45 95 -89 -90 0
-48 -95 89 0
-48 95 -89 0
-31 -96 90 0
-31 96 -90 0
-32 -96 90 0
-32 96 -90 0
-33 -96 90 0
-33 96 -90 0
-34 -96 90 0
-34 96 -90 0
-35 -90 96 0
-35 -85 96 0
-35 -96 90 85 0
-36 -96 90 0
-36 96 -90 0
-37 -96 90 0
-37 96 -90 0
-38 -96 90 0
-38 96 -90 0
-39 -90 96 0
-39 -86 96 0
-39 -96 90 86 0
-40 -96 90 0
-40 96 -90 0
-41 -96 90 0
-41 96 -90 0
-42 -90 96 0
-42 -87 96 0
-42 -96 90 87 0
-43 -96 90 0
-43 96 -90 0
-44 -90 96 0
-44 -88 96 0
-44 -96 90 88 0
-45 -90 96 0
-45 -89 96 0
-45 -96 90 89 0
-48 -96 90 0
-48 96 -90 0
-97 0
-1 -103 97 0
-1 -103 98 0
-1 103 -97 -98 0
-2 -103 97 0
-2 -103 99 0
-2 103 -97 -99 0
-3 -103 97 0
-3 -103 100 0
-3 103 -97 -100 0
-4 -103 97 0
-4 -103 101 0
-4 103 -97 -101 0
-5 -103 97 0
-5 -103 102 0
-5 103 -97 -102 0
-6 -103 97 0
-6 103 -97 0
-7 -103 97 0
-7 103 -97 0
-8 -103 97 0
-8 103 -97 0
-9 -103 97 0
-9 103 -97 0
-10 -103 97 0
-10 103 -97 0
-11 -103 97 0
-11 103 -97 0
-12 -103 97 0
-12 103 -97 0
-13 -103 97 0
-13 103 -97 0
-14 -103 97 0
-14 103 -97 0
-15 -103 97 0
-15 103 -97 0
-46 -103 97 0
-46 103 -97 0
-98 0
-1 -98 104 0
-1 -97 104 0
-1 -104 98 97 0
-2 -104 98 0
-2 104 -98 0
-3 -104 98 0
-3 104 -98 0
-4 -104 98 0
-4 104 -98 0
-5 -104 98 0
-5 104 -98 0
-6 -104 98 0
-6 -104 99 0
-6 104 -98 -99 0
-7 -104 98 0
-7 -104 100 0
-7 104 -98 -100 0
-8 -104 98 0
-8 -104 101 0
-8 104 -98 -101 0
-9 -104 98 0
-9 -104 102 0
-9 104 -98 -102 0
-10 -104 98 0
-10 104 -98 0
-11 -104 98 0
-11 104 -98 0
-12 -104 98 0
-12 104 -98 0
-13 -104 98 0
-13 104 -98 0
-14 -104 98 0
-14 104 -98 0
-15 -104 98 0
-15 104 -98 0
-46 -104 98 0
-46 104 -98 0
-99 0
-1 -105 99 0
-1 105 -99 0
-2 -99 105 0
-2 -97 105 0
-2 -105 99 97 0
-3 -105 99 0
-3 105 -99 0
-4 -105 99 0
-4 105 -99 0
-5 -105 99 0
-5 105 -99 0
-6 -99 105 0
-6 -98 105 0
-6 -105 99 98 0
-7 -105 99 0
-7 105 -99 0
-8 -105 99 0
-8 105 -99 0
-9 -105 99 0
-9 105 -99 0
-10 -105 99 0
-10 -105 100 0
-10 105 -99 -100 0
-11 -105 99 0
-11 -105 101 0
-11 105 -99 -101 0
-12 -105 99 0
-12 -105 102 0
-12 105 -99 -102 0
-13 -105 99 0
-13 105 -99 0
-14 -105 99 0
-14 105 -99 0
-15 -105 99 0
-15 105 -99 0
-46 -105 99 0
-46 105 -99 0
-100 0
-1 -106 100 0
-1 106 -100 0
-2 -106 100 0
-2 106 -100 0
-3 -100 106 0
-3 -97 106 0
-3 -106 100 97 0
-4 -106 100 0
-4 106 -100 0
-5 -106 100 0
-5 106 -100 0
-6 -106 100 0
-6 106 -100 0
-7 -100 106 0
-7 -98 106 0
-7 -106 100 98 0
-8 -106 100 0
-8 106 -100 0
-9 -106 100 0
-9 106 -100 0
-10 -100 106 0
-10 -99 106 0
-10 -106 100 99 0
-11 -106 100 0
-11 106 -100 0
-12 -106 100 0
-12 106 -100 0
-13 -106 100 0
-13 -106 101 0
-13 106 -100 -101 0
-14 -106 100 0
-14 -106 102 0
-14 106 -100 -102 0
-15 -106 100 0
-15 106 -100 0
-46 -106 100 0
-46 106 -100 0
101 0
-1 -107 101 0
-1 107 -101 0
-2 -107 101 0
-2 107 -101 0
-3 -107 101 0
-3 107 -101 0
-4 -101 107 0
-4 -97 107 0
-4 -107 101 97 0
-5 -107 101 0
-5 107 -101 0
-6 -107 101 0
-6 107 -101 0
-7 -107 101 0
-7 107 -101 0
-8 -101 107 0
-8 -98 107 0
-8 -107 101 98 0
-9 -107 101 0
-9 107 -101 0
-10 -107 101 0
-10 107 -101 0
-11 -101 107 0
-11 -99 107 0
-11 -107 101 99 0
-12 -107 101 0
-12 107 -101 0
-13 -101 107 0
-13 -100 107 0
-13 -107 101 100 0
-14 -107 101 0
-14 107 -101 0
-15 -107 101 0
-15 -107 102 0
-15 107 -101 -102 0
-46 -107 101 0
-46 107 -101 0
102 0
-1 -108 102 0
-1 108 -102 0
-2 -108 102 0
-2 108 -102 0
-3 -108 102 0
-3 108 -102 0
-4 -108 102 0
-4 108 -102 0
-5 -102 108 0
-5 -97 108 0
-5 -108 102 97 0
-6 -108 102 0
-6 108 -102 0
-7 -108 102 0
-7 108 -102 0
-8 -108 102 0
-8 108 -102 0
-9 -102 108 0
-9 -98 108 0
-9 -108 102 98 0
-10 -108 102 0
-10 108 -102 0
-11 -108 102 0
-11 108 -102 0
-12 -102 108 0
-12 -99 108 0
-12 -108 102 99 0
-13 -108 102 0
-13 108 -102 0
-14 -102 108 0
-14 -100 108 0
-14 -108 102 100 0
-15 -102 108 0
-15 -101 108 0
-15 -108 102 101 0
-46 -108 102 0
-46 108 -102 0
-16 -109 103 0
-16 -109 104 0
-16 109 -103 -104 0
-17 -109 103 0
-17 -109 105 0
-17 109 -103 -105 0
-18 -109 103 0
-18 -109 106 0
-18 109 -103 -106 0
-19 -109 103 0
-19 -109 107 0
-19 109 -103 -107 0
-20 -109 103 0
-20 -109 108 0
-20 109 -103 -108 0
-21 -109 103 0
-21 109 -103 0
-22 -109 103 0
-22 109 -103 0
-23 -109 103 0
-23 109 -103 0
-24 -109 103 0
-24 109 -103 0
-25 -109 103 0
-25 109 -103 0
-26 -109 103 0
-26 109 -103 0
-27 -109 103 0
-27 109 -103 0
-28 -109 103 0
-28 109 -103 0
-29 -109 103 0
-29 109 -103 0
-30 -109 103 0
-30 109 -103 0
-47 -109 103 0
-47 109 -103 0
-16 -104 110 0
-16 -103 110 0
-16 -110 104 103 0
-17 -110 104 0
-17 110 -104 0
-18 -110 104 0
-18 110 -104 0
-19 -110 104 0
-19 110 -104 0
-20 -110 104 0
-20 110 -104 0
-21 -110 104 0
-21 -110 105 0
-21 110 -104 -105 0
-22 -110 104 0
-22 -110 106 0
-22 110 -104 -106 0
-23 -110 104 0
-23 -110 107 0
-23 110 -104 -107 0
-24 -110 104 0
-24 -110 108 0
-24 110 -104 -108 0
-25 -110 104 0
-25 110 -104 0
-26 -110 104 0
-26 110 -104 0
-27 -110 104 0
-27 110 -104 0
-28 -110 104 0
-28 110 -104 0
-29 -110 104 0
-29 110 -104 0
-30 -110 104 0
-30 110 -104 0
-47 -110 104 0
-47 110 -104 0
-16 -111 105 0
-16 111 -105 0
-17 -105 111 0
-17 -103 111 0
-17 -111 105 103 0
-18 -111 105 0
-18 111 -105 0
-19 -111 105 0
-19 111 -105 0
-20 -111 105 0
-20 111 -105 0
-21 -105 111 0
-21 -104 111 0
-21 -111 105 104 0
-22 -111 105 0
-22 111 -105 0
-23 -111 105 0
-23 111 -105 0
-24 -111 105 0
-24 111 -105 0
-25 -111 105 0
-25 -111 106 0
-25 111 -105 -106 0
-26 -111 105 0
-26 -111 107 0
-26 111 -105 -107 0
-27 -111 105 0
-27 -111 108 0
-27 111 -105 -108 0
-28 -111 105 0
-28 111 -105 0
-29 -111 105 0
-29 111 -105 0
-30 -111 105 0
-30 111 -105 0
-47 -111 105 0
-47 111 -105 0
-16 -112 106 0
-16 112 -106 0
-17 -112 106 0
-17 112 -106 0
-18 -106 112 0
-18 -103 112 0
-18 -112 106 103 0
-19 -112 106 0
-19 112 -106 0
-20 -112 106 0
-20 112 -106 0
-21 -112 106 0
-21 112 -106 0
-22 -106 112 0
-22 -104 112 0
-22 -112 106 104 0
-23 -112 106 0
-23 112 -106 0
-24 -112 106 0
-24 112 -106 0
-25 -106 112 0
-25 -105 112 0
-25 -112 106 105 0
-26 -112 106 0
-26 112 -106 0
-27 -112 106 0
-27 112 -106 0
-28 -112 106 0
-28 -112 107 0
-28 112 -106 -107 0
-29 -112 106 0
-29 -112 108 0
-29 112 -106 -108 0
-30 -112 106 0
-30 112 -106 0
-47 -112 106 0
-47 112 -106 0
-16 -113 107 0
-16 113 -107 0
-17 -113 107 0
-17 113 -107 0
-18 -113 107 0
-18 113 -107 0
-19 -107 113 0
-19 -103 113 0
-19 -113 107 103 0
-20 -113 107 0
-20 113 -107 0
-21 -113 107 0
-21 113 -107 0
-22 -113 107 0
-22 113 -107 0
-23 -107 113 0
-23 -104 113 0
-23 -113 107 104 0
-24 -113 107 0
-24 113 -107 0
-25 -113 107 0
-25 113 -107 0
-26 -107 113 0
-26 -105 113 0
-26 -113 107 105 0
-27 -113 107 0
-27 113 -107 0
-28 -107 113 0
-28 -106 113 0
-28 -113 107 106 0
-29 -113 107 0
-29 113 -107 0
-30 -113 107 0
-30 -113 108 0
-30 113 -107 -108 0
-47 -113 107 0
-47 113 -107 0
-16 -114 108 0
-16 114 -108 0
-17 -114 108 0
-17 114 -108 0
-18 -114 108 0
-18 114 -108 0
-19 -114 108 0
-19 114 -108 0
-20 -108 114 0
-20 -103 114 0
-20 -114 108 103 0
-21 -114 108 0
-21 114 -108 0
-22 -114 108 0
-22 114 -108 0
-23 -114 108 0
-23 114 -108 0
-24 -108 114 0
-24 -104 114 0
-24 -114 108 104 0
-25 -114 108 0
-25 114 -108 0
-26 -114 108 0
-26 114 -108 0
-27 -108 114 0
-27 -105 114 0
-27 -114 108 105 0
-28 -114 108 0
-28 114 -108 0
-29 -108 114 0
-29 -106 114 0
-29 -114 108 106 0
-30 -108 114 0
-30 -107 114 0
-30 -114 108 107 0
-47 -114 108 0
-47 114 -108 0
-31 -115 109 0
-31 -115 110 0
-31 115 -109 -110 0
-32 -115 109 0
-32 -115 111 0
-32 115 -109 -111 0
-33 -115 109 0
-33 -115 112 0
-33 115 -109 -112 0
-34 -115 109 0
-34 -115 113 0
-34 115 -109 -113 0
-35 -115 109 0
-35 -115 114 0
-35 115 -109 -114 0
-36 -115 109 0
-36 115 -109 0
-37 -115 109 0
-37 115 -109 0
-38 -115 109 0
-38 115 -109 0
-39 -115 109 0
-39 115 -109 0
-40 -115 109 0
-40 115 -109 0
-41 -115 109 0
-41 115 -109 0
-42 -115 109 0
-42 115 -109 0
-43 -115 109 0
-43 115 -109 0
-44 -115 109 0
-44 115 -109 0
-45 -115 109 0
-45 115 -109 0
-48 -115 109 0
-48 115 -109 0
-31 -110 116 0
-31 -109 116 0
-31 -116 110 109 0
-32 -116 110 0
-32 116 -110 0
-33 -116 110 0
-33 116 -110 0
-34 -116 110 0
-34 116 -110 0
-35 -116 110 0
-35 116 -110 0
-36 -116 110 0
-36 -116 111 0
-36 116 -110 -111 0
-37 -116 110 0
-37 -116 112 0
-37 116 -110 -112 0
-38 -116 110 0
-38 -116 113 0
-38 116 -110 -113 0
-39 -116 110 0
-39 -116 114 0
-39 116 -110 -114 0
-40 -116 110 0
-40 116 -110 0
-41 -116 110 0
-41 116 -110 0
-42 -116 110 0
-42 116 -110 0
-43 -116 110 0
-43 116 -110 0
-44 -116 110 0
-44 116 -110 0
-45 -116 110 0
-45 116 -110 0
-48 -116 110 0
-48 116 -110 0
-31 -117 111 0
-31 117 -111 0
-32 -111 117 0
-32 -109 117 0
-32 -117 111 109 0
-33 -117 111 0
-33 117 -111 0
-34 -117 111 0
-34 117 -111 0
-35 -117 111 0
-35 117 -111 0
-36 -111 117 0
-36 -110 117 0
-36 -117 111 110 0
-37 -117 111 0
-37 117 -111 0
-38 -117 111 0
-38 117 -111 0
-39 -117 111 0
-39 117 -111 0
-40 -117 111 0
-40 -117 112 0
-40 117 -111 -112 0
-41 -117 111 0
-41 -117 113 0
-41 117 -111 -113 0
-42 -117 111 0
-42 -117 114 0
-42 117 -111 -114 0
-43 -117 111 0
-43 117 -111 0
-44 -117 111 0
-44 117 -111 0
-45 -117 111 0
-45 117 -111 0
-48 -117 111 0
-48 117 -111 0
-31 -118 112 0
-31 118 -112 0
-32 -118 112 0
-32 118 -112 0
-33 -112 118 0
-33 -109 118 0
-33 -118 112 109 0
-34 -118 112 0
-34 118 -112 0
-35 -118 112 0
-35 118 -112 0
-36 -118 112 0
-36 118 -112 0
-37 -112 118 0
-37 -110 118 0
-37 -118 112 110 0
-38 -118 112 0
-38 118 -112 0
-39 -118 112 0
-39 118 -112 0
-40 -112 118 0
-40 -111 118 0
-40 -118 112 111 0
-41 -118 112 0
-41 118 -112 0
-42 -118 112 0
-42 118 -112 0
-43 -118 112 0
-43 -118 113 0
-43 118 -112 -113 0
-44 -118 112 0
-44 -118 114 0
-44 118 -112 -114 0
-45 -118 112 0
-45 118 -112 0
-48 -118 112 0
-48 118 -112 0
-31 -119 113 0
-31 119 -113 0
-32 -119 113 0
-32 119 -113 0
-33 -119 113 0
-33 119 -113 0
-34 -113 119 0
-34 -109 119 0
-34 -119 113 109 0
-35 -119 113 0
-35 119 -113 0
-36 -119 113 0
-36 119 -113 0
-37 -119 113 0
-37 119 -113 0
-38 -113 119 0
-38 -110 119 0
-38 -119 113 110 0
-39 -119 113 0
-39 119 -113 0
-40 -119 113 0
-40 119 -113 0
-41 -113 119 0
-41 -111 119 0
-41 -119 113 111 0
-42 -119 113 0
-42 119 -113 0
-43 -113 119 0
-43 -112 119 0
-43 -119 113 112 0
-44 -119 113 0
-44 119 -113 0
-45 -119 113 0
-45 -119 114 0
-45 119 -113 -114 0
-48 -119 113 0
-48 119 -113 0
-31 -120 114 0
-31 120 -114 0
-32 -120 114 0
-32 120 -114 0
-33 -120 114 0
-33 120 -114 0
-34 -120 114 0
-34 120 -114 0
-35 -114 120 0
-35 -109 120 0
-35 -120 114 109 0
-36 -120 114 0
-36 120 -114 0
-37 -120 114 0
-37 120 -114 0
-38 -120 114 0
-38 120 -114 0
-39 -114 120 0
-39 -110 120 0
-39 -120 114 110 0
-40 -120 114 0
-40 120 -114 0
-41 -120 114 0
-41 120 -114 0
-42 -114 120 0
-42 -111 120 0
-42 -120 114 111 0
-43 -120 114 0
-43 120 -114 0
-44 -114 120 0
-44 -112 120 0
-44 -120 114 112 0
-45 -114 120 0
-45 -113 120 0
-45 -120 114 113 0
-48 -120 114 0
-48 120 -114 0
-121 0
-1 -127 121 0
-1 -127 122 0
-1 127 -121 -122 0
-2 -127 121 0
-2 -127 123 0
-2 127 -121 -123 0
-3 -127 121 0
-3 -127 124 0
-3 127 -121 -124 0
-4 -127 121 0
-4 -127 125 0
-4 127 -121 -125 0
-5 -127 121 0
-5 -127 126 0
-5 127 -121 -126 0
-6 -127 121 0
-6 127 -121 0
-7 -127 121 0
-7 127 -121 0
-8 -127 121 0
-8 127 -121 0
-9 -127 121 0
-9 127 -121 0
-10 -127 121 0
-10 127 -121 0
-11 -127 121 0
-11 127 -121 0
-12 -127 121 0
-12 127 -121 0
-13 -127 121 0
-13 127 -121 0
-14 -127 121 0
-14 127 -121 0
-15 -127 121 0
-15 127 -121 0
-46 -127 121 0
-46 127 -121 0
-122 0
-1 -122 128 0
-1 -121 128 0
-1 -128 122 121 0
-2 -128 122 0
-2 128 -122 0
-3 -128 122 0
-3 128 -122 0
-4 -128 122 0
-4 128 -122 0
-5 -128 122 0
-5 128 -122 0
-6 -128 122 0
-6 -128 123 0
-6 128 -122 -123 0
-7 -128 122 0
-7 -128 124 0
-7 128 -122 -124 0
-8 -128 122 0
-8 -128 125 0
-8 128 -122 -125 0
-9 -128 122 0
-9 -128 126 0
-9 128 -122 -126 0
-10 -128 122 0
-10 128 -122 0
-11 -128 122 0
-11 128 -122 0
-12 -128 122 0
-12 128 -122 0
-13 -128 122 0
-13 128 -122 0
-14 -128 122 0
-14 128 -122 0
-15 -128 122 0
-15 128 -122 0
-46 -128 122 0
-46 128 -122 0
-123 0
-1 -129 123 0
-1 129 -123 0
-2 -123 129 0
-2 -121 129 0
-2 -129 123 121 0
-3 -129 123 0
-3 129 -123 0
-4 -129 123 0
-4 129 -123 0
-5 -129 123 0
-5 129 -123 0
-6 -123 129 0
-6 -122 129 0
-6 -129 123 122 0
-7 -129 123 0
-7 129 -123 0
-8 -129 123 0
-8 129 -123 0
-9 -129 123 0
-9 129 -123 0
-10 -129 123 0
-10 -129 124 0
-10 129 -123 -124 0
-11 -129 123 0
-11 -129 125 0
-11 129 -123 -125 0
-12 -129 123 0
-12 -129 126 0
-12 129 -123 -126 0
-13 -129 123 0
-13 129 -123 0
-14 -129 123 0
-14 129 -123 0
-15 -129 123 0
-15 129 -123 0
-46 -129 123 0
-46 129 -123 0
124 0
-1 -130 124 0
-1 130 -124 0
-2 -130 124 0
-2 130 -124 0
-3 -124 130 0
-3 -121 130 0
-3 -130 124 121 0
-4 -130 124 0
-4 130 -124 0
-5 -130 124 0
-5 130 -124 0
-6 -130 124 0
-6 130 -124 0
-7 -124 130 0
-7 -122 130 0
-7 -130 124 122 0
-8 -130 124 0
-8 130 -124 0
-9 -130 124 0
-9 130 -124 0
-10 -124 130 0
-10 -123 130 0
-10 -130 124 123 0
-11 -130 124 0
-11 130 -124 0
-12 -130 124 0
-12 130 -124 0
-13 -130 124 0
-13 -130 125 0
-13 130 -124 -125 0
-14 -130 124 0
-14 -130 126 0
-14 130 -124 -126 0
-15 -130 124 0
-15 130 -124 0
-46 -130 124 0
-46 130 -124 0
125 0
-1 -131 125 0
-1 131 -125 0
-2 -131 125 0
-2 131 -125 0
-3 -131 125 0
-3 131 -125 0
-4 -125 131 0
-4 -121 131 0
-4 -131 125 121 0
-5 -131 125 0
-5 131 -125 0
-6 -131 125 0
-6 131 -125 0
-7 -131 125 0
-7 131 -125 0
-8 -125 131 0
-8 -122 131 0
-8 -131 125 122 0
-9 -131 125 0
-9 131 -125 0
-10 -131 125 0
-10 131 -125 0
-11 -125 131 0
-11 -123 131 0
-11 -131 125 123 0
-12 -131 125 0
-12 131 -125 0
-13 -125 131 0
-13 -124 131 0
-13 -131 125 124 0
-14 -131 125 0
-14 131 -125 0
-15 -131 125 0
-15 -131 126 0
-15 131 -125 -126 0
-46 -131 125 0
-46 131 -125 0
126 0
-1 -132 126 0
-1 132 -126 0
-2 -132 126 0
-2 132 -126 0
-3 -132 126 0
-3 132 -126 0
-4 -132 126 0
-4 132 -126 0
-5 -126 132 0
-5 -121 132 0
-5 -132 126 121 0
-6 -132 126 0
-6 132 -126 0
-7 -132 126 0
-7 132 -126 0
-8 -132 126 0
-8 132 -126 0
-9 -126 132 0
-9 -122 132 0
-9 -132 126 122 0
-10 -132 126 0
-10 132 -126 0
-11 -132 126 0
-11 132 -126 0
-12 -126 132 0
-12 -123 132 0
-12 -132 126 123 0
-13 -132 126 0
-13 132 -126 0
-14 -126 132 0
-14 -124 132 0
-14 -132 126 124 0
-15 -126 132 0
-15 -125 132 0
-15 -132 126 125 0
-46 -132 126 0
-46 132 -126 0
-16 -133 127 0
-16 -133 128 0
-16 133 -127 -128 0
-17 -133 127 0
-17 -133 129 0
-17 133 -127 -129 0
-18 -133 127 0
-18 -133 130 0
-18 133 -127 -130 0
-19 -133 127 0
-19 -133 131 0
-19 133 -127 -131 0
-20 -133 127 0
-20 -133 132 0
-20 133 -127 -132 0
-21 -133 127 0
-21 133 -127 0
-22 -133 127 0
-22 133 -127 0
-23 -133 127 0
-23 133 -127 0
-24 -133 127 0
-24 133 -127 0
-25 -133 127 0
-25 133 -127 0
-26 -133 127 0
-26 133 -127 0
-27 -133 127 0
-27 133 -127 0
-28 -133 127 0
-28 133 -127 0
-29 -133 127 0
-29 133 -127 0
-30 -133 127 0
-30 133 -127 0
-47 -133 127 0
-47 133 -127 0
-16 -128 134 0
-16 -127 134 0
-16 -134 128 127 0
-17 -134 128 0
-17 134 -128 0
-18 -134 128 0
-18 134 -128 0
-19 -134 128 0
-19 134 -128 0
-20 -134 128 0
-20 134 -128 0
-21 -134 128 0
-21 -134 129 0
-21 134 -128 -129 0
-22 -134 128 0
-22 -134 130 0
-22 134 -128 -130 0
-23 -134 128 0
-23 -134 131 0
-23 134 -128 -131 0
-24 -134 128 0
-24 -134 132 0
-24 134 -128 -132 0
-25 -134 128 0
-25 134 -128 0
-26 -134 128 0
-26 134 -128 0
-27 -134 128 0
-27 134 -128 0
-28 -134 128 0
-28 134 -128 0
-29 -134 128 0
-29 134 -128 0
-30 -134 128 0
-30 134 -128 0
-47 -134 128 0
-47 134 -128 0
-16 -135 129 0
-16 135 -129 0
-17 -129 135 0
-17 -127 135 0
-17 -135 129 127 0
-18 -135 129 0
-18 135 -129 0
-19 -135 129 0
-19 135 -129 0
-20 -135 129 0
-20 135 -129 0
-21 -129 135 0
-21 -128 135 0
-21 -135 129 128 0
-22 -135 129 0
-22 135 -129 0
-23 -135 129 0
-23 135 -129 0
-24 -135 129 0
-24 135 -129 0
-25 -135 129 0
-25 -135 130 0
-25 135 -129 -130 0
-26 -135 129 0
-26 -135 131 0
-26 135 -129 -131 0
-27 -135 129 0
-27 -135 132 0
-27 135 -129 -132 0
-28 -135 129 0
-28 135 -129 0
-29 -135 129 0
-29 135 -129 0
-30 -135 129 0
-30 135 -129 0
-47 -135 129 0
-47 135 -129 0
-16 -136 130 0
-16 136 -130 0
-17 -136 130 0
-17 136 -130 0
-18 -130 136 0
-18 -127 136 0
-18 -136 130 127 0
-19 -136 130 0
-19 136 -130 0
-20 -136 130 0
-20 136 -130 0
-21 -136 130 0
-21 136 -130 0
-22 -130 136 0
-22 -128 136 0
-22 -136 130 128 0
-23 -136 130 0
-23 136 -130 0
-24 -136 130 0
-24 136 -130 0
-25 -130 136 0
-25 -129 136 0
-25 -136 130 129 0
-26 -136 130 0
-26 136 -130 0
-27 -136 130 0
-27 136 -130 0
-28 -136 130 0
-28 -136 131 0
-28 136 -130 -131 0
-29 -136 130 0
-29 -136 132 0
-29 136 -130 -132 0
-30 -136 130 0
-30 136 -130 0
-47 -136 130 0
-47 136 -130 0
-16 -137 131 0
-16 137 -131 0
-17 -137 131 0
-17 137 -131 0
-18 -137 131 0
-18 137 -131 0
-19 -131 137 0
-19 -127 137 0
-19 -137 131 127 0
-20 -137 131 0
-20 137 -131 0
-21 -137 131 0
-21 137 -131 0
-22 -137 131 0
-22 137 -131 0
-23 -131 137 0
-23 -128 137 0
-23 -137 131 128 0
-24 -137 131 0
-24 137 -131 0
-25 -137 131 0
-25 137 -131 0
-26 -131 137 0
-26 -129 137 0
-26 -137 131 129 0
-27 -137 131 0
-27 137 -131 0
-28 -131 137 0
-28 -130 137 0
-28 -137 131 130 0
-29 -137 131 0
-29 137 -131 0
-30 -137 131 0
-30 -137 132 0
-30 137 -131 -132 0
-47 -137 131 0
-47 137 -131 0
-16 -138 132 0
-16 138 -132 0
-17 -138 132 0
-17 138 -132 0
-18 -138 132 0
-18 138 -132 0
-19 -138 132 0
-19 138 -132 0
-20 -132 138 0
-20 -127 138 0
-20 -138 132 127 0
-21 -138 132 0
-21 138 -132 0
-22 -138 132 0
-22 138 -132 0
-23 -138 132 0
-23 138 -132 0
-24 -132 138 0
-24 -128 138 0
-24 -138 132 128 0
-25 -138 132 0
-25 138 -132 0
-26 -138 132 0
-26 138 -132 0
-27 -132 138 0
-27 -129 138 0
-27 -138 132 129 0
-28 -138 132 0
-28 138 -132 0
-29 -132 138 0
-29 -130 138 0
-29 -138 132 130 0
-30 -132 138 0
-30 -131 138 0
-30 -138 132 131 0
-47 -138 132 0
-47 138 -132 0
-31 -139 133 0
-31 -139 134 0
-31 139 -133 -134 0
-32 -139 133 0
-32 -139 135 0
-32 139 -133 -135 0
-33 -139 133 0
-33 -139 136 0
-33 139 -133 -136 0
-34 -139 133 0
-34 -139 137 0
-34 139 -133 -137 0
-35 -139 133 0
-35 -139 138 0
-35 139 -133 -138 0
-36 -139 133 0
-36 139 -133 0
-37 -139 133 0
-37 139 -133 0
-38 -139 133 0
-38 139 -133 0
-39 -139 133 0
-39 139 -133 0
-40 -139 133 0
-40 139 -133 0
-41 -139 133 0
-41 139 -133 0
-42 -139 133 0
-42 139 -133 0
-43 -139 133 0
-43 139 -133 0
-44 -139 133 0
-44 139 -133 0
-45 -139 133 0
-45 139 -133 0
-48 -139 133 0
-48 139 -133 0
-31 -134 140 0
-31 -133 140 0
-31 -140 134 133 0
-32 -140 134 0
-32 140 -134 0
-33 -140 134 0
-33 140 -134 0
-34 -140 134 0
-34 140 -134 0
-35 -140 134 0
-35 140 -134 0
-36 -140 134 0
-36 -140 135 0
-36 140 -134 -135 0
-37 -140 134 0
-37 -140 136 0
-37 140 -134 -136 0
-38 -140 134 0
-38 -140 137 0
-38 140 -134 -137 0
-39 -140 134 0
-39 -140 138 0
-39 140 -134 -138 0
-40 -140 134 0
-40 140 -134 0
-41 -140 134 0
-41 140 -134 0
-42 -140 134 0
-42 140 -134 0
-43 -140 134 0
-43 140 -134 0
-44 -140 134 0
-44 140 -134 0
-45 -140 134 0
-45 140 -134 0
-48 -140 134 0
-48 140 -134 0
-31 -141 135 0
-31 141 -135 0
-32 -135 141 0
-32 -133 141 0
-32 -141 135 133 0
-33 -141 135 0
-33 141 -135 0
-34 -141 135 0
-34 141 -135 0
-35 -141 135 0
-35 141 -135 0
-36 -135 141 0
-36 -134 141 0
-36 -141 135 134 0
-37 -141 135 0
-37 141 -135 0
-38 -141 135 0
-38 141 -135 0
-39 -141 135 0
-39 141 -135 0
-40 -141 135 0
-40 -141 136 0
-40 141 -135 -136 0
-41 -141 135 0
-41 -141 137 0
-41 141 -135 -137 0
-42 -141 135 0
-42 -141 138 0
-42 141 -135 -138 0
-43 -141 135 0
-43 141 -135 0
-44 -141 135 0
-44 141 -135 0
-45 -141 135 0
-45 141 -135 0
-48 -141 135 0
-48 141 -135 0
-31 -142 136 0
-31 142 -136 0
-32 -142 136 0
-32 142 -136 0
-33 -136 142 0
-33 -133 142 0
-33 -142 136 133 0
-34 -142 136 0
-34 142 -136 0
-35 -142 136 0
-35 142 -136 0
-36 -142 136 0
-36 142 -136 0
-37 -136 142 0
-37 -134 142 0
-37 -142 136 134 0
-38 -142 136 0
-38 142 -136 0
-39 -142 136 0
-39 142 -136 0
-40 -136 142 0
-40 -135 142 0
-40 -142 136 135 0
-41 -142 136 0
-41 142 -136 0
-42 -142 136 0
-42 142 -136 0
-43 -142 136 0
-43 -142 137 0
-43 142 -136 -137 0
-44 -142 136 0
-44 -142 138 0
-44 142 -136 -138 0
-45 -142 136 0
-45 142 -136 0
-48 -142 136 0
-48 142 -136 0
-31 -143 137 0
-31 143 -137 0
-32 -143 137 0
-32 143 -137 0
-33 -143 137 0
-33 143 -137 0
-34 -137 143 0
-34 -133 143 0
-34 -143 137 133 0
-35 -143 137 0
-35 143 -137 0
-36 -143 137 0
-36 143 -137 0
-37 -143 137 0
-37 143 -137 0
-38 -137 143 0
-38 -134 143 0
-38 -143 137 134 0
-39 -143 137 0
-39 143 -137 0
-40 -143 137 0
-40 143 -137 0
-41 -137 143 0
-41 -135 143 0
-41 -143 137 135 0
-42 -143 137 0
-42 143 -137 0
-43 -137 143 0
-43 -136 143 0
-43 -143 137 136 0
-44 -143 137 0
-44 143 -137 0
-45 -143 137 0
-45 -143 138 0
-45 143 -137 -138 0
-48 -143 137 0
-48 143 -137 0
-31 -144 138 0
-31 144 -138 0
-32 -144 138 0
-32 144 -138 0
-33 -144 138 0
-33 144 -138 0
-34 -144 138 0
-34 144 -138 0
-35 -138 144 0
-35 -133 144 0
-35 -144 138 133 0
-36 -144 138 0
-36 144 -138 0
-37 -144 138 0
-37 144 -138 0
-38 -144 138 0
-38 144 -138 0
-39 -138 144 0
-39 -134 144 0
-39 -144 138 134 0
-40 -144 138 0
-40 144 -138 0
-41 -144 138 0
-41 144 -138 0
-42 -138 144 0
-42 -135 144 0
-42 -144 138 135 0
-43 -144 138 0
-43 144 -138 0
-44 -138 144 0
-44 -136 144 0
-44 -144 138 136 0
-45 -138 144 0
-45 -137 144 0
-45 -144 138 137 0
-48 -144 138 0
-48 144 -138 0
-145 0
-1 -151 145 0
-1 -151 146 0
-1 151 -145 -146 0
-2 -151 145 0
-2 -151 147 0
-2 151 -145 -147 0
-3 -151 145 0
-3 -151 148 0
-3 151 -145 -148 0
-4 -151 145 0
-4 -151 149 0
-4 151 -145 -149 0
-5 -151 145 0
-5 -151 150 0
-5 151 -145 -150 0
-6 -151 145 0
-6 151 -145 0
-7 -151 145 0
-7 151 -145 0
-8 -151 145 0
-8 151 -145 0
-9 -151 145 0
-9 151 -145 0
-10 -151 145 0
-10 151 -145 0
-11 -151 145 0
-11 151 -145 0
-12 -151 145 0
-12 151 -145 0
-13 -151 145 0
-13 151 -145 0
-14 -151 145 0
-14 151 -145 0
-15 -151 145 0
-15 151 -145 0
-46 -151 145 0
-46 151 -145 0
-146 0
-1 -146 152 0
-1 -145 152 0
-1 -152 146 145 0
-2 -152 146 0
-2 152 -146 0
-3 -152 146 0
-3 152 -146 0
-4 -152 146 0
-4 152 -146 0
-5 -152 146 0
-5 152 -146 0
-6 -152 146 0
-6 -152 147 0
-6 152 -146 -147 0
-7 -152 146 0
-7 -152 148 0
-7 152 -146 -148 0
-8 -152 146 0
-8 -152 149 0
-8 152 -146 -149 0
-9 -152 146 0
-9 -152 150 0
-9 152 -146 -150 0
-10 -152 146 0
-10 152 -146 0
-11 -152 146 0
-11 152 -146 0
-12 -152 146 0
-12 152 -146 0
-13 -152 146 0
-13 152 -146 0
-14 -152 146 0
-14 152 -146 0
-15 -152 146 0
-15 152 -146 0
-46 -152 146 0
-46 152 -146 0
147 0
-1 -153 147 0
-1 153 -147 0
-2 -147 153 0
-2 -145 153 0
-2 -153 147 145 0
-3 -153 147 0
-3 153 -147 0
-4 -153 147 0
-4 153 -147 0
-5 -153 147 0
-5 153 -147 0
-6 -147 153 0
-6 -146 153 0
-6 -153 147 146 0
-7 -153 147 0
-7 153 -147 0
-8 -153 147 0
-8 153 -147 0
-9 -153 147 0
-9 153 -147 0
-10 -153 147 0
-10 -153 148 0
-10 153 -147 -148 0
-11 -153 147 0
-11 -153 149 0
-11 153 -147 -149 0
-12 -153 147 0
-12 -153 150 0
-12 153 -147 -150 0
-13 -153 147 0
-13 153 -147 0
-14 -153 147 0
-14 153 -147 0
-15 -153 147 0
-15 153 -147 0
-46 -153 147 0
-46 153 -147 0
-148 0
-1 -154 148 0
-1 154 -148 0
-2 -154 148 0
-2 154 -148 0
-3 -148 154 0
-3 -145 154 0
-3 -154 148 145 0
-4 -154 148 0
-4 154 -148 0
-5 -154 148 0
-5 154 -148 0
-6 -154 148 0
-6 154 -148 0
-7 -148 154 0
-7 -146 154 0
-7 -154 148 146 0
-8 -154 148 0
-8 154 -148 0
-9 -154 148 0
-9 154 -148 0
-10 -148 154 0
-10 -147 154 0
-10 -154 148 147 0
-11 -154 148 0
-11 154 -148 0
-12 -154 148 0
-12 154 -148 0
-13 -154 148 0
-13 -154 149 0
-13 154 -148 -149 0
-14 -154 148 0
-14 -154 150 0
-14 154 -148 -150 0
-15 -154 148 0
-15 154 -148 0
-46 -154 148 0
-46 154 -148 0
-149 0
-1 -155 149 0
-1 155 -149 0
-2 -155 149 0
-2 155 -149 0
-3 -155 149 0
-3 155 -149 0
-4 -149 155 0
-4 -145 155 0
-4 -155 149 145 0
-5 -155 149 0
-5 155 -149 0
-6 -155 149 0
-6 155 -149 0
-7 -155 149 0
-7 155 -149 0
-8 -149 155 0
-8 -146 155 0
-8 -155 149 146 0
-9 -155 149 0
-9 155 -149 0
-10 -155 149 0
-10 155 -149 0
-11 -149 155 0
-11 -147 155 0
-11 -155 149 147 0
-12 -155 149 0
-12 155 -149 0
-13 -149 155 0
-13 -148 155 0
-13 -155 149 148 0
-14 -155 149 0
-14 155 -149 0
-15 -155 149 0
-15 -155 150 0
-15 155 -149 -150 0
-46 -155 149 0
-46 155 -149 0
-150 0
-1 -156 150 0
-1 156 -150 0
-2 -156 150 0
-2 156 -150 0
-3 -156 150 0
-3 156 -150 0
-4 -156 150 0
-4 156 -150 0
-5 -150 156 0
-5 -145 156 0
-5 -156 150 145 0
-6 -156 150 0
-6 156 -150 0
-7 -156 150 0
-7 156 -150 0
-8 -156 150 0
-8 156 -150 0
-9 -150 156 0
-9 -146 156 0
-9 -156 150 146 0
-10 -156 150 0
-10 156 -150 0
-11 -156 150 0
-11 156 -150 0
-12 -150 156 0
-12 -147 156 0
-12 -156 150 147 0
-13 -156 150 0
-13 156 -150 0
-14 -150 156 0
-14 -148 156 0
-14 -156 150 148 0
-15 -150 156 0
-15 -149 156 0
-15 -156 150 149 0
-46 -156 150 0
-46 156 -150 0
-16 -157 151 0
-16 -157 152 0
-16 157 -151 -152 0
-17 -157 151 0
-17 -157 153 0
-17 157 -151 -153 0
-18 -157 151 0
-18 -157 154 0
-18 157 -151 -154 0
-19 -157 151 0
-19 -157 155 0
-19 157 -151 -155 0
-20 -157 151 0
-20 -157 156 0
-20 157 -151 -156 0
-21 -157 151 0
-21 157 -151 0
-22 -157 151 0
-22 157 -151 0
-23 -157 151 0
-23 157 -151 0
-24 -157 151 0
-24 157 -151 0
-25 -157 151 0
-25 157 -151 0
-26 -157 151 0
-26 157 -151 0
-27 -157 151 0
-27 157 -151 0
-28 -157 151 0
-28 157 -151 0
-29 -157 151 0
-29 157 -151 0
-30 -157 151 0
-30 157 -151 0
-47 -157 151 0
-47 157 -151 0
-16 -152 158 0
-16 -151 158 0
-16 -158 152 151 0
-17 -158 152 0
-17 158 -152 0
-18 -158 152 0
-18 158 -152 0
-19 -158 152 0
-19 158 -152 0
-20 -158 152 0
-20 158 -152 0
-21 -158 152 0
-21 -158 153 0
-21 158 -152 -153 0
-22 -158 152 0
-22 -158 154 0
-22 158 -152 -154 0
-23 -158 152 0
-23 -158 155 0
-23 158 -152 -155 0
-24 -158 152 0
-24 -158 156 0
-24 158 -152 -156 0
-25 -158 152 0
-25 158 -152 0
-26 -158 152 0
-26 158 -152 0
-27 -158 152 0
-27 158 -152 0
-28 -158 152 0
-28 158 -152 0
-29 -158 152 0
-29 158 -152 0
-30 -158 152 0
-30 158 -152 0
-47 -158 152 0
-47 158 -152 0
-16 -159 153 0
-16 159 -153 0
-17 -153 159 0
-17 -151 159 0
-17 -159 153 151 0
-18 -159 153 0
-18 159 -153 0
-19 -159 153 0
-19 159 -153 0
-20 -159 153 0
-20 159 -153 0
-21 -153 159 0
-21 -152 159 0
-21 -159 153 152 0
-22 -159 153 0
-22 159 -153 0
-23 -159 153 0
-23 159 -153 0
-24 -159 153 0
-24 159 -153 0
-25 -159 153 0
-25 -159 154 0
-25 159 -153 -154 0
-26 -159 153 0
-26 -159 155 0
-26 159 -153 -155 0
-27 -159 153 0
-27 -159 156 0
-27 159 -153 -156 0
-28 -159 153 0
-28 159 -153 0
-29 -159 153 0
-29 159 -153 0
-30 -159 153 0
-30 159 -153 0
-47 -159 153 0
-47 159 -153 0
-16 -160 154 0
-16 160 -154 0
-17 -160 154 0
-17 160 -154 0
-18 -154 160 0
-18 -151 160 0
-18 -160 154 151 0
-19 -160 154 0
-19 160 -154 0
-20 -160 154 0
-20 160 -154 0
-21 -160 154 0
-21 160 -154 0
-22 -154 160 0
-22 -152 160 0
-22 -160 154 152 0
-23 -160 154 0
-23 160 -154 0
-24 -160 154 0
-24 160 -154 0
-25 -154 160 0
-25 -153 160 0
-25 -160 154 153 0
-26 -160 154 0
-26 160 -154 0
-27 -160 154 0
-27 160 -154 0
-28 -160 154 0
-28 -160 155 0
-28 160 -154 -155 0
-29 -160 154 0
-29 -160 156 0
-29 160 -154 -156 0
-30 -160 154 0
-30 160 -154 0
-47 -160 154 0
-47 160 -154 0
-16 -161 155 0
-16 161 -155 0
-17 -161 155 0
-17 161 -155 0
-18 -161 155 0
-18 161 -155 0
-19 -155 161 0
-19 -151 161 0
-19 -161 155 151 0
-20 -161 155 0
-20 161 -155 0
-21 -161 155 0
-21 161 -155 0
-22 -161 155 0
-22 161 -155 0
-23 -155 161 0
-23 -152 161 0
-23 -161 155 152 0
-24 -161 155 0
-24 161 -155 0
-25 -161 155 0
-25 161 -155 0
-26 -155 161 0
-26 -153 161 0
-26 -161 155 153 0
-27 -161 155 0
-27 161 -155 0
-28 -155 161 0
-28 -154 161 0
-28 -161 155 154 0
-29 -161 155 0
-29 161 -155 0
-30 -161 155 0
-30 -161 156 0
-30 161 -155 -156 0
-47 -161 155 0
-47 161 -155 0
-16 -162 156 0
-16 162 -156 0
-17 -162 156 0
-17 162 -156 0
-18 -162 156 0
-18 162 -156 0
-19 -162 156 0
-19 162 -156 0
-20 -156 162 0
-20 -151 162 0
-20 -162 156 151 0
-21 -162 156 0
-21 162 -156 0
-22 -162 156 0
-22 162 -156 0
-23 -162 156 0
-23 162 -156 0
-24 -156 162 0
-24 -152 162 0
-24 -162 156 152 0
-25 -162 156 0
-25 162 -156 0
-26 -162 156 0
-26 162 -156 0
-27 -156 162 0
-27 -153 162 0
-27 -162 156 153 0
-28 -162 156 0
-28 162 -156 0
-29 -156 162 0
-29 -154 162 0
-29 -162 156 154 0
-30 -156 162 0
-30 -155 162 0
-30 -162 156 155 0
-47 -162 156 0
-47 162 -156 0
-31 -163 157 0
-31 -163 158 0
-31 163 -157 -158 0
-32 -163 157 0
-32 -163 159 0
-32 163 -157 -159 0
-33 -163 157 0
-33 -163 160 0
-33 163 -157 -160 0
-34 -163 157 0
-34 -163 161 0
-34 163 -157 -161 0
-35 -163 157 0
-35 -163 162 0
-35 163 -157 -162 0
-36 -163 157 0
-36 163 -157 0
-37 -163 157 0
-37 163 -157 0
-38 -163 157 0
-38 163 -157 0
-39 -163 157 0
-39 163 -157 0
-40 -163 157 0
-40 163 -157 0
-41 -163 157 0
-41 163 -157 0
-42 -163 157 0
-42 163 -157 0
-43 -163 157 0
-43 163 -157 0
-44 -163 157 0
-44 163 -157 0
-45 -163 157 0
-45 163 -157 0
-48 -163 157 0
-48 163 -157 0
-31 -158 164 0
-31 -157 164 0
-31 -164 158 157 0
-32 -164 158 0
-32 164 -158 0
-33 -164 158 0
-33 164 -158 0
-34 -164 158 0
-34 164 -158 0
-35 -164 158 0
-35 164 -158 0
-36 -164 158 0
-36 -164 159 0
-36 164 -158 -159 0
-37 -164 158 0
-37 -164 160 0
-37 164 -158 -160 0
-38 -164 158 0
-38 -164 161 0
-38 164 -158 -161 0
-39 -164 158 0
-39 -164 162 0
-39 164 -158 -162 0
-40 -164 158 0
-40 164 -158 0
-41 -164 158 0
-41 164 -158 0
-42 -164 158 0
-42 164 -158 0
-43 -164 158 0
-43 164 -158 0
-44 -164 158 0
-44 164 -158 0
-45 -164 158 0
-45 164 -158 0
-48 -164 158 0
-48 164 -158 0
-31 -165 159 0
-31 165 -159 0
-32 -159 165 0
-32 -157 165 0
-32 -165 159 157 0
-33 -165 159 0
-33 165 -159 0
-34 -165 159 0
-34 165 -159 0
-35 -165 159 0
-35 165 -159 0
-36 -159 165 0
-36 -158 165 0
-36 -165 159 158 0
-37 -165 159 0
-37 165 -159 0
-38 -165 159 0
-38 165 -159 0
-39 -165 159 0
-39 165 -159 0
-40 -165 159 0
-40 -165 160 0
-40 165 -159 -160 0
-41 -165 159 0
-41 -165 161 0
-41 165 -159 -161 0
-42 -165 159 0
-42 -165 162 0
-42 165 -159 -162 0
-43 -165 159 0
-43 165 -159 0
-44 -165 159 0
-44 165 -159 0
-45 -165 159 0
-45 165 -159 0
-48 -165 159 0
-48 165 -159 0
-31 -166 160 0
-31 166 -160 0
-32 -166 160 0
-32 166 -160 0
-33 -160 166 0
-33 -157 166 0
-33 -166 160 157 0
-34 -166 160 0
-34 166 -160 0
-35 -166 160 0
-35 166 -160 0
-36 -166 160 0
-36 166 -160 0
-37 -160 166 0
-37 -158 166 0
-37 -166 160 158 0
-38 -166 160 0
-38 166 -160 0
-39 -166 160 0
-39 166 -160 0
-40 -160 166 0
-40 -159 166 0
-40 -166 160 159 0
-41 -166 160 0
-41 166 -160 0
-42 -166 160 0
-42 166 -160 0
-43 -166 160 0
-43 -166 161 0
-43 166 -160 -161 0
-44 -166 160 0
-44 -166 162 0
-44 166 -160 -162 0
-45 -166 160 0
-45 166 -160 0
-48 -166 160 0
-48 166 -160 0
-31 -167 161 0
-31 167 -161 0
-32 -167 161 0
-32 167 -161 0
-33 -167 161 0
-33 167 -161 0
-34 -161 167 0
-34 -157 167 0
-34 -167 161 157 0
-35 -167 161 0
-35 167 -161 0
-36 -167 161 0
-36 167 -161 0
-37 -167 161 0
-37 167 -161 0
-38 -161 167 0
-38 -158 167 0
-38 -167 161 158 0
-39 -167 161 0
-39 167 -161 0
-40 -167 161 0
-40 167 -161 0
-41 -161 167 0
-41 -159 167 0
-41 -167 161 159 0
-42 -167 161 0
-42 167 -161 0
-43 -161 167 0
-43 -160 167 0
-43 -167 161 160 0
-44 -167 161 0
-44 167 -161 0
-45 -167 161 0
-45 -167 162 0
-45 167 -161 -162 0
-48 -167 161 0
-48 167 -161 0
-31 -168 162 0
-31 168 -162 0
-32 -168 162 0
-32 168 -162 0
-33 -168 162 0
-33 168 -162 0
-34 -168 162 0
-34 168 -162 0
-35 -162 168 0
-35 -157 168 0
-35 -168 162 157 0
-36 -168 162 0
-36 168 -162 0
-37 -168 162 0
-37 168 -162 0
-38 -168 162 0
-38 168 -162 0
-39 -162 168 0
-39 -158 168 0
-39 -168 162 158 0
-40 -168 162 0
-40 168 -162 0
-41 -168 162 0
-41 168 -162 0
-42 -162 168 0
-42 -159 168 0
-42 -168 162 159 0
-43 -168 162 0
-43 168 -162 0
-44 -162 168 0
-44 -160 168 0
-44 -168 162 160 0
-45 -162 168 0
-45 -161 168 0
-45 -168 162 161 0
-48 -168 162 0
-48 168 -162 0
-169 0
-1 -175 169 0
-1 -175 170 0
-1 175 -169 -170 0
-2 -175 169 0
-2 -175 171 0
-2 175 -169 -171 0
-3 -175 169 0
-3 -175 172 0
-3 175 -169 -172 0
-4 -175 169 0
-4 -175 173 0
-4 175 -169 -173 0
-5 -175 169 0
-5 -175 174 0
-5 175 -169 -174 0
-6 -175 169 0
-6 175 -169 0
-7 -175 169 0
-7 175 -169 0
-8 -175 169 0
-8 175 -169 0
-9 -175 169 0
-9 175 -169 0
-10 -175 169 0
-10 175 -169 0
-11 -175 169 0
-11 175 -169 0
-12 -175 169 0
-12 175 -169 0
-13 -175 169 0
-13 175 -169 0
-14 -175 169 0
-14 175 -169 0
-15 -175 169 0
-15 175 -169 0
-46 -175 169 0
-46 175 -169 0
-170 0
-1 -170 176 0
-1 -169 176 0
-1 -176 170 169 0
-2 -176 170 0
-2 176 -170 0
-3 -176 170 0
-3 176 -170 0
-4 -176 170 0
-4 176 -170 0
-5 -176 170 0
-5 176 -170 0
-6 -176 170 0
-6 -176 171 0
-6 176 -170 -171 0
-7 -176 170 0
-7 -176 172 0
-7 176 -170 -172 0
-8 -176 170 0
-8 -176 173 0
-8 176 -170 -173 0
-9 -176 170 0
-9 -176 174 0
-9 176 -170 -174 0
-10 -176 170 0
-10 176 -170 0
-11 -176 170 0
-11 176 -170 0
-12 -176 170 0
-12 176 -170 0
-13 -176 170 0
-13 176 -170 0
-14 -176 170 0
-14 176 -170 0
-15 -176 170 0
-15 176 -170 0
-46 -176 170 0
-46 176 -170 0
171 0
-1 -177 171 0
-1 177 -171 0
-2 -171 177 0
-2 -169 177 0
-2 -177 171 169 0
-3 -177 171 0
-3 177 -171 0
-4 -177 171 0
-4 177 -171 0
-5 -177 171 0
-5 177 -171 0
-6 -171 177 0
-6 -170 177 0
-6 -177 171 170 0
-7 -177 171 0
-7 177 -171 0
-8 -177 171 0
-8 177 -171 0
-9 -177 171 0
-9 177 -171 0
-10 -177 171 0
-10 -177 172 0
-10 177 -171 -172 0
-11 -177 171 0
-11 -177 173 0
-11 177 -171 -173 0
-12 -177 171 0
-12 -177 174 0
-12 177 -171 -174 0
-13 -177 171 0
-13 177 -171 0
-14 -177 171 0
-14 177 -171 0
-15 -177 171 0
-15 177 -171 0
-46 -177 171 0
-46 177 -171 0
-172 0
-1 -178 172 0
-1 178 -172 0
-2 -178 172 0
-2 178 -172 0
-3 -172 178 0
-3 -169 178 0
-3 -178 172 169 0
-4 -178 172 0
-4 178 -172 0
-5 -178 172 0
-5 178 -172 0
-6 -178 172 0
-6 178 -172 0
-7 -172 178 0
-7 -170 178 0
-7 -178 172 170 0
-8 -178 172 0
-8 178 -172 0
-9 -178 172 0
-9 178 -172 0
-10 -172 178 0
-10 -171 178 0
-10 -178 172 171 0
-11 -178 172 0
-11 178 -172 0
-12 -178 172 0
-12 178 -172 0
-13 -178 172 0
-13 -178 173 0
-13 178 -172 -173 0
-14 -178 172 0
-14 -178 174 0
-14 178 -172 -174 0
-15 -178 172 0
-15 178 -172 0
-46 -178 172 0
-46 178 -172 0
-173 0
-1 -179 173 0
-1 179 -173 0
-2 -179 173 0
-2 179 -173 0
-3 -179 173 0
-3 179 -173 0
-4 -173 179 0
-4 -169 179 0
-4 -179 173 169 0
-5 -179 173 0
-5 179 -173 0
-6 -179 173 0
-6 179 -173 0
-7 -179 173 0
-7 179 -173 0
-8 -173 179 0
-8 -170 179 0
-8 -179 173 170 0
-9 -179 173 0
-9 179 -173 0
-10 -179 173 0
-10 179 -173 0
-11 -173 179 0
-11 -171 179 0
-11 -179 173 171 0
-12 -179 173 0
-12 179 -173 0
-13 -173 179 0
-13 -172 179 0
-13 -179 173 172 0
-14 -179 173 0
-14 179 -173 0
-15 -179 173 0
-15 -179 174 0
-15 179 -173 -174 0
-46 -179 173 0
-46 179 -173 0
174 0
-1 -180 174 0
-1 180 -174 0
-2 -180 174 0
-2 180 -174 0
-3 -180 174 0
-3 180 -174 0
-4 -180 174 0
-4 180 -174 0
-5 -174 180 0
-5 -169 180 0
-5 -180 174 169 0
-6 -180 174 0
-6 180 -174 0
-7 -180 174 0
-7 180 -174 0
-8 -180 174 0
-8 180 -174 0
-9 -174 180 0
-9 -170 180 0
-9 -180 174 170 0
-10 -180 174 0
-10 180 -174 0
-11 -180 174 0
-11 180 -174 0
-12 -174 180 0
-12 -171 180 0
-12 -180 174 171 0
-13 -180 174 0
-13 180 -174 0
-14 -174 180 0
-14 -172 180 0
-14 -180 174 172 0
-15 -174 180 0
-15 -173 180 0
-15 -180 174 173 0
-46 -180 174 0
-46 180 -174 0
-16 -181 175 0
-16 -181 176 0
-16 181 -175 -176 0
-17 -181 175 0
-17 -181 177 0
-17 181 -175 -177 0
-18 -181 175 0
-18 -181 178 0
-18 181 -175 -178 0
-19 -181 175 0
-19 -181 179 0
-19 181 -175 -179 0
-20 -181 175 0
-20 -181 180 0
-20 181 -175 -180 0
-21 -181 175 0
-21 181 -175 0
-22 -181 175 0
-22 181 -175 0
-23 -181 175 0
-23 181 -175 0
-24 -181 175 0
-24 181 -175 0
-25 -181 175 0
-25 181 -175 0
-26 -181 175 0
-26 181 -175 0
-27 -181 175 0
-27 181 -175 0
-28 -181 175 0
-28 181 -175 0
-29 -181 175 0
-29 181 -175 0
-30 -181 175 0
-30 181 -175 0
-47 -181 175 0
-47 181 -175 0
-16 -176 182 0
-16 -175 182 0
-16 -182 176 175 0
-17 -182 176 0
-17 182 -176 0
-18 -182 176 0
-18 182 -176 0
-19 -182 176 0
-19 182 -176 0
-20 -182 176 0
-20 182 -176 0
-21 -182 176 0
-21 -182 177 0
-21 182 -176 -177 0
-22 -182 176 0
-22 -182 178 0
-22 182 -176 -178 0
-23 -182 176 0
-23 -182 179 0
-23 182 -176 -179 0
-24 -182 176 0
-24 -182 180 0
-24 182 -176 -180 0
-25 -182 176 0
-25 182 -176 0
-26 -182 176 0
-26 182 -176 0
-27 -182 176 0
-27 182 -176 0
-28 -182 176 0
-28 182 -176 0
-29 -182 176 0
-29 182 -176 0
-30 -182 176 0
-30 182 -176 0
-47 -182 176 0
-47 182 -176 0
-16 -183 177 0
-16 183 -177 0
-17 -177 183 0
-17 -175 183 0
-17 -183 177 175 0
-18 -183 177 0
-18 183 -177 0
-19 -183 177 0
-19 183 -177 0
-20 -183 177 0
-20 183 -177 0
-21 -177 183 0
-21 -176 183 0
-21 -183 177 176 0
-22 -183 177 0
-22 183 -177 0
-23 -183 177 0
-23 183 -177 0
-24 -183 177 0
-24 183 -177 0
-25 -183 177 0
-25 -183 178 0
-25 183 -177 -178 0
-26 -183 177 0
-26 -183 179 0
-26 183 -177 -179 0
-27 -183 177 0
-27 -183 180 0
-27 183 -177 -180 0
-28 -183 177 0
-28 183 -177 0
-29 -183 177 0
-29 183 -177 0
-30 -183 177 0
-30 183 -177 0
-47 -183 177 0
-47 183 -177 0
-16 -184 178 0
-16 184 -178 0
-17 -184 178 0
-17 184 -178 0
-18 -178 184 0
-18 -175 184 0
-18 -184 178 175 0
-19 -184 178 0
-19 184 -178 0
-20 -184 178 0
-20 184 -178 0
-21 -184 178 0
-21 184 -178 0
-22 -178 184 0
-22 -176 184 0
-22 -184 178 176 0
-23 -184 178 0
-23 184 -178 0
-24 -184 178 0
-24 184 -178 0
-25 -178 184 0
-25 -177 184 0
-25 -184 178 177 0
-26 -184 178 0
-26 184 -178 0
-27 -184 178 0
-27 184 -178 0
-28 -184 178 0
-28 -184 179 0
-28 184 -178 -179 0
-29 -184 178 0
-29 -184 180 0
-29 184 -178 -180 0
-30 -184 178 0
-30 184 -178 0
-47 -184 178 0
-47 184 -178 0
-16 -185 179 0
-16 185 -179 0
-17 -185 179 0
-17 185 -179 0
-18 -185 179 0
-18 185 -179 0
-19 -179 185 0
-19 -175 185 0
-19 -185 179 175 0
-20 -185 179 0
-20 185 -179 0
-21 -185 179 0
-21 185 -179 0
-22 -185 179 0
-22 185 -179 0
-23 -179 185 0
-23 -176 185 0
-23 -185 179 176 0
-24 -185 179 0
-24 185 -179 0
-25 -185 179 0
-25 185 -179 0
-26 -179 185 0
-26 -177 185 0
-26 -185 179 177 0
-27 -185 179 0
-27 185 -179 0
-28 -179 185 0
-28 -178 185 0
-28 -185 179 178 0
-29 -185 179 0
-29 185 -179 0
-30 -185 179 0
-30 -185 180 0
-30 185 -179 -180 0
-47 -185 179 0
-47 185 -179 0
-16 -186 180 0
-16 186 -180 0
-17 -186 180 0
-17 186 -180 0
-18 -186 180 0
-18 186 -180 0
-19 -186 180 0
-19 186 -180 0
-20 -180 186 0
-20 -175 186 0
-20 -186 180 175 0
-21 -186 180 0
-21 186 -180 0
-22 -186 180 0
-22 186 -180 0
-23 -186 180 0
-23 186 -180 0
-24 -180 186 0
-24 -176 186 0
-24 -186 180 176 0
-25 -186 180 0
-25 186 -180 0
-26 -186 180 0
-26 186 -180 0
-27 -180 186 0
-27 -177 186 0
-27 -186 180 177 0
-28 -186 180 0
-28 186 -180 0
-29 -180 186 0
-29 -178 186 0
-29 -186 180 178 0
-30 -180 186 0
-30 -179 186 0
-30 -186 180 179 0
-47 -186 180 0
-47 186 -180 0
-31 -187 181 0
-31 -187 182 0
-31 187 -181 -182 0
-32 -187 181 0
-32 -187 183 0
-32 187 -181 -183 0
-33 -187 181 0
-33 -187 184 0
-33 187 -181 -184 0
-34 -187 181 0
-34 -187 185 0
-34 187 -181 -185 0
-35 -187 181 0
-35 -187 186 0
-35 187 -181 -186 0
-36 -187 181 0
-36 187 -181 0
-37 -187 181 0
-37 187 -181 0
-38 -187 181 0
-38 187 -181 0
-39 -187 181 0
-39 187 -181 0
-40 -187 181 0
-40 187 -181 0
-41 -187 181 0
-41 187 -181 0
-42 -187 181 0
-42 187 -181 0
-43 -187 181 0
-43 187 -181 0
-44 -187 181 0
-44 187 -181 0
-45 -187 181 0
-45 187 -181 0
-48 -187 181 0
-48 187 -181 0
-31 -182 188 0
-31 -181 188 0
-31 -188 182 181 0
-32 -188 182 0
-32 188 -182 0
-33 -188 182 0
-33 188 -182 0
-34 -188 182 0
-34 188 -182 0
-35 -188 182 0
-35 188 -182 0
-36 -188 182 0
-36 -188 183 0
-36 188 -182 -183 0
-37 -188 182 0
-37 -188 184 0
-37 188 -182 -184 0
-38 -188 182 0
-38 -188 185 0
-38 188 -182 -185 0
-39 -188 182 0
-39 -188 186 0
-39 188 -182 -186 0
-40 -188 182 0
-40 188 -182 0
-41 -188 182 0
-41 188 -182 0
-42 -188 182 0
-42 188 -182 0
-43 -188 182 0
-43 188 -182 0
-44 -188 182 0
-44 188 -182 0
-45 -188 182 0
-45 188 -182 0
-48 -188 182 0
-48 188 -182 0
-31 -189 183 0
-31 189 -183 0
-32 -183 189 0
-32 -181 189 0
-32 -189 183 181 0
-33 -189 183 0
-33 189 -183 0
-34 -189 183 0
-34 189 -183 0
-35 -189 183 0
-35 189 -183 0
-36 -183 189 0
-36 -182 189 0
-36 -189 183 182 0
-37 -189 183 0
-37 189 -183 0
-38 -189 183 0
-38 189 -183 0
-39 -189 183 0
-39 189 -183 0
-40 -189 183 0
-40 -189 184 0
-40 189 -183 -184 0
-41 -189 183 0
-41 -189 185 0
-41 189 -183 -185 0
-42 -189 183 0
-42 -189 186 0
-42 189 -183 -186 0
-43 -189 183 0
-43 189 -183 0
-44 -189 183 0
-44 189 -183 0
-45 -189 183 0
-45 189 -183 0
-48 -189 183 0
-48 189 -183 0
-31 -190 184 0
-31 190 -184 0
-32 -190 184 0
-32 190 -184 0
-33 -184 190 0
-33 -181 190 0
-33 -190 184 181 0
-34 -190 184 0
-34 190 -184 0
-35 -190 184 0
-35 190 -184 0
-36 -190 184 0
-36 190 -184 0
-37 -184 190 0
-37 -182 190 0
-37 -190 184 182 0
-38 -190 184 0
-38 190 -184 0
-39 -190 184 0
-39 190 -184 0
-40 -184 190 0
-40 -183 190 0
-40 -190 184 183 0
-41 -190 184 0
-41 190 -184 0
-42 -190 184 0
-42 190 -184 0
-43 -190 184 0
-43 -190 185 0
-43 190 -184 -185 0
-44 -190 184 0
-44 -190 186 0
-44 190 -184 -186 0
-45 -190 184 0
-45 190 -184 0
-48 -190 184 0
-48 190 -184 0
-31 -191 185 0
-31 191 -185 0
-32 -191 185 0
-32 191 -185 0
-33 -191 185 0
-33 191 -185 0
-34 -185 191 0
-34 -181 191 0
-34 -191 185 181 0
-35 -191 185 0
-35 191 -185 0
-36 -191 185 0
-36 191 -185 0
-37 -191 185 0
-37 191 -185 0
-38 -185 191 0
-38 -182 191 0
-38 -191 185 182 0
-39 -191 185 0
-39 191 -185 0
-40 -191 185 0
-40 191 -185 0
-41 -185 191 0
-41 -183 191 0
-41 -191 185 183 0
-42 -191 185 0
-42 191 -185 0
-43 -185 191 0
-43 -184 191 0
-43 -191 185 184 0
-44 -191 185 0
-44 191 -185 0
-45 -191 185 0
-45 -191 186 0
-45 191 -185 -186 0
-48 -191 185 0
-48 191 -185 0
-31 -192 186 0
-31 192 -186 0
-32 -192 186 0
-32 192 -186 0
-33 -192 186 0
-33 192 -186 0
-34 -192 186 0
-34 192 -186 0
-35 -186 192 0
-35 -181 192 0
-35 -192 186 181 0
-36 -192 186 0
-36 192 -186 0
-37 -192 186 0
-37 192 -186 0
-38 -192 186 0
-38 192 -186 0
-39 -186 192 0
-39 -182 192 0
-39 -192 186 182 0
-40 -192 186 0
-40 192 -186 0
-41 -192 186 0
-41 192 -186 0
-42 -186 192 0
-42 -183 192 0
-42 -192 186 183 0
-43 -192 186 0
-43 192 -186 0
-44 -186 192 0
-44 -184 192 0
-44 -192 186 184 0
-45 -186 192 0
-45 -185 192 0
-45 -192 186 185 0
-48 -192 186 0
-48 192 -186 0
-193 0
-1 -199 193 0
-1 -199 194 0
-1 199 -193 -194 0
-2 -199 193 0
-2 -199 195 0
-2 199 -193 -195 0
-3 -199 193 0
-3 -199 196 0
-3 199 -193 -196 0
-4 -199 193 0
-4 -199 197 0
-4 199 -193 -197 0
-5 -199 193 0
-5 -199 198 0
-5 199 -193 -198 0
-6 -199 193 0
-6 199 -193 0
-7 -199 193 0
-7 199 -193 0
-8 -199 193 0
-8 199 -193 0
-9 -199 193 0
-9 199 -193 0
-10 -199 193 0
-10 199 -193 0
-11 -199 193 0
-11 199 -193 0
-12 -199 193 0
-12 199 -193 0
-13 -199 193 0
-13 199 -193 0
-14 -199 193 0
-14 199 -193 0
-15 -199 193 0
-15 199 -193 0
-46 -199 193 0
-46 199 -193 0
-194 0
-1 -194 200 0
-1 -193 200 0
-1 -200 194 193 0
-2 -200 194 0
-2 200 -194 0
-3 -200 194 0
-3 200 -194 0
-4 -200 194 0
-4 200 -194 0
-5 -200 194 0
-5 200 -194 0
-6 -200 194 0
-6 -200 195 0
-6 200 -194 -195 0
-7 -200 194 0
-7 -200 196 0
-7 200 -194 -196 0
-8 -200 194 0
-8 -200 197 0
-8 200 -194 -197 0
-9 -200 194 0
-9 -200 198 0
-9 200 -194 -198 0
-10 -200 194 0
-10 200 -194 0
-11 -200 194 0
-11 200 -194 0
-12 -200 194 0
-12 200 -194 0
-13 -200 194 0
-13 200 -194 0
-14 -200 194 0
-14 200 -194 0
-15 -200 194 0
-15 200 -194 0
-46 -200 194 0
-46 200 -194 0
195 0
-1 -201 195 0
-1 201 -195 0
-2 -195 201 0
-2 -193 201 0
-2 -201 195 193 0
-3 -201 195 0
-3 201 -195 0
-4 -201 195 0
-4 201 -195 0
-5 -201 195 0
-5 201 -195 0
-6 -195 201 0
-6 -194 201 0
-6 -201 195 194 0
-7 -201 195 0
-7 201 -195 0
-8 -201 195 0
-8 201 -195 0
-9 -201 195 0
-9 201 -195 0
-10 -201 195 0
-10 -201 196 0
-10 201 -195 -196 0
-11 -201 195 0
-11 -201 197 0
-11 201 -195 -197 0
-12 -201 195 0
-12 -201 198 0
-12 201 -195 -198 0
-13 -201 195 0
-13 201 -195 0
-14 -201 195 0
-14 201 -195 0
-15 -201 195 0
-15 201 -195 0
-46 -201 195 0
-46 201 -195 0
-196 0
-1 -202 196 0
-1 202 -196 0
-2 -202 196 0
-2 202 -196 0
-3 -196 202 0
-3 -193 202 0
-3 -202 196 193 0
-4 -202 196 0
-4 202 -196 0
-5 -202 196 0
-5 202 -196 0
-6 -202 196 0
-6 202 -196 0
-7 -196 202 0
-7 -194 202 0
-7 -202 196 194 0
-8 -202 196 0
-8 202 -196 0
-9 -202 196 0
-9 202 -196 0
-10 -196 202 0
-10 -195 202 0
-10 -202 196 195 0
-11 -202 196 0
-11 202 -196 0
-12 -202 196 0
-12 202 -196 0
-13 -202 196 0
-13 -202 197 0
-13 202 -196 -197 0
-14 -202 196 0
-14 -202 198 0
-14 202 -196 -198 0
-15 -202 196 0
-15 202 -196 0
-46 -202 196 0
-46 202 -196 0
197 0
-1 -203 197 0
-1 203 -197 0
-2 -203 197 0
-2 203 -197 0
-3 -203 197 0
-3 203 -197 0
-4 -197 203 0
-4 -193 203 0
-4 -203 197 193 0
-5 -203 197 0
-5 203 -197 0
-6 -203 197 0
-6 203 -197 0
-7 -203 197 0
-7 203 -197 0
-8 -197 203 0
-8 -194 203 0
-8 -203 197 194 0
-9 -203 197 0
-9 203 -197 0
-10 -203 197 0
-10 203 -197 0
-11 -197 203 0
-11 -195 203 0
-11 -203 197 195 0
-12 -203 197 0
-12 203 -197 0
-13 -197 203 0
-13 -196 203 0
-13 -203 197 196 0
-14 -203 197 0
-14 203 -197 0
-15 -203 197 0
-15 -203 198 0
-15 203 -197 -198 0
-46 -203 197 0
-46 203 -197 0
198 0
-1 -204 198 0
-1 204 -198 0
-2 -204 198 0
-2 204 -198 0
-3 -204 198 0
-3 204 -198 0
-4 -204 198 0
-4 204 -198 0
-5 -198 204 0
-5 -193 204 0
-5 -204 198 193 0
-6 -204 198 0
-6 204 -198 0
-7 -204 198 0
-7 204 -198 0
-8 -204 198 0
-8 204 -198 0
-9 -198 204 0
-9 -194 204 0
-9 -204 198 194 0
-10 -204 198 0
-10 204 -198 0
-11 -204 198 0
-11 204 -198 0
-12 -198 204 0
-12 -195 204 0
-12 -204 198 195 0
-13 -204 198 0
-13 204 -198 0
-14 -198 204 0
-14 -196 204 0
-14 -204 198 196 0
-15 -198 204 0
-15 -197 204 0
-15 -204 198 197 0
-46 -204 198 0
-46 204 -198 0
-16 -205 199 0
-16 -205 200 0
-16 205 -199 -200 0
-17 -205 199 0
-17 -205 201 0
-17 205 -199 -201 0
-18 -205 199 0
-18 -205 202 0
-18 205 -199 -202 0
-19 -205 199 0
-19 -205 203 0
-19 205 -199 -203 0
-20 -205 199 0
-20 -205 204 0
-20 205 -199 -204 0
-21 -205 199 0
-21 205 -199 0
-22 -205 199 0
-22 205 -199 0
-23 -205 199 0
-23 205 -199 0
-24 -205 199 0
-24 205 -199 0
-25 -205 199 0
-25 205 -199 0
-26 -205 199 0
-26 205 -199 0
-27 -205 199 0
-27 205 -199 0
-28 -205 199 0
-28 205 -199 0
-29 -205 199 0
-29 205 -199 0
-30 -205 199 0
-30 205 -199 0
-47 -205 199 0
-47 205 -199 0
-16 -200 206 0
-16 -199 206 0
-16 -206 200 199 0
-17 -206 200 0
-17 206 -200 0
-18 -206 200 0
-18 206 -200 0
-19 -206 200 0
-19 206 -200 0
-20 -206 200 0
-20 206 -200 0
-21 -206 200 0
-21 -206 201 0
-21 206 -200 -201 0
-22 -206 200 0
-22 -206 202 0
-22 206 -200 -202 0
-23 -206 200 0
-23 -206 203 0
-23 206 -200 -203 0
-24 -206 200 0
-24 -206 204 0
-24 206 -200 -204 0
-25 -206 200 0
-25 206 -200 0
-26 -206 200 0
-26 206 -200 0
-27 -206 200 0
-27 206 -200 0
-28 -206 200 0
-28 206 -200 0
-29 -206 200 0
-29 206 -200 0
-30 -206 200 0
-30 206 -200 0
-47 -206 200 0
-47 206 -200 0
-16 -207 201 0
-16 207 -201 0
-17 -201 207 0
-17 -199 207 0
-17 -207 201 199 0
-18 -207 201 0
-18 207 -201 0
-19 -207 201 0
-19 207 -201 0
-20 -207 201 0
-20 207 -201 0
-21 -201 207 0
-21 -200 207 0
-21 -207 201 200 0
-22 -207 201 0
-22 207 -201 0
-23 -207 201 0
-23 207 -201 0
-24 -207 201 0
-24 207 -201 0
-25 -207 201 0
-25 -207 202 0
-25 207 -201 -202 0
-26 -207 201 0
-26 -207 203 0
-26 207 -201 -203 0
-27 -207 201 0
-27 -207 204 0
-27 207 -201 -204 0
-28 -207 201 0
-28 207 -201 0
-29 -207 201 0
-29 207 -201 0
-30 -207 201 0
-30 207 -201 0
-47 -207 201 0
-47 207 -201 0
-16 -208 202 0
-16 208 -202 0
-17 -208 202 0
-17 208 -202 0
-18 -202 208 0
-18 -199 208 0
-18 -208 202 199 0
-19 -208 202 0
-19 208 -202 0
-20 -208 202 0
-20 208 -202 0
-21 -208 202 0
-21 208 -202 0
-22 -202 208 0
-22 -200 208 0
-22 -208 202 200 0
-23 -208 202 0
-23 208 -202 0
-24 -208 202 0
-24 208 -202 0
-25 -202 208 0
-25 -201 208 0
-25 -208 202 201 0
-26 -208 202 0
-26 208 -202 0
-27 -208 202 0
-27 208 -202 0
-28 -208 202 0
-28 -208 203 0
-28 208 -202 -203 0
-29 -208 202 0
-29 -208 204 0
-29 208 -202 -204 0
-30 -208 202 0
-30 208 -202 0
-47 -208 202 0
-47 208 -202 0
-16 -209 203 0
-16 209 -203 0
-17 -209 203 0
-17 209 -203 0
-18 -209 203 0
-18 209 -203 0
-19 -203 209 0
-19 -199 209 0
-19 -209 203 199 0
-20 -209 203 0
-20 209 -203 0
-21 -209 203 0
-21 209 -203 0
-22 -209 203 0
-22 209 -203 0
-23 -203 209 0
-23 -200 209 0
-23 -209 203 200 0
-24 -209 203 0
-24 209 -203 0
-25 -209 203 0
-25 209 -203 0
-26 -203 209 0
-26 -201 209 0
-26 -209 203 201 0
-27 -209 203 0
-27 209 -203 0
-28 -203 209 0
-28 -202 209 0
-28 -209 203 202 0
-29 -209 203 0
-29 209 -203 0
-30 -209 203 0
-30 -209 204 0
-30 209 -203 -204 0
-47 -209 203 0
-47 209 -203 0
-16 -210 204 0
-16 210 -204 0
-17 -210 204 0
-17 210 -204 0
-18 -210 204 0
-18 210 -204 0
-19 -210 204 0
-19 210 -204 0
-20 -204 210 0
-20 -199 210 0
-20 -210 204 199 0
-21 -210 204 0
-21 210 -204 0
-22 -210 204 0
-22 210 -204 0
-23 -210 204 0
-23 210 -204 0
-24 -204 210 0
-24 -200 210 0
-24 -210 204 200 0
-25 -210 204 0
-25 210 -204 0
-26 -210 204 0
-26 210 -204 0
-27 -204 210 0
-27 -201 210 0
-27 -210 204 201 0
-28 -210 204 0
-28 210 -204 0
-29 -204 210 0
-29 -202 210 0
-29 -210 204 202 0
-30 -204 210 0
-30 -203 210 0
-30 -210 204 203 0
-47 -210 204 0
-47 210 -204 0
-31 -211 205 0
-31 -211 206 0
-31 211 -205 -206 0
-32 -211 205 0
-32 -211 207 0
-32 211 -205 -207 0
-33 -211 205 0
-33 -211 208 0
-33 211 -205 -208 0
-34 -211 205 0
-34 -211 209 0
-34 211 -205 -209 0
-35 -211 205 0
-35 -211 210 0
-35 211 -205 -210 0
-36 -211 205 0
-36 211 -205 0
-37 -211 205 0
-37 211 -205 0
-38 -211 205 0
-38 211 -205 0
-39 -211 205 0
-39 211 -205 0
-40 -211 205 0
-40 211 -205 0
-41 -211 205 0
-41 211 -205 0
-42 -211 205 0
-42 211 -205 0
-43 -211 205 0
-43 211 -205 0
-44 -211 205 0
-44 211 -205 0
-45 -211 205 0
-45 211 -205 0
-48 -211 205 0
-48 211 -205 0
-31 -206 212 0
-31 -205 212 0
-31 -212 206 205 0
-32 -212 206 0
-32 212 -206 0
-33 -212 206 0
-33 212 -206 0
-34 -212 206 0
-34 212 -206 0
-35 -212 206 0
-35 212 -206 0
-36 -212 206 0
-36 -212 207 0
-36 212 -206 -207 0
-37 -212 206 0
-37 -212 208 0
-37 212 -206 -208 0
-38 -212 206 0
-38 -212 209 0
-38 212 -206 -209 0
-39 -212 206 0
-39 -212 210 0
-39 212 -206 -210 0
-40 -212 206 0
-40 212 -206 0
-41 -212 206 0
-41 212 -206 0
-42 -212 206 0
-42 212 -206 0
-43 -212 206 0
-43 212 -206 0
-44 -212 206 0
-44 212 -206 0
-45 -212 206 0
-45 212 -206 0
-48 -212 206 0
-48 212 -206 0
-31 -213 207 0
-31 213 -207 0
-32 -207 213 0
-32 -205 213 0
-32 -213 207 205 0
-33 -213 207 0
-33 213 -207 0
-34 -213 207 0
-34 213 -207 0
-35 -213 207 0
-35 213 -207 0
-36 -207 213 0
-36 -206 213 0
-36 -213 207 206 0
-37 -213 207 0
-37 213 -207 0
-38 -213 207 0
-38 213 -207 0
-39 -213 207 0
-39 213 -207 0
-40 -213 207 0
-40 -213 208 0
-40 213 -207 -208 0
-41 -213 207 0
-41 -213 209 0
-41 213 -207 -209 0
-42 -213 207 0
-42 -213 210 0
-42 213 -207 -210 0
-43 -213 207 0
-43 213 -207 0
-44 -213 207 0
-44 213 -207 0
-45 -213 207 0
-45 213 -207 0
-48 -213 207 0
-48 213 -207 0
-31 -214 208 0
-31 214 -208 0
-32 -214 208 0
-32 214 -208 0
-33 -208 214 0
-33 -205 214 0
-33 -214 208 205 0
-34 -214 208 0
-34 214 -208 0
-35 -214 208 0
-35 214 -208 0
-36 -214 208 0
-36 214 -208 0
-37 -208 214 0
-37 -206 214 0
-37 -214 208 206 0
-38 -214 208 0
-38 214 -208 0
-39 -214 208 0
-39 214 -208 0
-40 -208 214 0
-40 -207 214 0
-40 -214 208 207 0
-41 -214 208 0
-41 214 -208 0
-42 -214 208 0
-42 214 -208 0
-43 -214 208 0
-43 -214 209 0
-43 214 -208 -209 0
-44 -214 208 0
-44 -214 210 0
-44 214 -208 -210 0
-45 -214 208 0
-45 214 -208 0
-48 -214 208 0
-48 214 -208 0
-31 -215 209 0
-31 215 -209 0
-32 -215 209 0
-32 215 -209 0
-33 -215 209 0
-33 215 -209 0
-34 -209 215 0
-34 -205 215 0
-34 -215 209 205 0
-35 -215 209 0
-35 215 -209 0
-36 -215 209 0
-36 215 -209 0
-37 -215 209 0
-37 215 -209 0
-38 -209 215 0
-38 -206 215 0
-38 -215 209 206 0
-39 -215 209 0
-39 215 -209 0
-40 -215 209 0
-40 215 -209 0
-41 -209 215 0
-41 -207 215 0
-41 -215 209 207 0
-42 -215 209 0
-42 215 -209 0
-43 -209 215 0
-43 -208 215 0
-43 -215 209 208 0
-44 -215 209 0
-44 215 -209 0
-45 -215 209 0
-45 -215 210 0
-45 215 -209 -210 0
-48 -215 209 0
-48 215 -209 0
-31 -216 210 0
-31 216 -210 0
-32 -216 210 0
-32 216 -210 0
-33 -216 210 0
-33 216 -210 0
-34 -216 210 0
-34 216 -210 0
-35 -210 216 0
-35 -205 216 0
-35 -216 210 205 0
-36 -216 210 0
-36 216 -210 0
-37 -216 210 0
-37 216 -210 0
-38 -216 210 0
-38 216 -210 0
-39 -210 216 0
-39 -206 216 0
-39 -216 210 206 0
-40 -216 210 0
-40 216 -210 0
-41 -216 210 0
-41 216 -210 0
-42 -210 216 0
-42 -207 216 0
-42 -216 210 207 0
-43 -216 210 0
-43 216 -210 0
-44 -210 216 0
-44 -208 216 0
-44 -216 210 208 0
-45 -210 216 0
-45 -209 216 0
-45 -216 210 209 0
-48 -216 210 0
-48 216 -210 0
-217 0
-1 -223 217 0
-1 -223 218 0
-1 223 -217 -218 0
-2 -223 217 0
-2 -223 219 0
-2 223 -217 -219 0
-3 -223 217 0
-3 -223 220 0
-3 223 -217 -220 0
-4 -223 217 0
-4 -223 221 0
-4 223 -217 -221 0
-5 -223 217 0
-5 -223 222 0
-5 223 -217 -222 0
-6 -223 217 0
-6 223 -217 0
-7 -223 217 0
-7 223 -217 0
-8 -223 217 0
-8 223 -217 0
-9 -223 217 0
-9 223 -217 0
-10 -223 217 0
-10 223 -217 0
-11 -223 217 0
-11 223 -217 0
-12 -223 217 0
-12 223 -217 0
-13 -223 217 0
-13 223 -217 0
-14 -223 217 0
-14 223 -217 0
-15 -223 217 0
-15 223 -217 0
-46 -223 217 0
-46 223 -217 0
-218 0
-1 -218 224 0
-1 -217 224 0
-1 -224 218 217 0
-2 -224 218 0
-2 224 -218 0
-3 -224 218 0
-3 224 -218 0
-4 -224 218 0
-4 224 -218 0
-5 -224 218 0
-5 224 -218 0
-6 -224 218 0
-6 -224 219 0
-6 224 -218 -219 0
-7 -224 218 0
-7 -224 220 0
-7 224 -218 -220 0
-8 -224 218 0
-8 -224 221 0
-8 224 -218 -221 0
-9 -224 218 0
-9 -224 222 0
-9 224 -218 -222 0
-10 -224 218 0
-10 224 -218 0
-11 -224 218 0
-11 224 -218 0
-12 -224 218 0
-12 224 -218 0
-13 -224 218 0
-13 224 -218 0
-14 -224 218 0
-14 224 -218 0
-15 -224 218 0
-15 224 -218 0
-46 -224 218 0
-46 224 -218 0
219 0
-1 -225 219 0
-1 225 -219 0
-2 -219 225 0
-2 -217 225 0
-2 -225 219 217 0
-3 -225 219 0
-3 225 -219 0
-4 -225 219 0
-4 225 -219 0
-5 -225 219 0
-5 225 -219 0
-6 -219 225 0
-6 -218 225 0
-6 -225 219 218 0
-7 -225 219 0
-7 225 -219 0
-8 -225 219 0
-8 225 -219 0
-9 -225 219 0
-9 225 -219 0
-10 -225 219 0
-10 -225 220 0
-10 225 -219 -220 0
-11 -225 219 0
-11 -225 221 0
-11 225 -219 -221 0
-12 -225 219 0
-12 -225 222 0
-12 225 -219 -222 0
-13 -225 219 0
-13 225 -219 0
-14 -225 219 0
-14 225 -219 0
-15 -225 219 0
-15 225 -219 0
-46 -225 219 0
-46 225 -219 0
220 0
-1 -226 220 0
-1 226 -220 0
-2 -226 220 0
-2 226 -220 0
-3 -220 226 0
-3 -217 226 0
-3 -226 220 217 0
-4 -226 220 0
-4 226 -220 0
-5 -226 220 0
-5 226 -220 0
-6 -226 220 0
-6 226 -220 0
-7 -220 226 0
-7 -218 226 0
-7 -226 220 218 0
-8 -226 220 0
-8 226 -220 0
-9 -226 220 0
-9 226 -220 0
-10 -220 226 0
-10 -219 226 0
-10 -226 220 219 0
-11 -226 220 0
-11 226 -220 0
-12 -226 220 0
-12 226 -220 0
-13 -226 220 0
-13 -226 221 0
-13 226 -220 -221 0
-14 -226 220 0
-14 -226 222 0
-14 226 -220 -222 0
-15 -226 220 0
-15 226 -220 0
-46 -226 220 0
-46 226 -220 0
221 0
-1 -227 221 0
-1 227 -221 0
-2 -227 221 0
-2 227 -221 0
-3 -227 221 0
-3 227 -221 0
-4 -221 227 0
-4 -217 227 0
-4 -227 221 217 0
-5 -227 221 0
-5 227 -221 0
-6 -227 221 0
-6 227 -221 0
-7 -227 221 0
-7 227 -221 0
-8 -221 227 0
-8 -218 227 0
-8 -227 221 218 0
-9 -227 221 0
-9 227 -221 0
-10 -227 221 0
-10 227 -221 0
-11 -221 227 0
-11 -219 227 0
-11 -227 221 219 0
-12 -227 221 0
-12 227 -221 0
-13 -221 227 0
-13 -220 227 0
-13 -227 221 220 0
-14 -227 221 0
-14 227 -221 0
-15 -227 221 0
-15 -227 222 0
-15 227 -221 -222 0
-46 -227 221 0
-46 227 -221 0
222 0
-1 -228 222 0
-1 228 -222 0
-2 -228 222 0
-2 228 -222 0
-3 -228 222 0
-3 228 -222 0
-4 -228 222 0
-4 228 -222 0
-5 -222 228 0
-5 -217 228 0
-5 -228 222 217 0
-6 -228 222 0
-6 228 -222 0
-7 -228 222 0
-7 228 -222 0
-8 -228 222 0
-8 228 -222 0
-9 -222 228 0
-9 -218 228 0
-9 -228 222 218 0
-10 -228 222 0
-10 228 -222 0
-11 -228 222 0
-11 228 -222 0
-12 -222 228 0
-12 -219 228 0
-12 -228 222 219 0
-13 -228 222 0
-13 228 -222 0
-14 -222 228 0
-14 -220 228 0
-14 -228 222 220 0
-15 -222 228 0
-15 -221 228 0
-15 -228 222 221 0
-46 -228 222 0
-46 228 -222 0
-16 -229 223 0
-16 -229 224 0
-16 229 -223 -224 0
-17 -229 223 0
-17 -229 225 0
-17 229 -223 -225 0
-18 -229 223 0
-18 -229 226 0
-18 229 -223 -226 0
-19 -229 223 0
-19 -229 227 0
-19 229 -223 -227 0
-20 -229 223 0
-20 -229 228 0
-20 229 -223 -228 0
-21 -229 223 0
-21 229 -223 0
-22 -229 223 0
-22 229 -223 0
-23 -229 223 0
-23 229 -223 0
-24 -229 223 0
-24 229 -223 0
-25 -229 223 0
-25 229 -223 0
-26 -229 223 0
-26 229 -223 0
-27 -229 223 0
-27 229 -223 0
-28 -229 223 0
-28 229 -223 0
-29 -229 223 0
-29 229 -223 0
-30 -229 223 0
-30 229 -223 0
-47 -229 223 0
-47 229 -223 0
-16 -224 230 0
-16 -223 230 0
-16 -230 224 223 0
-17 -230 224 0
-17 230 -224 0
-18 -230 224 0
-18 230 -224 0
-19 -230 224 0
-19 230 -224 0
-20 -230 224 0
-20 230 -224 0
-21 -230 224 0
-21 -230 225 0
-21 230 -224 -225 0
-22 -230 224 0
-22 -230 226 0
-22 230 -224 -226 0
-23 -230 224 0
-23 -230 227 0
-23 230 -224 -227 0
-24 -230 224 0
-24 -230 228 0
-24 230 -224 -228 0
-25 -230 224 0
-25 230 -224 0
-26 -230 224 0
-26 230 -224 0
-27 -230 224 0
-27 230 -224 0
-28 -230 224 0
-28 230 -224 0
-29 -230 224 0
-29 230 -224 0
-30 -230 224 0
-30 230 -224 0
-47 -230 224 0
-47 230 -224 0
-16 -231 225 0
-16 231 -225 0
-17 -225 231 0
-17 -223 231 0
-17 -231 225 223 0
-18 -231 225 0
-18 231 -225 0
-19 -231 225 0
-19 231 -225 0
-20 -231 225 0
-20 231 -225 0
-21 -225 231 0
-21 -224 231 0
-21 -231 225 224 0
-22 -231 225 0
-22 231 -225 0
-23 -231 225 0
-23 231 -225 0
-24 -231 225 0
-24 231 -225 0
-25 -231 225 0
-25 -231 226 0
-25 231 -225 -226 0
-26 -231 225 0
-26 -231 227 0
-26 231 -225 -227 0
-27 -231 225 0
-27 -231 228 0
-27 231 -225 -228 0
-28 -231 225 0
-28 231 -225 0
-29 -231 225 0
-29 231 -225 0
-30 -231 225 0
-30 231 -225 0
-47 -231 225 0
-47 231 -225 0
-16 -232 226 0
-16 232 -226 0
-17 -232 226 0
-17 232 -226 0
-18 -226 232 0
-18 -223 232 0
-18 -232 226 223 0
-19 -232 226 0
-19 232 -226 0
-20 -232 226 0
-20 232 -226 0
-21 -232 226 0
-21 232 -226 0
-22 -226 232 0
-22 -224 232 0
-22 -232 226 224 0
-23 -232 226 0
-23 232 -226 0
-24 -232 226 0
-24 232 -226 0
-25 -226 232 0
-25 -225 232 0
-25 -232 226 225 0
-26 -232 226 0
-26 232 -226 0
-27 -232 226 0
-27 232 -226 0
-28 -232 226 0
-28 -232 227 0
-28 232 -226 -227 0
-29 -232 226 0
-29 -232 228 0
-29 232 -226 -228 0
-30 -232 226 0
-30 232 -226 0
-47 -232 226 0
-47 232 -226 0
-16 -233 227 0
-16 233 -227 0
-17 -233 227 0
-17 233 -227 0
-18 -233 227 0
-18 233 -227 0
-19 -227 233 0
-19 -223 233 0
-19 -233 227 223 0
-20 -233 227 0
-20 233 -227 0
-21 -233 227 0
-21 233 -227 0
-22 -233 227 0
-22 233 -227 0
-23 -227 233 0
-23 -224 233 0
-23 -233 227 224 0
-24 -233 227 0
-24 233 -227 0
-25 -233 227 0
-25 233 -227 0
-26 -227 233 0
-26 -225 233 0
-26 -233 227 225 0
-27 -233 227 0
-27 233 -227 0
-28 -227 233 0
-28 -226 233 0
-28 -233 227 226 0
-29 -233 227 0
-29 233 -227 0
-30 -233 227 0
-30 -233 228 0
-30 233 -227 -228 0
-47 -233 227 0
-47 233 -227 0
-16 -234 228 0
-16 234 -228 0
-17 -234 228 0
-17 234 -228 0
-18 -234 228 0
-18 234 -228 0
-19 -234 228 0
-19 234 -228 0
-20 -228 234 0
-20 -223 234 0
-20 -234 228 223 0
-21 -234 228 0
-21 234 -228 0
-22 -234 228 0
-22 234 -228 0
-23 -234 228 0
-23 234 -228 0
-24 -228 234 0
-24 -224 234 0
-24 -234 228 224 0
-25 -234 228 0
-25 234 -228 0
-26 -234 228 0
-26 234 -228 0
-27 -228 234 0
-27 -225 234 0
-27 -234 228 225 0
-28 -234 228 0
-28 234 -228 0
-29 -228 234 0
-29 -226 234 0
-29 -234 228 226 0
-30 -228 234 0
-30 -227 234 0
-30 -234 228 227 0
-47 -234 228 0
-47 234 -228 0
-31 -235 229 0
-31 -235 230 0
-31 235 -229 -230 0
-32 -235 229 0
-32 -235 231 0
-32 235 -229 -231 0
-33 -235 229 0
-33 -235 232 0
-33 235 -229 -232 0
-34 -235 229 0
-34 -235 233 0
-34 235 -229 -233 0
-35 -235 229 0
-35 -235 234 0
-35 235 -229 -234 0
-36 -235 229 0
-36 235 -229 0
-37 -235 229 0
-37 235 -229 0
-38 -235 229 0
-38 235 -229 0
-39 -235 229 0
-39 235 -229 0
-40 -235 229 0
-40 235 -229 0
-41 -235 229 0
-41 235 -229 0
-42 -235 229 0
-42 235 -229 0
-43 -235 229 0
-43 235 -229 0
-44 -235 229 0
-44 235 -229 0
-45 -235 229 0
-45 235 -229 0
-48 -235 229 0
-48 235 -229 0
-31 -230 236 0
-31 -229 236 0
-31 -236 230 229 0
-32 -236 230 0
-32 236 -230 0
-33 -236 230 0
-33 236 -230 0
-34 -236 230 0
-34 236 -230 0
-35 -236 230 0
-35 236 -230 0
-36 -236 230 0
-36 -236 231 0
-36 236 -230 -231 0
-37 -236 230 0
-37 -236 232 0
-37 236 -230 -232 0
-38 -236 230 0
-38 -236 233 0
-38 236 -230 -233 0
-39 -236 230 0
-39 -236 234 0
-39 236 -230 -234 0
-40 -236 230 0
-40 236 -230 0
-41 -236 230 0
-41 236 -230 0
-42 -236 230 0
-42 236 -230 0
-43 -236 230 0
-43 236 -230 0
-44 -236 230 0
-44 236 -230 0
-45 -236 230 0
-45 236 -230 0
-48 -236 230 0
-48 236 -230 0
-31 -237 231 0
-31 237 -231 0
-32 -231 237 0
-32 -229 237 0
-32 -237 231 229 0
-33 -237 231 0
-33 237 -231 0
-34 -237 231 0
-34 237 -231 0
-35 -237 231 0
-35 237 -231 0
-36 -231 237 0
-36 -230 237 0
-36 -237 231 230 0
-37 -237 231 0
-37 237 -231 0
-38 -237 231 0
-38 237 -231 0
-39 -237 231 0
-39 237 -231 0
-40 -237 231 0
-40 -237 232 0
-40 237 -231 -232 0
-41 -237 231 0
-41 -237 233 0
-41 237 -231 -233 0
-42 -237 231 0
-42 -237 234 0
-42 237 -231 -234 0
-43 -237 231 0
-43 237 -231 0
-44 -237 231 0
-44 237 -231 0
-45 -237 231 0
-45 237 -231 0
-48 -237 231 0
-48 237 -231 0
-31 -238 232 0
-31 238 -232 0
-32 -238 232 0
-32 238 -232 0
-33 -232 238 0
-33 -229 238 0
-33 -238 232 229 0
-34 -238 232 0
-34 238 -232 0
-35 -238 232 0
-35 238 -232 0
-36 -238 232 0
-36 238 -232 0
-37 -232 238 0
-37 -230 238 0
-37 -238 232 230 0
-38 -238 232 0
-38 238 -232 0
-39 -238 232 0
-39 238 -232 0
-40 -232 238 0
-40 -231 238 0
-40 -238 232 231 0
-41 -238 232 0
-41 238 -232 0
-42 -238 232 0
-42 238 -232 0
-43 -238 232 0
-43 -238 233 0
-43 238 -232 -233 0
-44 -238 232 0
-44 -238 234 0
-44 238 -232 -234 0
-45 -238 232 0
-45 238 -232 0
-48 -238 232 0
-48 238 -232 0
-31 -239 233 0
-31 239 -233 0
-32 -239 233 0
-32 239 -233 0
-33 -239 233 0
-33 239 -233 0
-34 -233 239 0
-34 -229 239 0
-34 -239 233 229 0
-35 -239 233 0
-35 239 -233 0
-36 -239 233 0
-36 239 -233 0
-37 -239 233 0
-37 239 -233 0
-38 -233 239 0
-38 -230 239 0
-38 -239 233 230 0
-39 -239 233 0
-39 239 -233 0
-40 -239 233 0
-40 239 -233 0
-41 -233 239 0
-41 -231 239 0
-41 -239 233 231 0
-42 -239 233 0
-42 239 -233 0
-43 -233 239 0
-43 -232 239 0
-43 -239 233 232 0
-44 -239 233 0
-44 239 -233 0
-45 -239 233 0
-45 -239 234 0
-45 239 -233 -234 0
-48 -239 233 0
-48 239 -233 0
-31 -240 234 0
-31 240 -234 0
-32 -240 234 0
-32 240 -234 0
-33 -240 234 0
-33 240 -234 0
-34 -240 234 0
-34 240 -234 0
-35 -234 240 0
-35 -229 240 0
-35 -240 234 229 0
-36 -240 234 0
-36 240 -234 0
-37 -240 234 0
-37 240 -234 0
-38 -240 234 0
-38 240 -234 0
-39 -234 240 0
-39 -230 240 0
-39 -240 234 230 0
-40 -240 234 0
-40 240 -234 0
-41 -240 234 0
-41 240 -234 0
-42 -234 240 0
-42 -231 240 0
-42 -240 234 231 0
-43 -240 234 0
-43 240 -234 0
-44 -234 240 0
-44 -232 240 0
-44 -240 234 232 0
-45 -234 240 0
-45 -233 240 0
-45 -240 234 233 0
-48 -240 234 0
-48 240 -234 0
-241 0
-1 -247 241 0
-1 -247 242 0
-1 247 -241 -242 0
-2 -247 241 0
-2 -247 243 0
-2 247 -241 -243 0
-3 -247 241 0
-3 -247 244 0
-3 247 -241 -244 0
-4 -247 241 0
-4 -247 245 0
-4 247 -241 -245 0
-5 -247 241 0
-5 -247 246 0
-5 247 -241 -246 0
-6 -247 241 0
-6 247 -241 0
-7 -247 241 0
-7 247 -241 0
-8 -247 241 0
-8 247 -241 0
-9 -247 241 0
-9 247 -241 0
-10 -247 241 0
-10 247 -241 0
-11 -247 241 0
-11 247 -241 0
-12 -247 241 0
-12 247 -241 0
-13 -247 241 0
-13 247 -241 0
-14 -247 241 0
-14 247 -241 0
-15 -247 241 0
-15 247 -241 0
-46 -247 241 0
-46 247 -241 0
242 0
-1 -242 248 0
-1 -241 248 0
-1 -248 242 241 0
-2 -248 242 0
-2 248 -242 0
-3 -248 242 0
-3 248 -242 0
-4 -248 242 0
-4 248 -242 0
-5 -248 242 0
-5 248 -242 0
-6 -248 242 0
-6 -248 243 0
-6 248 -242 -243 0
-7 -248 242 0
-7 -248 244 0
-7 248 -242 -244 0
-8 -248 242 0
-8 -248 245 0
-8 248 -242 -245 0
-9 -248 242 0
-9 -248 246 0
-9 248 -242 -246 0
-10 -248 242 0
-10 248 -242 0
-11 -248 242 0
-11 248 -242 0
-12 -248 242 0
-12 248 -242 0
-13 -248 242 0
-13 248 -242 0
-14 -248 242 0
-14 248 -242 0
-15 -248 242 0
-15 248 -242 0
-46 -248 242 0
-46 248 -242 0
243 0
-1 -249 243 0
-1 249 -243 0
-2 -243 249 0
-2 -241 249 0
-2 -249 243 241 0
-3 -249 243 0
-3 249 -243 0
-4 -249 243 0
-4 249 -243 0
-5 -249 243 0
-5 249 -243 0
-6 -243 249 0
-6 -242 249 0
-6 -249 243 242 0
-7 -249 243 0
-7 249 -243 0
-8 -249 243 0
-8 249 -243 0
-9 -249 243 0
-9 249 -243 0
-10 -249 243 0
-10 -249 244 0
-10 249 -243 -244 0
-11 -249 243 0
-11 -249 245 0
-11 249 -243 -245 0
-12 -249 243 0
-12 -249 246 0
-12 249 -243 -246 0
-13 -249 243 0
-13 249 -243 0
-14 -249 243 0
-14 249 -243 0
-15 -249 243 0
-15 249 -243 0
-46 -249 243 0
-46 249 -243 0
-244 0
-1 -250 244 0
-1 250 -244 0
-2 -250 244 0
-2 250 -244 0
-3 -244 250 0
-3 -241 250 0
-3 -250 244 241 0
-4 -250 244 0
-4 250 -244 0
-5 -250 244 0
-5 250 -244 0
-6 -250 244 0
-6 250 -244 0
-7 -244 250 0
-7 -242 250 0
-7 -250 244 242 0
-8 -250 244 0
-8 250 -244 0
-9 -250 244 0
-9 250 -244 0
-10 -244 250 0
-10 -243 250 0
-10 -250 244 243 0
-11 -250 244 0
-11 250 -244 0
-12 -250 244 0
-12 250 -244 0
-13 -250 244 0
-13 -250 245 0
-13 250 -244 -245 0
-14 -250 244 0
-14 -250 246 0
-14 250 -244 -246 0
-15 -250 244 0
-15 250 -244 0
-46 -250 244 0
-46 250 -244 0
-245 0
-1 -251 245 0
-1 251 -245 0
-2 -251 245 0
-2 251 -245 0
-3 -251 245 0
-3 251 -245 0
-4 -245 251 0
-4 -241 251 0
-4 -251 245 241 0
-5 -251 245 0
-5 251 -245 0
-6 -251 245 0
-6 251 -245 0
-7 -251 245 0
-7 251 -245 0
-8 -245 251 0
-8 -242 251 0
-8 -251 245 242 0
-9 -251 245 0
-9 251 -245 0
-10 -251 245 0
-10 251 -245 0
-11 -245 251 0
-11 -243 251 0
-11 -251 245 243 0
-12 -251 245 0
-12 251 -245 0
-13 -245 251 0
-13 -244 251 0
-13 -251 245 244 0
-14 -251 245 0
-14 251 -245 0
-15 -251 245 0
-15 -251 246 0
-15 251 -245 -246 0
-46 -251 245 0
-46 251 -245 0
-246 0
-1 -252 246 0
-1 252 -246 0
-2 -252 246 0
-2 252 -246 0
-3 -252 246 0
-3 252 -246 0
-4 -252 246 0
-4 252 -246 0
-5 -246 252 0
-5 -241 252 0
-5 -252 246 241 0
-6 -252 246 0
-6 252 -246 0
-7 -252 246 0
-7 252 -246 0
-8 -252 246 0
-8 252 -246 0
-9 -246 252 0
-9 -242 252 0
-9 -252 246 242 0
-10 -252 246 0
-10 252 -246 0
-11 -252 246 0
-11 252 -246 0
-12 -246 252 0
-12 -243 252 0
-12 -252 246 243 0
-13 -252 246 0
-13 252 -246 0
-14 -246 252 0
-14 -244 252 0
-14 -252 246 244 0
-15 -246 252 0
-15 -245 252 0
-15 -252 246 245 0
-46 -252 246 0
-46 252 -246 0
-16 -253 247 0
-16 -253 248 0
-16 253 -247 -248 0
-17 -253 247 0
-17 -253 249 0
-17 253 -247 -249 0
-18 -253 247 0
-18 -253 250 0
-18 253 -247 -250 0
-19 -253 247 0
-19 -253 251 0
-19 253 -247 -251 0
-20 -253 247 0
-20 -253 252 0
-20 253 -247 -252 0
-21 -253 247 0
-21 253 -247 0
-22 -253 247 0
-22 253 -247 0
-23 -253 247 0
-23 253 -247 0
-24 -253 247 0
-24 253 -247 0
-25 -253 247 0
-25 253 -247 0
-26 -253 247 0
-26 253 -247 0
-27 -253 247 0
-27 253 -247 0
-28 -253 247 0
-28 253 -247 0
-29 -253 247 0
-29 253 -247 0
-30 -253 247 0
-30 253 -247 0
-47 -253 247 0
-47 253 -247 0
-16 -248 254 0
-16 -247 254 0
-16 -254 248 247 0
-17 -254 248 0
-17 254 -248 0
-18 -254 248 0
-18 254 -248 0
-19 -254 248 0
-19 254 -248 0
-20 -254 248 0
-20 254 -248 0
-21 -254 248 0
-21 -254 249 0
-21 254 -248 -249 0
-22 -254 248 0
-22 -254 250 0
-22 254 -248 -250 0
-23 -254 248 0
-23 -254 251 0
-23 254 -248 -251 0
-24 -254 248 0
-24 -254 252 0
-24 254 -248 -252 0
-25 -254 248 0
-25 254 -248 0
-26 -254 248 0
-26 254 -248 0
-27 -254 248 0
-27 254 -248 0
-28 -254 248 0
-28 254 -248 0
-29 -254 248 0
-29 254 -248 0
-30 -254 248 0
-30 254 -248 0
-47 -254 248 0
-47 254 -248 0
-16 -255 249 0
-16 255 -249 0
-17 -249 255 0
-17 -247 255 0
-17 -255 249 247 0
-18 -255 249 0
-18 255 -249 0
-19 -255 249 0
-19 255 -249 0
-20 -255 249 0
-20 255 -249 0
-21 -249 255 0
-21 -248 255 0
-21 -255 249 248 0
-22 -255 249 0
-22 255 -249 0
-23 -255 249 0
-23 255 -249 0
-24 -255 249 0
-24 255 -249 0
-25 -255 249 0
-25 -255 250 0
-25 255 -249 -250 0
-26 -255 249 0
-26 -255 251 0
-26 255 -249 -251 0
-27 -255 249 0
-27 -255 252 0
-27 255 -249 -252 0
-28 -255 249 0
-28 255 -249 0
-29 -255 249 0
-29 255 -249 0
-30 -255 249 0
-30 255 -249 0
-47 -255 249 0
-47 255 -249 0
-16 -256 250 0
-16 256 -250 0
-17 -256 250 0
-17 256 -250 0
-18 -250 256 0
-18 -247 256 0
-18 -256 250 247 0
-19 -256 250 0
-19 256 -250 0
-20 -256 250 0
-20 256 -250 0
-21 -256 250 0
-21 256 -250 0
-22 -250 256 0
-22 -248 256 0
-22 -256 250 248 0
-23 -256 250 0
-23 256 -250 0
-24 -256 250 0
-24 256 -250 0
-25 -250 256 0
-25 -249 256 0
-25 -256 250 249 0
-26 -256 250 0
-26 256 -250 0
-27 -256 250 0
-27 256 -250 0
-28 -256 250 0
-28 -256 251 0
-28 256 -250 -251 0
-29 -256 250 0
-29 -256 252 0
-29 256 -250 -252 0
-30 -256 250 0
-30 256 -250 0
-47 -256 250 0
-47 256 -250 0
-16 -257 251 0
-16 257 -251 0
-17 -257 251 0
-17 257 -251 0
-18 -257 251 0
-18 257 -251 0
-19 -251 257 0
-19 -247 257 0
-19 -257 251 247 0
-20 -257 251 0
-20 257 -251 0
-21 -257 251 0
-21 257 -251 0
-22 -257 251 0
-22 257 -251 0
-23 -251 257 0
-23 -248 257 0
-23 -257 251 248 0
-24 -257 251 0
-24 257 -251 0
-25 -257 251 0
-25 257 -251 0
-26 -251 257 0
-26 -249 257 0
-26 -257 251 249 0
-27 -257 251 0
-27 257 -251 0
-28 -251 257 0
-28 -250 257 0
-28 -257 251 250 0
-29 -257 251 0
-29 257 -251 0
-30 -257 251 0
-30 -257 252 0
-30 257 -251 -252 0
-47 -257 251 0
-47 257 -251 0
-16 -258 252 0
-16 258 -252 0
-17 -258 252 0
-17 258 -252 0
-18 -258 252 0
-18 258 -252 0
-19 -258 252 0
-19 258 -252 0
-20 -252 258 0
-20 -247 258 0
-20 -258 252 247 0
-21 -258 252 0
-21 258 -252 0
-22 -258 252 0
-22 258 -252 0
-23 -258 252 0
-23 258 -252 0
-24 -252 258 0
-24 -248 258 0
-24 -258 252 248 0
-25 -258 252 0
-25 258 -252 0
-26 -258 252 0
-26 258 -252 0
-27 -252 258 0
-27 -249 258 0
-27 -258 252 249 0
-28 -258 252 0
-28 258 -252 0
-29 -252 258 0
-29 -250 258 0
-29 -258 252 250 0
-30 -252 258 0
-30 -251 258 0
-30 -258 252 251 0
-47 -258 252 0
-47 258 -252 0
-31 -259 253 0
-31 -259 254 0
-31 259 -253 -254 0
-32 -259 253 0
-32 -259 255 0
-32 259 -253 -255 0
-33 -259 253 0
-33 -259 256 0
-33 259 -253 -256 0
-34 -259 253 0
-34 -259 257 0
-34 259 -253 -257 0
-35 -259 253 0
-35 -259 258 0
-35 259 -253 -258 0
-36 -259 253 0
-36 259 -253 0
-37 -259 253 0
-37 259 -253 0
-38 -259 253 0
-38 259 -253 0
-39 -259 253 0
-39 259 -253 0
-40 -259 253 0
-40 259 -253 0
-41 -259 253 0
-41 259 -253 0
-42 -259 253 0
-42 259 -253 0
-43 -259 253 0
-43 259 -253 0
-44 -259 253 0
-44 259 -253 0
-45 -259 253 0
-45 259 -253 0
-48 -259 253 0
-48 259 -253 0
-31 -254 260 0
-31 -253 260 0
-31 -260 254 253 0
-32 -260 254 0
-32 260 -254 0
-33 -260 254 0
-33 260 -254 0
-34 -260 254 0
-34 260 -254 0
-35 -260 254 0
-35 260 -254 0
-36 -260 254 0
-36 -260 255 0
-36 260 -254 -255 0
-37 -260 254 0
-37 -260 256 0
-37 260 -254 -256 0
-38 -260 254 0
-38 -260 257 0
-38 260 -254 -257 0
-39 -260 254 0
-39 -260 258 0
-39 260 -254 -258 0
-40 -260 254 0
-40 260 -254 0
-41 -260 254 0
-41 260 -254 0
-42 -260 254 0
-42 260 -254 0
-43 -260 254 0
-43 260 -254 0
-44 -260 254 0
-44 260 -254 0
-45 -260 254 0
-45 260 -254 0
-48 -260 254 0
-48 260 -254 0
-31 -261 255 0
-31 261 -255 0
-32 -255 261 0
-32 -253 261 0
-32 -261 255 253 0
-33 -261 255 0
-33 261 -255 0
-34 -261 255 0
-34 261 -255 0
-35 -261 255 0
-35 261 -255 0
-36 -255 261 0
-36 -254 261 0
-36 -261 255 254 0
-37 -261 255 0
-37 261 -255 0
-38 -261 255 0
-38 261 -255 0
-39 -261 255 0
-39 261 -255 0
-40 -261 255 0
-40 -261 256 0
-40 261 -255 -256 0
-41 -261 255 0
-41 -261 257 0
-41 261 -255 -257 0
-42 -261 255 0
-42 -261 258 0
-42 261 -255 -258 0
-43 -261 255 0
-43 261 -255 0
-44 -261 255 0
-44 261 -255 0
-45 -261 255 0
-45 261 -255 0
-48 -261 255 0
-48 261 -255 0
-31 -262 256 0
-31 262 -256 0
-32 -262 256 0
-32 262 -256 0
-33 -256 262 0
-33 -253 262 0
-33 -262 256 253 0
-34 -262 256 0
-34 262 -256 0
-35 -262 256 0
-35 262 -256 0
-36 -262 256 0
-36 262 -256 0
-37 -256 262 0
-37 -254 262 0
-37 -262 256 254 0
-38 -262 256 0
-38 262 -256 0
-39 -262 256 0
-39 262 -256 0
-40 -256 262 0
-40 -255 262 0
-40 -262 256 255 0
-41 -262 256 0
-41 262 -256 0
-42 -262 256 0
-42 262 -256 0
-43 -262 256 0
-43 -262 257 0
-43 262 -256 -257 0
-44 -262 256 0
-44 -262 258 0
-44 262 -256 -258 0
-45 -262 256 0
-45 262 -256 0
-48 -262 256 0
-48 262 -256 0
-31 -263 257 0
-31 263 -257 0
-32 -263 257 0
-32 263 -257 0
-33 -263 257 0
-33 263 -257 0
-34 -257 263 0
-34 -253 263 0
-34 -263 257 253 0
-35 -263 257 0
-35 263 -257 0
-36 -263 257 0
-36 263 -257 0
-37 -263 257 0
-37 263 -257 0
-38 -257 263 0
-38 -254 263 0
-38 -263 257 254 0
-39 -263 257 0
-39 263 -257 0
-40 -263 257 0
-40 263 -257 0
-41 -257 263 0
-41 -255 263 0
-41 -263 257 255 0
-42 -263 257 0
-42 263 -257 0
-43 -257 263 0
-43 -256 263 0
-43 -263 257 256 0
-44 -263 257 0
-44 263 -257 0
-45 -263 257 0
-45 -263 258 0
-45 263 -257 -258 0
-48 -263 257 0
-48 263 -257 0
-31 -264 258 0
-31 264 -258 0
-32 -264 258 0
-32 264 -258 0
-33 -264 258 0
-33 264 -258 0
-34 -264 258 0
-34 264 -258 0
-35 -258 264 0
-35 -253 264 0
-35 -264 258 253 0
-36 -264 258 0
-36 264 -258 0
-37 -264 258 0
-37 264 -258 0
-38 -264 258 0
-38 264 -258 0
-39 -258 264 0
-39 -254 264 0
-39 -264 258 254 0
-40 -264 258 0
-40 264 -258 0
-41 -264 258 0
-41 264 -258 0
-42 -258 264 0
-42 -255 264 0
-42 -264 258 255 0
-43 -264 258 0
-43 264 -258 0
-44 -258 264 0
-44 -256 264 0
-44 -264 258 256 0
-45 -258 264 0
-45 -257 264 0
-45 -264 258 257 0
-48 -264 258 0
-48 264 -258 0
-265 0
-1 -271 265 0
-1 -271 266 0
-1 271 -265 -266 0
-2 -271 265 0
-2 -271 267 0
-2 271 -265 -267 0
-3 -271 265 0
-3 -271 268 0
-3 271 -265 -268 0
-4 -271 265 0
-4 -271 269 0
-4 271 -265 -269 0
-5 -271 265 0
-5 -271 270 0
-5 271 -265 -270 0
-6 -271 265 0
-6 271 -265 0
-7 -271 265 0
-7 271 -265 0
-8 -271 265 0
-8 271 -265 0
-9 -271 265 0
-9 271 -265 0
-10 -271 265 0
-10 271 -265 0
-11 -271 265 0
-11 271 -265 0
-12 -271 265 0
-12 271 -265 0
-13 -271 265 0
-13 271 -265 0
-14 -271 265 0
-14 271 -265 0
-15 -271 265 0
-15 271 -265 0
-46 -271 265 0
-46 271 -265 0
266 0
-1 -266 272 0
-1 -265 272 0
-1 -272 266 265 0
-2 -272 266 0
-2 272 -266 0
-3 -272 266 0
-3 272 -266 0
-4 -272 266 0
-4 272 -266 0
-5 -272 266 0
-5 272 -266 0
-6 -272 266 0
-6 -272 267 0
-6 272 -266 -267 0
-7 -272 266 0
-7 -272 268 0
-7 272 -266 -268 0
-8 -272 266 0
-8 -272 269 0
-8 272 -266 -269 0
-9 -272 266 0
-9 -272 270 0
-9 272 -266 -270 0
-10 -272 266 0
-10 272 -266 0
-11 -272 266 0
-11 272 -266 0
-12 -272 266 0
-12 272 -266 0
-13 -272 266 0
-13 272 -266 0
-14 -272 266 0
-14 272 -266 0
-15 -272 266 0
-15 272 -266 0
-46 -272 266 0
-46 272 -266 0
267 0
-1 -273 267 0
-1 273 -267 0
-2 -267 273 0
-2 -265 273 0
-2 -273 267 265 0
-3 -273 267 0
-3 273 -267 0
-4 -273 267 0
-4 273 -267 0
-5 -273 267 0
-5 273 -267 0
-6 -267 273 0
-6 -266 273 0
-6 -273 267 266 0
-7 -273 267 0
-7 273 -267 0
-8 -273 267 0
-8 273 -267 0
-9 -273 267 0
-9 273 -267 0
-10 -273 267 0
-10 -273 268 0
-10 273 -267 -268 0
-11 -273 267 0
-11 -273 269 0
-11 273 -267 -269 0
-12 -273 267 0
-12 -273 270 0
-12 273 -267 -270 0
-13 -273 267 0
-13 273 -267 0
-14 -273 267 0
-14 273 -267 0
-15 -273 267 0
-15 273 -267 0
-46 -273 267 0
-46 273 -267 0
-268 0
-1 -274 268 0
-1 274 -268 0
-2 -274 268 0
-2 274 -268 0
-3 -268 274 0
-3 -265 274 0
-3 -274 268 265 0
-4 -274 268 0
-4 274 -268 0
-5 -274 268 0
-5 274 -268 0
-6 -274 268 0
-6 274 -268 0
-7 -268 274 0
-7 -266 274 0
-7 -274 268 266 0
-8 -274 268 0
-8 274 -268 0
-9 -274 268 0
-9 274 -268 0
-10 -268 274 0
-10 -267 274 0
-10 -274 268 267 0
-11 -274 268 0
-11 274 -268 0
-12 -274 268 0
-12 274 -268 0
-13 -274 268 0
-13 -274 269 0
-13 274 -268 -269 0
-14 -274 268 0
-14 -274 270 0
-14 274 -268 -270 0
-15 -274 268 0
-15 274 -268 0
-46 -274 268 0
-46 274 -268 0
-269 0
-1 -275 269 0
-1 275 -269 0
-2 -275 269 0
-2 275 -269 0
-3 -275 269 0
-3 275 -269 0
-4 -269 275 0
-4 -265 275 0
-4 -275 269 265 0
-5 -275 269 0
-5 275 -269 0
-6 -275 269 0
-6 275 -269 0
-7 -275 269 0
-7 275 -269 0
-8 -269 275 0
-8 -266 275 0
-8 -275 269 266 0
-9 -275 269 0
-9 275 -269 0
-10 -275 269 0
-10 275 -269 0
-11 -269 275 0
-11 -267 275 0
-11 -275 269 267 0
-12 -275 269 0
-12 275 -269 0
-13 -269 275 0
-13 -268 275 0
-13 -275 269 268 0
-14 -275 269 0
-14 275 -269 0
-15 -275 269 0
-15 -275 270 0
-15 275 -269 -270 0
-46 -275 269 0
-46 275 -269 0
270 0
-1 -276 270 0
-1 276 -270 0
-2 -276 270 0
-2 276 -270 0
-3 -276 270 0
-3 276 -270 0
-4 -276 270 0
-4 276 -270 0
-5 -270 276 0
-5 -265 276 0
-5 -276 270 265 0
-6 -276 270 0
-6 276 -270 0
-7 -276 270 0
-7 276 -270 0
-8 -276 270 0
-8 276 -270 0
-9 -270 276 0
-9 -266 276 0
-9 -276 270 266 0
-10 -276 270 0
-10 276 -270 0
-11 -276 270 0
-11 276 -270 0
-12 -270 276 0
-12 -267 276 0
-12 -276 270 267 0
-13 -276 270 0
-13 276 -270 0
-14 -270 276 0
-14 -268 276 0
-14 -276 270 268 0
-15 -270 276 0
-15 -269 276 0
-15 -276 270 269 0
-46 -276 270 0
-46 276 -270 0
-16 -277 271 0
-16 -277 272 0
-16 277 -271 -272 0
-17 -277 271 0
-17 -277 273 0
-17 277 -271 -273 0
-18 -277 271 0
-18 -277 274 0
-18 277 -271 -274 0
-19 -277 271 0
-19 -277 275 0
-19 277 -271 -275 0
-20 -277 271 0
-20 -277 276 0
-20 277 -271 -276 0
-21 -277 271 0
-21 277 -271 0
-22 -277 271 0
-22 277 -271 0
-23 -277 271 0
-23 277 -271 0
-24 -277 271 0
-24 277 -271 0
-25 -277 271 0
-25 277 -271 0
-26 -277 271 0
-26 277 -271 0
-27 -277 271 0
-27 277 -271 0
-28 -277 271 0
-28 277 -271 0
-29 -277 271 0
-29 277 -271 0
-30 -277 271 0
-30 277 -271 0
-47 -277 271 0
-47 277 -271 0
-16 -272 278 0
-16 -271 278 0
-16 -278 272 271 0
-17 -278 272 0
-17 278 -272 0
-18 -278 272 0
-18 278 -272 0
-19 -278 272 0
-19 278 -272 0
-20 -278 272 0
-20 278 -272 0
-21 -278 272 0
-21 -278 273 0
-21 278 -272 -273 0
-22 -278 272 0
-22 -278 274 0
-22 278 -272 -274 0
-23 -278 272 0
-23 -278 275 0
-23 278 -272 -275 0
-24 -278 272 0
-24 -278 276 0
-24 278 -272 -276 0
-25 -278 272 0
-25 278 -272 0
-26 -278 272 0
-26 278 -272 0
-27 -278 272 0
-27 278 -272 0
-28 -278 272 0
-28 278 -272 0
-29 -278 272 0
-29 278 -272 0
-30 -278 272 0
-30 278 -272 0
-47 -278 272 0
-47 278 -272 0
-16 -279 273 0
-16 279 -273 0
-17 -273 279 0
-17 -271 279 0
-17 -279 273 271 0
-18 -279 273 0
-18 279 -273 0
-19 -279 273 0
-19 279 -273 0
-20 -279 273 0
-20 279 -273 0
-21 -273 279 0
-21 -272 279 0
-21 -279 273 272 0
-22 -279 273 0
-22 279 -273 0
-23 -279 273 0
-23 279 -273 0
-24 -279 273 0
-24 279 -273 0
-25 -279 273 0
-25 -279 274 0
-25 279 -273 -274 0
-26 -279 273 0
-26 -279 275 0
-26 279 -273 -275 0
-27 -279 273 0
-27 -279 276 0
-27 279 -273 -276 0
-28 -279 273 0
-28 279 -273 0
-29 -279 273 0
-29 279 -273 0
-30 -279 273 0
-30 279 -273 0
-47 -279 273 0
-47 279 -273 0
-16 -280 274 0
-16 280 -274 0
-17 -280 274 0
-17 280 -274 0
-18 -274 280 0
-18 -271 280 0
-18 -280 274 271 0
-19 -280 274 0
-19 280 -274 0
-20 -280 274 0
-20 280 -274 0
-21 -280 274 0
-21 280 -274 0
-22 -274 280 0
-22 -272 280 0
-22 -280 274 272 0
-23 -280 274 0
-23 280 -274 0
-24 -280 274 0
-24 280 -274 0
-25 -274 280 0
-25 -273 280 0
-25 -280 274 273 0
-26 -280 274 0
-26 280 -274 0
-27 -280 274 0
-27 280 -274 0
-28 -280 274 0
-28 -280 275 0
-28 280 -274 -275 0
-29 -280 274 0
-29 -280 276 0
-29 280 -274 -276 0
-30 -280 274 0
-30 280 -274 0
-47 -280 274 0
-47 280 -274 0
-16 -281 275 0
-16 281 -275 0
-17 -281 275 0
-17 281 -275 0
-18 -281 275 0
-18 281 -275 0
-19 -275 281 0
-19 -271 281 0
-19 -281 275 271 0
-20 -281 275 0
-20 281 -275 0
-21 -281 275 0
-21 281 -275 0
-22 -281 275 0
-22 281 -275 0
-23 -275 281 0
-23 -272 281 0
-23 -281 275 272 0
-24 -281 275 0
-24 281 -275 0
-25 -281 275 0
-25 281 -275 0
-26 -275 281 0
-26 -273 281 0
-26 -281 275 273 0
-27 -281 275 0
-27 281 -275 0
-28 -275 281 0
-28 -274 281 0
-28 -281 275 274 0
-29 -281 275 0
-29 281 -275 0
-30 -281 275 0
-30 -281 276 0
-30 281 -275 -276 0
-47 -281 275 0
-47 281 -275 0
-16 -282 276 0
-16 282 -276 0
-17 -282 276 0
-17 282 -276 0
-18 -282 276 0
-18 282 -276 0
-19 -282 276 0
-19 282 -276 0
-20 -276 282 0
-20 -271 282 0
-20 -282 276 271 0
-21 -282 276 0
-21 282 -276 0
-22 -282 276 0
-22 282 -276 0
-23 -282 276 0
-23 282 -276 0
-24 -276 282 0
-24 -272 282 0
-24 -282 276 272 0
-25 -282 276 0
-25 282 -276 0
-26 -282 276 0
-26 282 -276 0
-27 -276 282 0
-27 -273 282 0
-27 -282 276 273 0
-28 -282 276 0
-28 282 -276 0
-29 -276 282 0
-29 -274 282 0
-29 -282 276 274 0
-30 -276 282 0
-30 -275 282 0
-30 -282 276 275 0
-47 -282 276 0
-47 282 -276 0
-31 -283 277 0
-31 -283 278 0
-31 283 -277 -278 0
-32 -283 277 0
-32 -283 279 0
-32 283 -277 -279 0
-33 -283 277 0
-33 -283 280 0
-33 283 -277 -280 0
-34 -283 277 0
-34 -283 281 0
-34 283 -277 -281 0
-35 -283 277 0
-35 -283 282 0
-35 283 -277 -282 0
-36 -283 277 0
-36 283 -277 0
-37 -283 277 0
-37 283 -277 0
-38 -283 277 0
-38 283 -277 0
-39 -283 277 0
-39 283 -277 0
-40 -283 277 0
-40 283 -277 0
-41 -283 277 0
-41 283 -277 0
-42 -283 277 0
-42 283 -277 0
-43 -283 277 0
-43 283 -277 0
-44 -283 277 0
-44 283 -277 0
-45 -283 277 0
-45 283 -277 0
-48 -283 277 0
-48 283 -277 0
-31 -278 284 0
-31 -277 284 0
-31 -284 278 277 0
-32 -284 278 0
-32 284 -278 0
-33 -284 278 0
-33 284 -278 0
-34 -284 278 0
-34 284 -278 0
-35 -284 278 0
-35 284 -278 0
-36 -284 278 0
-36 -284 279 0
-36 284 -278 -279 0
-37 -284 278 0
-37 -284 280 0
-37 284 -278 -280 0
-38 -284 278 0
-38 -284 281 0
-38 284 -278 -281 0
-39 -284 278 0
-39 -284 282 0
-39 284 -278 -282 0
-40 -284 278 0
-40 284 -278 0
-41 -284 278 0
-41 284 -278 0
-42 -284 278 0
-42 284 -278 0
-43 -284 278 0
-43 284 -278 0
-44 -284 278 0
-44 284 -278 0
-45 -284 278 0
-45 284 -278 0
-48 -284 278 0
-48 284 -278 0
-31 -285 279 0
-31 285 -279 0
-32 -279 285 0
-32 -277 285 0
-32 -285 279 277 0
-33 -285 279 0
-33 285 -279 0
-34 -285 279 0
-34 285 -279 0
-35 -285 279 0
-35 285 -279 0
-36 -279 285 0
-36 -278 285 0
-36 -285 279 278 0
-37 -285 279 0
-37 285 -279 0
-38 -285 279 0
-38 285 -279 0
-39 -285 279 0
-39 285 -279 0
-40 -285 279 0
-40 -285 280 0
-40 285 -279 -280 0
-41 -285 279 0
-41 -285 281 0
-41 285 -279 -281 0
-42 -285 279 0
-42 -285 282 0
-42 285 -279 -282 0
-43 -285 279 0
-43 285 -279 0
-44 -285 279 0
-44 285 -279 0
-45 -285 279 0
-45 285 -279 0
-48 -285 279 0
-48 285 -279 0
-31 -286 280 0
-31 286 -280 0
-32 -286 280 0
-32 286 -280 0
-33 -280 286 0
-33 -277 286 0
-33 -286 280 277 0
-34 -286 280 0
-34 286 -280 0
-35 -286 280 0
-35 286 -280 0
-36 -286 280 0
-36 286 -280 0
-37 -280 286 0
-37 -278 286 0
-37 -286 280 278 0
-38 -286 280 0
-38 286 -280 0
-39 -286 280 0
-39 286 -280 0
-40 -280 286 0
-40 -279 286 0
-40 -286 280 279 0
-41 -286 280 0
-41 286 -280 0
-42 -286 280 0
-42 286 -280 0
-43 -286 280 0
-43 -286 281 0
-43 286 -280 -281 0
-44 -286 280 0
-44 -286 282 0
-44 286 -280 -282 0
-45 -286 280 0
-45 286 -280 0
-48 -286 280 0
-48 286 -280 0
-31 -287 281 0
-31 287 -281 0
-32 -287 281 0
-32 287 -281 0
-33 -287 281 0
-33 287 -281 0
-34 -281 287 0
-34 -277 287 0
-34 -287 281 277 0
-35 -287 281 0
-35 287 -281 0
-36 -287 281 0
-36 287 -281 0
-37 -287 281 0
-37 287 -281 0
-38 -281 287 0
-38 -278 287 0
-38 -287 281 278 0
-39 -287 281 0
-39 287 -281 0
-40 -287 281 0
-40 287 -281 0
-41 -281 287 0
-41 -279 287 0
-41 -287 281 279 0
-42 -287 281 0
-42 287 -281 0
-43 -281 287 0
-43 -280 287 0
-43 -287 281 280 0
-44 -287 281 0
-44 287 -281 0
-45 -287 281 0
-45 -287 282 0
-45 287 -281 -282 0
-48 -287 281 0
-48 287 -281 0
-31 -288 282 0
-31 288 -282 0
-32 -288 282 0
-32 288 -282 0
-33 -288 282 0
-33 288 -282 0
-34 -288 282 0
-34 288 -282 0
-35 -282 288 0
-35 -277 288 0
-35 -288 282 277 0
-36 -288 282 0
-36 288 -282 0
-37 -288 282 0
-37 288 -282 0
-38 -288 282 0
-38 288 -282 0
-39 -282 288 0
-39 -278 288 0
-39 -288 282 278 0
-40 -288 282 0
-40 288 -282 0
-41 -288 282 0
-41 288 -282 0
-42 -282 288 0
-42 -279 288 0
-42 -288 282 279 0
-43 -288 282 0
-43 288 -282 0
-44 -282 288 0
-44 -280 288 0
-44 -288 282 280 0
-45 -282 288 0
-45 -281 288 0
-45 -288 282 281 0
-48 -288 282 0
-48 288 -282 0
-289 0
-1 -295 289 0
-1 -295 290 0
-1 295 -289 -290 0
-2 -295 289 0
-2 -295 291 0
-2 295 -289 -291 0
-3 -295 289 0
-3 -295 292 0
-3 295 -289 -292 0
-4 -295 289 0
-4 -295 293 0
-4 295 -289 -293 0
-5 -295 289 0
-5 -295 294 0
-5 295 -289 -294 0
-6 -295 289 0
-6 295 -289 0
-7 -295 289 0
-7 295 -289 0
-8 -295 289 0
-8 295 -289 0
-9 -295 289 0
-9 295 -289 0
-10 -295 289 0
-10 295 -289 0
-11 -295 289 0
-11 295 -289 0
-12 -295 289 0
-12 295 -289 0
-13 -295 289 0
-13 295 -289 0
-14 -295 289 0
-14 295 -289 0
-15 -295 289 0
-15 295 -289 0
-46 -295 289 0
-46 295 -289 0
290 0
-1 -290 296 0
-1 -289 296 0
-1 -296 290 289 0
-2 -296 290 0
-2 296 -290 0
-3 -296 290 0
-3 296 -290 0
-4 -296 290 0
-4 296 -290 0
-5 -296 290 0
-5 296 -290 0
-6 -296 290 0
-6 -296 291 0
-6 296 -290 -291 0
-7 -296 290 0
-7 -296 292 0
-7 296 -290 -292 0
-8 -296 290 0
-8 -296 293 0
-8 296 -290 -293 0
-9 -296 290 0
-9 -296 294 0
-9 296 -290 -294 0
-10 -296 290 0
-10 296 -290 0
-11 -296 290 0
-11 296 -290 0
-12 -296 290 0
-12 296 -290 0
-13 -296 290 0
-13 296 -290 0
-14 -296 290 0
-14 296 -290 0
-15 -296 290 0
-15 296 -290 0
-46 -296 290 0
-46 296 -290 0
291 0
-1 -297 291 0
-1 297 -291 0
-2 -291 297 0
-2 -289 297 0
-2 -297 291 289 0
-3 -297 291 0
-3 297 -291 0
-4 -297 291 0
-4 297 -291 0
-5 -297 291 0
-5 297 -291 0
-6 -291 297 0
-6 -290 297 0
-6 -297 291 290 0
-7 -297 291 0
-7 297 -291 0
-8 -297 291 0
-8 297 -291 0
-9 -297 291 0
-9 297 -291 0
-10 -297 291 0
-10 -297 292 0
-10 297 -291 -292 0
-11 -297 291 0
-11 -297 293 0
-11 297 -291 -293 0
-12 -297 291 0
-12 -297 294 0
-12 297 -291 -294 0
-13 -297 291 0
-13 297 -291 0
-14 -297 291 0
-14 297 -291 0
-15 -297 291 0
-15 297 -291 0
-46 -297 291 0
-46 297 -291 0
-292 0
-1 -298 292 0
-1 298 -292 0
-2 -298 292 0
-2 298 -292 0
-3 -292 298 0
-3 -289 298 0
-3 -298 292 289 0
-4 -298 292 0
-4 298 -292 0
-5 -298 292 0
-5 298 -292 0
-6 -298 292 0
-6 298 -292 0
-7 -292 298 0
-7 -290 298 0
-7 -298 292 290 0
-8 -298 292 0
-8 298 -292 0
-9 -298 292 0
-9 298 -292 0
-10 -292 298 0
-10 -291 298 0
-10 -298 292 291 0
-11 -298 292 0
-11 298 -292 0
-12 -298 292 0
-12 298 -292 0
-13 -298 292 0
-13 -298 293 0
-13 298 -292 -293 0
-14 -298 292 0
-14 -298 294 0
-14 298 -292 -294 0
-15 -298 292 0
-15 298 -292 0
-46 -298 292 0
-46 298 -292 0
293 0
-1 -299 293 0
-1 299 -293 0
-2 -299 293 0
-2 299 -293 0
-3 -299 293 0
-3 299 -293 0
-4 -293 299 0
-4 -289 299 0
-4 -299 293 289 0
-5 -299 293 0
-5 299 -293 0
-6 -299 293 0
-6 299 -293 0
-7 -299 293 0
-7 299 -293 0
-8 -293 299 0
-8 -290 299 0
-8 -299 293 290 0
-9 -299 293 0
-9 299 -293 0
-10 -299 293 0
-10 299 -293 0
-11 -293 299 0
-11 -291 299 0
-11 -299 293 291 0
-12 -299 293 0
-12 299 -293 0
-13 -293 299 0
-13 -292 299 0
-13 -299 293 292 0
-14 -299 293 0
-14 299 -293 0
-15 -299 293 0
-15 -299 294 0
-15 299 -293 -294 0
-46 -299 293 0
-46 299 -293 0
294 0
-1 -300 294 0
-1 300 -294 0
-2 -300 294 0
-2 300 -294 0
-3 -300 294 0
-3 300 -294 0
-4 -300 294 0
-4 300 -294 0
-5 -294 300 0
-5 -289 300 0
-5 -300 294 289 0
-6 -300 294 0
-6 300 -294 0
-7 -300 294 0
-7 300 -294 0
-8 -300 294 0
-8 300 -294 0
-9 -294 300 0
-9 -290 300 0
-9 -300 294 290 0
-10 -300 294 0
-10 300 -294 0
-11 -300 294 0
-11 300 -294 0
-12 -294 300 0
-12 -291 300 0
-12 -300 294 291 0
-13 -300 294 0
-13 300 -294 0
-14 -294 300 0
-14 -292 300 0
-14 -300 294 292 0
-15 -294 300 0
-15 -293 300 0
-15 -300 294 293 0
-46 -300 294 0
-46 300 -294 0
-16 -301 295 0
-16 -301 296 0
-16 301 -295 -296 0
-17 -301 295 0
-17 -301 297 0
-17 301 -295 -297 0
-18 -301 295 0
-18 -301 298 0
-18 301 -295 -298 0
-19 -301 295 0
-19 -301 299 0
-19 301 -295 -299 0
-20 -301 295 0
-20 -301 300 0
-20 301 -295 -300 0
-21 -301 295 0
-21 301 -295 0
-22 -301 295 0
-22 301 -295 0
-23 -301 295 0
-23 301 -295 0
-24 -301 295 0
-24 301 -295 0
-25 -301 295 0
-25 301 -295 0
-26 -301 295 0
-26 301 -295 0
-27 -301 295 0
-27 301 -295 0
-28 -301 295 0
-28 301 -295 0
-29 -301 295 0
-29 301 -295 0
-30 -301 295 0
-30 301 -295 0
-47 -301 295 0
-47 301 -295 0
-16 -296 302 0
-16 -295 302 0
-16 -302 296 295 0
-17 -302 296 0
-17 302 -296 0
-18 -302 296 0
-18 302 -296 0
-19 -302 296 0
-19 302 -296 0
-20 -302 296 0
-20 302 -296 0
-21 -302 296 0
-21 -302 297 0
-21 302 -296 -297 0
-22 -302 296 0
-22 -302 298 0
-22 302 -296 -298 0
-23 -302 296 0
-23 -302 299 0
-23 302 -296 -299 0
-24 -302 296 0
-24 -302 300 0
-24 302 -296 -300 0
-25 -302 296 0
-25 302 -296 0
-26 -302 296 0
-26 302 -296 0
-27 -302 296 0
-27 302 -296 0
-28 -302 296 0
-28 302 -296 0
-29 -302 296 0
-29 302 -296 0
-30 -302 296 0
-30 302 -296 0
-47 -302 296 0
-47 302 -296 0
-16 -303 297 0
-16 303 -297 0
-17 -297 303 0
-17 -295 303 0
-17 -303 297 295 0
-18 -303 297 0
-18 303 -297 0
-19 -303 297 0
-19 303 -297 0
-20 -303 297 0
-20 303 -297 0
-21 -297 303 0
-21 -296 303 0
-21 -303 297 296 0
-22 -303 297 0
-22 303 -297 0
-23 -303 297 0
-23 303 -297 0
-24 -303 297 0
-24 303 -297 0
-25 -303 297 0
-25 -303 298 0
-25 303 -297 -298 0
-26 -303 297 0
-26 -303 299 0
-26 303 -297 -299 0
-27 -303 297 0
-27 -303 300 0
-27 303 -297 -300 0
-28 -303 297 0
-28 303 -297 0
-29 -303 297 0
-29 303 -297 0
-30 -303 297 0
-30 303 -297 0
-47 -303 297 0
-47 303 -297 0
-16 -304 298 0
-16 304 -298 0
-17 -304 298 0
-17 304 -298 0
-18 -298 304 0
-18 -295 304 0
-18 -304 298 295 0
-19 -304 298 0
-19 304 -298 0
-20 -304 298 0
-20 304 -298 0
-21 -304 298 0
-21 304 -298 0
-22 -298 304 0
-22 -296 304 0
-22 -304 298 296 0
-23 -304 298 0
-23 304 -298 0
-24 -304 298 0
-24 304 -298 0
-25 -298 304 0
-25 -297 304 0
-25 -304 298 297 0
-26 -304 298 0
-26 304 -298 0
-27 -304 298 0
-27 304 -298 0
-28 -304 298 0
-28 -304 299 0
-28 304 -298 -299 0
-29 -304 298 0
-29 -304 300 0
-29 304 -298 -300 0
-30 -304 298 0
-30 304 -298 0
-47 -304 298 0
-47 304 -298 0
-16 -305 299 0
-16 305 -299 0
-17 -305 299 0
-17 305 -299 0
-18 -305 299 0
-18 305 -299 0
-19 -299 305 0
-19 -295 305 0
-19 -305 299 295 0
-20 -305 299 0
-20 305 -299 0
-21 -305 299 0
-21 305 -299 0
-22 -305 299 0
-22 305 -299 0
-23 -299 305 0
-23 -296 305 0
-23 -305 299 296 0
-24 -305 299 0
-24 305 -299 0
-25 -305 299 0
-25 305 -299 0
-26 -299 305 0
-26 -297 305 0
-26 -305 299 297 0
-27 -305 299 0
-27 305 -299 0
-28 -299 305 0
-28 -298 305 0
-28 -305 299 298 0
-29 -305 299 0
-29 305 -299 0
-30 -305 299 0
-30 -305 300 0
-30 305 -299 -300 0
-47 -305 299 0
-47 305 -299 0
-16 -306 300 0
-16 306 -300 0
-17 -306 300 0
-17 306 -300 0
-18 -306 300 0
-18 306 -300 0
-19 -306 300 0
-19 306 -300 0
-20 -300 306 0
-20 -295 306 0
-20 -306 300 295 0
-21 -306 300 0
-21 306 -300 0
-22 -306 300 0
-22 306 -300 0
-23 -306 300 0
-23 306 -300 0
-24 -300 306 0
-24 -296 306 0
-24 -306 300 296 0
-25 -306 300 0
-25 306 -300 0
-26 -306 300 0
-26 306 -300 0
-27 -300 306 0
-27 -297 306 0
-27 -306 300 297 0
-28 -306 300 0
-28 306 -300 0
-29 -300 306 0
-29 -298 306 0
-29 -306 300 298 0
-30 -300 306 0
-30 -299 306 0
-30 -306 300 299 0
-47 -306 300 0
-47 306 -300 0
-31 -307 301 0
-31 -307 302 0
-31 307 -301 -302 0
-32 -307 301 0
-32 -307 303 0
-32 307 -301 -303 0
-33 -307 301 0
-33 -307 304 0
-33 307 -301 -304 0
-34 -307 301 0
-34 -307 305 0
-34 307 -301 -305 0
-35 -307 301 0
-35 -307 306 0
-35 307 -301 -306 0
-36 -307 301 0
-36 307 -301 0
-37 -307 301 0
-37 307 -301 0
-38 -307 301 0
-38 307 -301 0
-39 -307 301 0
-39 307 -301 0
-40 -307 301 0
-40 307 -301 0
-41 -307 301 0
-41 307 -301 0
-42 -307 301 0
-42 307 -301 0
-43 -307 301 0
-43 307 -301 0
-44 -307 301 0
-44 307 -301 0
-45 -307 301 0
-45 307 -301 0
-48 -307 301 0
-48 307 -301 0
-31 -302 308 0
-31 -301 308 0
-31 -308 302 301 0
-32 -308 302 0
-32 308 -302 0
-33 -308 302 0
-33 308 -302 0
-34 -308 302 0
-34 308 -302 0
-35 -308 302 0
-35 308 -302 0
-36 -308 302 0
-36 -308 303 0
-36 308 -302 -303 0
-37 -308 302 0
-37 -308 304 0
-37 308 -302 -304 0
-38 -308 302 0
-38 -308 305 0
-38 308 -302 -305 0
-39 -308 302 0
-39 -308 306 0
-39 308 -302 -306 0
-40 -308 302 0
-40 308 -302 0
-41 -308 302 0
-41 308 -302 0
-42 -308 302 0
-42 308 -302 0
-43 -308 302 0
-43 308 -302 0
-44 -308 302 0
-44 308 -302 0
-45 -308 302 0
-45 308 -302 0
-48 -308 302 0
-48 308 -302 0
-31 -309 303 0
-31 309 -303 0
-32 -303 309 0
-32 -301 309 0
-32 -309 303 301 0
-33 -309 303 0
-33 309 -303 0
-34 -309 303 0
-34 309 -303 0
-35 -309 303 0
-35 309 -303 0
-36 -303 309 0
-36 -302 309 0
-36 -309 303 302 0
-37 -309 303 0
-37 309 -303 0
-38 -309 303 0
-38 309 -303 0
-39 -309 303 0
-39 309 -303 0
-40 -309 303 0
-40 -309 304 0
-40 309 -303 -304 0
-41 -309 303 0
-41 -309 305 0
-41 309 -303 -305 0
-42 -309 303 0
-42 -309 306 0
-42 309 -303 -306 0
-43 -309 303 0
-43 309 -303 0
-44 -309 303 0
-44 309 -303 0
-45 -309 303 0
-45 309 -303 0
-48 -309 303 0
-48 309 -303 0
-31 -310 304 0
-31 310 -304 0
-32 -310 304 0
-32 310 -304 0
-33 -304 310 0
-33 -301 310 0
-33 -310 304 301 0
-34 -310 304 0
-34 310 -304 0
-35 -310 304 0
-35 310 -304 0
-36 -310 304 0
-36 310 -304 0
-37 -304 310 0
-37 -302 310 0
-37 -310 304 302 0
-38 -310 304 0
-38 310 -304 0
-39 -310 304 0
-39 310 -304 0
-40 -304 310 0
-40 -303 310 0
-40 -310 304 303 0
-41 -310 304 0
-41 310 -304 0
-42 -310 304 0
-42 310 -304 0
-43 -310 304 0
-43 -310 305 0
-43 310 -304 -305 0
-44 -310 304 0
-44 -310 306 0
-44 310 -304 -306 0
-45 -310 304 0
-45 310 -304 0
-48 -310 304 0
-48 310 -304 0
-31 -311 305 0
-31 311 -305 0
-32 -311 305 0
-32 311 -305 0
-33 -311 305 0
-33 311 -305 0
-34 -305 311 0
-34 -301 311 0
-34 -311 305 301 0
-35 -311 305 0
-35 311 -305 0
-36 -311 305 0
-36 311 -305 0
-37 -311 305 0
-37 311 -305 0
-38 -305 311 0
-38 -302 311 0
-38 -311 305 302 0
-39 -311 305 0
-39 311 -305 0
-40 -311 305 0
-40 311 -305 0
-41 -305 311 0
-41 -303 311 0
-41 -311 305 303 0
-42 -311 305 0
-42 311 -305 0
-43 -305 311 0
-43 -304 311 0
-43 -311 305 304 0
-44 -311 305 0
-44 311 -305 0
-45 -311 305 0
-45 -311 306 0
-45 311 -305 -306 0
-48 -311 305 0
-48 311 -305 0
-31 -312 306 0
-31 312 -306 0
-32 -312 306 0
-32 312 -306 0
-33 -312 306 0
-33 312 -306 0
-34 -312 306 0
-34 312 -306 0
-35 -306 312 0
-35 -301 312 0
-35 -312 306 301 0
-36 -312 306 0
-36 312 -306 0
-37 -312 306 0
-37 312 -306 0
-38 -312 306 0
-38 312 -306 0
-39 -306 312 0
-39 -302 312 0
-39 -312 306 302 0
-40 -312 306 0
-40 312 -306 0
-41 -312 306 0
-41 312 -306 0
-42 -306 312 0
-42 -303 312 0
-42 -312 306 303 0
-43 -312 306 0
-43 312 -306 0
-44 -306 312 0
-44 -304 312 0
-44 -312 306 304 0
-45 -306 312 0
-45 -305 312 0
-45 -312 306 305 0
-48 -312 306 0
-48 312 -306 0
-313 0
-1 -319 313 0
-1 -319 314 0
-1 319 -313 -314 0
-2 -319 313 0
-2 -319 315 0
-2 319 -313 -315 0
-3 -319 313 0
-3 -319 316 0
-3 319 -313 -316 0
-4 -319 313 0
-4 -319 317 0
-4 319 -313 -317 0
-5 -319 313 0
-5 -319 318 0
-5 319 -313 -318 0
-6 -319 313 0
-6 319 -313 0
-7 -319 313 0
-7 319 -313 0
-8 -319 313 0
-8 319 -313 0
-9 -319 313 0
-9 319 -313 0
-10 -319 313 0
-10 319 -313 0
-11 -319 313 0
-11 319 -313 0
-12 -319 313 0
-12 319 -313 0
-13 -319 313 0
-13 319 -313 0
-14 -319 313 0
-14 319 -313 0
-15 -319 313 0
-15 319 -313 0
-46 -319 313 0
-46 319 -313 0
314 0
-1 -314 320 0
-1 -313 320 0
-1 -320 314 313 0
-2 -320 314 0
-2 320 -314 0
-3 -320 314 0
-3 320 -314 0
-4 -320 314 0
-4 320 -314 0
-5 -320 314 0
-5 320 -314 0
-6 -320 314 0
-6 -320 315 0
-6 320 -314 -315 0
-7 -320 314 0
-7 -320 316 0
-7 320 -314 -316 0
-8 -320 314 0
-8 -320 317 0
-8 320 -314 -317 0
-9 -320 314 0
-9 -320 318 0
-9 320 -314 -318 0
-10 -320 314 0
-10 320 -314 0
-11 -320 314 0
-11 320 -314 0
-12 -320 314 0
-12 320 -314 0
-13 -320 314 0
-13 320 -314 0
-14 -320 314 0
-14 320 -314 0
-15 -320 314 0
-15 320 -314 0
-46 -320 314 0
-46 320 -314 0
315 0
-1 -321 315 0
-1 321 -315 0
-2 -315 321 0
-2 -313 321 0
-2 -321 315 313 0
-3 -321 315 0
-3 321 -315 0
-4 -321 315 0
-4 321 -315 0
-5 -321 315 0
-5 321 -315 0
-6 -315 321 0
-6 -314 321 0
-6 -321 315 314 0
-7 -321 315 0
-7 321 -315 0
-8 -321 315 0
-8 321 -315 0
-9 -321 315 0
-9 321 -315 0
-10 -321 315 0
-10 -321 316 0
-10 321 -315 -316 0
-11 -321 315 0
-11 -321 317 0
-11 321 -315 -317 0
-12 -321 315 0
-12 -321 318 0
-12 321 -315 -318 0
-13 -321 315 0
-13 321 -315 0
-14 -321 315 0
-14 321 -315 0
-15 -321 315 0
-15 321 -315 0
-46 -321 315 0
-46 321 -315 0
316 0
-1 -322 316 0
-1 322 -316 0
-2 -322 316 0
-2 322 -316 0
-3 -316 322 0
-3 -313 322 0
-3 -322 316 313 0
-4 -322 316 0
-4 322 -316 0
-5 -322 316 0
-5 322 -316 0
-6 -322 316 0
-6 322 -316 0
-7 -316 322 0
-7 -314 322 0
-7 -322 316 314 0
-8 -322 316 0
-8 322 -316 0
-9 -322 316 0
-9 322 -316 0
-10 -316 322 0
-10 -315 322 0
-10 -322 316 315 0
-11 -322 316 0
-11 322 -316 0
-12 -322 316 0
-12 322 -316 0
-13 -322 316 0
-13 -322 317 0
-13 322 -316 -317 0
-14 -322 316 0
-14 -322 318 0
-14 322 -316 -318 0
-15 -322 316 0
-15 322 -316 0
-46 -322 316 0
-46 322 -316 0
317 0
-1 -323 317 0
-1 323 -317 0
-2 -323 317 0
-2 323 -317 0
-3 -323 317 0
-3 323 -317 0
-4 -317 323 0
-4 -313 323 0
-4 -323 317 313 0
-5 -323 317 0
-5 323 -317 0
-6 -323 317 0
-6 323 -317 0
-7 -323 317 0
-7 323 -317 0
-8 -317 323 0
-8 -314 323 0
-8 -323 317 314 0
-9 -323 317 0
-9 323 -317 0
-10 -323 317 0
-10 323 -317 0
-11 -317 323 0
-11 -315 323 0
-11 -323 317 315 0
-12 -323 317 0
-12 323 -317 0
-13 -317 323 0
-13 -316 323 0
-13 -323 317 316 0
-14 -323 317 0
-14 323 -317 0
-15 -323 317 0
-15 -323 318 0
-15 323 -317 -318 0
-46 -323 317 0
-46 323 -317 0
318 0
-1 -324 318 0
-1 324 -318 0
-2 -324 318 0
-2 324 -318 0
-3 -324 318 0
-3 324 -318 0
-4 -324 318 0
-4 324 -318 0
-5 -318 324 0
-5 -313 324 0
-5 -324 318 313 0
-6 -324 318 0
-6 324 -318 0
-7 -324 318 0
-7 324 -318 0
-8 -324 318 0
-8 324 -318 0
-9 -318 324 0
-9 -314 324 0
-9 -324 318 314 0
-10 -324 318 0
-10 324 -318 0
-11 -324 318 0
-11 324 -318 0
-12 -318 324 0
-12 -315 324 0
-12 -324 318 315 0
-13 -324 318 0
-13 324 -318 0
-14 -318 324 0
-14 -316 324 0
-14 -324 318 316 0
-15 -318 324 0
-15 -317 324 0
-15 -324 318 317 0
-46 -324 318 0
-46 324 -318 0
-16 -325 319 0
-16 -325 320 0
-16 325 -319 -320 0
-17 -325 319 0
-17 -325 321 0
-17 325 -319 -321 0
-18 -325 319 0
-18 -325 322 0
-18 325 -319 -322 0
-19 -325 319 0
-19 -325 323 0
-19 325 -319 -323 0
-20 -325 319 0
-20 -325 324 0
-20 325 -319 -324 0
-21 -325 319 0
-21 325 -319 0
-22 -325 319 0
-22 325 -319 0
-23 -325 319 0
-23 325 -319 0
-24 -325 319 0
-24 325 -319 0
-25 -325 319 0
-25 325 -319 0
-26 -325 319 0
-26 325 -319 0
-27 -325 319 0
-27 325 -319 0
-28 -325 319 0
-28 325 -319 0
-29 -325 319 0
-29 325 -319 0
-30 -325 319 0
-30 325 -319 0
-47 -325 319 0
-47 325 -319 0
-16 -320 326 0
-16 -319 326 0
-16 -326 320 319 0
-17 -326 320 0
-17 326 -320 0
-18 -326 320 0
-18 326 -320 0
-19 -326 320 0
-19 326 -320 0
-20 -326 320 0
-20 326 -320 0
-21 -326 320 0
-21 -326 321 0
-21 326 -320 -321 0
-22 -326 320 0
-22 -326 322 0
-22 326 -320 -322 0
-23 -326 320 0
-23 -326 323 0
-23 326 -320 -323 0
-24 -326 320 0
-24 -326 324 0
-24 326 -320 -324 0
-25 -326 320 0
-25 326 -320 0
-26 -326 320 0
-26 326 -320 0
-27 -326 320 0
-27 326 -320 0
-28 -326 320 0
-28 326 -320 0
-29 -326 320 0
-29 326 -320 0
-30 -326 320 0
-30 326 -320 0
-47 -326 320 0
-47 326 -320 0
-16 -327 321 0
-16 327 -321 0
-17 -321 327 0
-17 -319 327 0
-17 -327 321 319 0
-18 -327 321 0
-18 327 -321 0
-19 -327 321 0
-19 327 -321 0
-20 -327 321 0
-20 327 -321 0
-21 -321 327 0
-21 -320 327 0
-21 -327 321 320 0
-22 -327 321 0
-22 327 -321 0
-23 -327 321 0
-23 327 -321 0
-24 -327 321 0
-24 327 -321 0
-25 -327 321 0
-25 -327 322 0
-25 327 -321 -322 0
-26 -327 321 0
-26 -327 323 0
-26 327 -321 -323 0
-27 -327 321 0
-27 -327 324 0
-27 327 -321 -324 0
-28 -327 321 0
-28 327 -321 0
-29 -327 321 0
-29 327 -321 0
-30 -327 321 0
-30 327 -321 0
-47 -327 321 0
-47 327 -321 0
-16 -328 322 0
-16 328 -322 0
-17 -328 322 0
-17 328 -322 0
-18 -322 328 0
-18 -319 328 0
-18 -328 322 319 0
-19 -328 322 0
-19 328 -322 0
-20 -328 322 0
-20 328 -322 0
-21 -328 322 0
-21 328 -322 0
-22 -322 328 0
-22 -320 328 0
-22 -328 322 320 0
-23 -328 322 0
-23 328 -322 0
-24 -328 322 0
-24 328 -322 0
-25 -322 328 0
-25 -321 328 0
-25 -328 322 321 0
-26 -328 322 0
-26 328 -322 0
-27 -328 322 0
-27 328 -322 0
-28 -328 322 0
-28 -328 323 0
-28 328 -322 -323 0
-29 -328 322 0
-29 -328 324 0
-29 328 -322 -324 0
-30 -328 322 0
-30 328 -322 0
-47 -328 322 0
-47 328 -322 0
-16 -329 323 0
-16 329 -323 0
-17 -329 323 0
-17 329 -323 0
-18 -329 323 0
-18 329 -323 0
-19 -323 329 0
-19 -319 329 0
-19 -329 323 319 0
-20 -329 323 0
-20 329 -323 0
-21 -329 323 0
-21 329 -323 0
-22 -329 323 0
-22 329 -323 0
-23 -323 329 0
-23 -320 329 0
-23 -329 323 320 0
-24 -329 323 0
-24 329 -323 0
-25 -329 323 0
-25 329 -323 0
-26 -323 329 0
-26 -321 329 0
-26 -329 323 321 0
-27 -329 323 0
-27 329 -323 0
-28 -323 329 0
-28 -322 329 0
-28 -329 323 322 0
-29 -329 323 0
-29 329 -323 0
-30 -329 323 0
-30 -329 324 0
-30 329 -323 -324 0
-47 -329 323 0
-47 329 -323 0
-16 -330 324 0
-16 330 -324 0
-17 -330 324 0
-17 330 -324 0
-18 -330 324 0
-18 330 -324 0
-19 -330 324 0
-19 330 -324 0
-20 -324 330 0
-20 -319 330 0
-20 -330 324 319 0
-21 -330 324 0
-21 330 -324 0
-22 -330 324 0
-22 330 -324 0
-23 -330 324 0
-23 330 -324 0
-24 -324 330 0
-24 -320 330 0
-24 -330 324 320 0
-25 -330 324 0
-25 330 -324 0
-26 -330 324 0
-26 330 -324 0
-27 -324 330 0
-27 -321 330 0
-27 -330 324 321 0
-28 -330 324 0
-28 330 -324 0
-29 -324 330 0
-29 -322 330 0
-29 -330 324 322 0
-30 -324 330 0
-30 -323 330 0
-30 -330 324 323 0
-47 -330 324 0
-47 330 -324 0
-31 -331 325 0
-31 -331 326 0
-31 331 -325 -326 0
-32 -331 325 0
-32 -331 327 0
-32 331 -325 -327 0
-33 -331 325 0
-33 -331 328 0
-33 331 -325 -328 0
-34 -331 325 0
-34 -331 329 0
-34 331 -325 -329 0
-35 -331 325 0
-35 -331 330 0
-35 331 -325 -330 0
-36 -331 325 0
-36 331 -325 0
-37 -331 325 0
-37 331 -325 0
-38 -331 325 0
-38 331 -325 0
-39 -331 325 0
-39 331 -325 0
-40 -331 325 0
-40 331 -325 0
-41 -331 325 0
-41 331 -325 0
-42 -331 325 0
-42 331 -325 0
-43 -331 325 0
-43 331 -325 0
-44 -331 325 0
-44 331 -325 0
-45 -331 325 0
-45 331 -325 0
-48 -331 325 0
-48 331 -325 0
-31 -326 332 0
-31 -325 332 0
-31 -332 326 325 0
-32 -332 326 0
-32 332 -326 0
-33 -332 326 0
-33 332 -326 0
-34 -332 326 0
-34 332 -326 0
-35 -332 326 0
-35 332 -326 0
-36 -332 326 0
-36 -332 327 0
-36 332 -326 -327 0
-37 -332 326 0
-37 -332 328 0
-37 332 -326 -328 0
-38 -332 326 0
-38 -332 329 0
-38 332 -326 -329 0
-39 -332 326 0
-39 -332 330 0
-39 332 -326 -330 0
-40 -332 326 0
-40 332 -326 0
-41 -332 326 0
-41 332 -326 0
-42 -332 326 0
-42 332 -326 0
-43 -332 326 0
-43 332 -326 0
-44 -332 326 0
-44 332 -326 0
-45 -332 326 0
-45 332 -326 0
-48 -332 326 0
-48 332 -326 0
-31 -333 327 0
-31 333 -327 0
-32 -327 333 0
-32 -325 333 0
-32 -333 327 325 0
-33 -333 327 0
-33 333 -327 0
-34 -333 327 0
-34 333 -327 0
-35 -333 327 0
-35 333 -327 0
-36 -327 333 0
-36 -326 333 0
-36 -333 327 326 0
-37 -333 327 0
-37 333 -327 0
-38 -333 327 0
-38 333 -327 0
-39 -333 327 0
-39 333 -327 0
-40 -333 327 0
-40 -333 328 0
-40 333 -327 -328 0
-41 -333 327 0
-41 -333 329 0
-41 333 -327 -329 0
-42 -333 327 0
-42 -333 330 0
-42 333 -327 -330 0
-43 -333 327 0
-43 333 -327 0
-44 -333 327 0
-44 333 -327 0
-45 -333 327 0
-45 333 -327 0
-48 -333 327 0
-48 333 -327 0
-31 -334 328 0
-31 334 -328 0
-32 -334 328 0
-32 334 -328 0
-33 -328 334 0
-33 -325 334 0
-33 -334 328 325 0
-34 -334 328 0
-34 334 -328 0
-35 -334 328 0
-35 334 -328 0
-36 -334 328 0
-36 334 -328 0
-37 -328 334 0
-37 -326 334 0
-37 -334 328 326 0
-38 -334 328 0
-38 334 -328 0
-39 -334 328 0
-39 334 -328 0
-40 -328 334 0
-40 -327 334 0
-40 -334 328 327 0
-41 -334 328 0
-41 334 -328 0
-42 -334 328 0
-42 334 -328 0
-43 -334 328 0
-43 -334 329 0
-43 334 -328 -329 0
-44 -334 328 0
-44 -334 330 0
-44 334 -328 -330 0
-45 -334 328 0
-45 334 -328 0
-48 -334 328 0
-48 334 -328 0
-31 -335 329 0
-31 335 -329 0
-32 -335 329 0
-32 335 -329 0
-33 -335 329 0
-33 335 -329 0
-34 -329 335 0
-34 -325 335 0
-34 -335 329 325 0
-35 -335 329 0
-35 335 -329 0
-36 -335 329 0
-36 335 -329 0
-37 -335 329 0
-37 335 -329 0
-38 -329 335 0
-38 -326 335 0
-38 -335 329 326 0
-39 -335 329 0
-39 335 -329 0
-40 -335 329 0
-40 335 -329 0
-41 -329 335 0
-41 -327 335 0
-41 -335 329 327 0
-42 -335 329 0
-42 335 -329 0
-43 -329 335 0
-43 -328 335 0
-43 -335 329 328 0
-44 -335 329 0
-44 335 -329 0
-45 -335 329 0
-45 -335 330 0
-45 335 -329 -330 0
-48 -335 329 0
-48 335 -329 0
-31 -336 330 0
-31 336 -330 0
-32 -336 330 0
-32 336 -330 0
-33 -336 330 0
-33 336 -330 0
-34 -336 330 0
-34 336 -330 0
-35 -330 336 0
-35 -325 336 0
-35 -336 330 325 0
-36 -336 330 0
-36 336 -330 0
-37 -336 330 0
-37 336 -330 0
-38 -336 330 0
-38 336 -330 0
-39 -330 336 0
-39 -326 336 0
-39 -336 330 326 0
-40 -336 330 0
-40 336 -330 0
-41 -336 330 0
-41 336 -330 0
-42 -330 336 0
-42 -327 336 0
-42 -336 330 327 0
-43 -336 330 0
-43 336 -330 0
-44 -330 336 0
-44 -328 336 0
-44 -336 330 328 0
-45 -330 336 0
-45 -329 336 0
-45 -336 330 329 0
-48 -336 330 0
-48 336 -330 0
337 0
-1 -343 337 0
-1 -343 338 0
-1 343 -337 -338 0
-2 -343 337 0
-2 -343 339 0
-2 343 -337 -339 0
-3 -343 337 0
-3 -343 340 0
-3 343 -337 -340 0
-4 -343 337 0
-4 -343 341 0
-4 343 -337 -341 0
-5 -343 337 0
-5 -343 342 0
-5 343 -337 -342 0
-6 -343 337 0
-6 343 -337 0
-7 -343 337 0
-7 343 -337 0
-8 -343 337 0
-8 343 -337 0
-9 -343 337 0
-9 343 -337 0
-10 -343 337 0
-10 343 -337 0
-11 -343 337 0
-11 343 -337 0
-12 -343 337 0
-12 343 -337 0
-13 -343 337 0
-13 343 -337 0
-14 -343 337 0
-14 343 -337 0
-15 -343 337 0
-15 343 -337 0
-46 -343 337 0
-46 343 -337 0
338 0
-1 -338 344 0
-1 -337 344 0
-1 -344 338 337 0
-2 -344 338 0
-2 344 -338 0
-3 -344 338 0
-3 344 -338 0
-4 -344 338 0
-4 344 -338 0
-5 -344 338 0
-5 344 -338 0
-6 -344 338 0
-6 -344 339 0
-6 344 -338 -339 0
-7 -344 338 0
-7 -344 340 0
-7 344 -338 -340 0
-8 -344 338 0
-8 -344 341 0
-8 344 -338 -341 0
-9 -344 338 0
-9 -344 342 0
-9 344 -338 -342 0
-10 -344 338 0
-10 344 -338 0
-11 -344 338 0
-11 344 -338 0
-12 -344 338 0
-12 344 -338 0
-13 -344 338 0
-13 344 -338 0
-14 -344 338 0
-14 344 -338 0
-15 -344 338 0
-15 344 -338 0
-46 -344 338 0
-46 344 -338 0
339 0
-1 -345 339 0
-1 345 -339 0
-2 -339 345 0
-2 -337 345 0
-2 -345 339 337 0
-3 -345 339 0
-3 345 -339 0
-4 -345 339 0
-4 345 -339 0
-5 -345 339 0
-5 345 -339 0
-6 -339 345 0
-6 -338 345 0
-6 -345 339 338 0
-7 -345 339 0
-7 345 -339 0
-8 -345 339 0
-8 345 -339 0
-9 -345 339 0
-9 345 -339 0
-10 -345 339 0
-10 -345 340 0
-10 345 -339 -340 0
-11 -345 339 0
-11 -345 341 0
-11 345 -339 -341 0
-12 -345 339 0
-12 -345 342 0
-12 345 -339 -342 0
-13 -345 339 0
-13 345 -339 0
-14 -345 339 0
-14 345 -339 0
-15 -345 339 0
-15 345 -339 0
-46 -345 339 0
-46 345 -339 0
-340 0
-1 -346 340 0
-1 346 -340 0
-2 -346 340 0
-2 346 -340 0
-3 -340 346 0
-3 -337 346 0
-3 -346 340 337 0
-4 -346 340 0
-4 346 -340 0
-5 -346 340 0
-5 346 -340 0
-6 -346 340 0
-6 346 -340 0
-7 -340 346 0
-7 -338 346 0
-7 -346 340 338 0
-8 -346 340 0
-8 346 -340 0
-9 -346 340 0
-9 346 -340 0
-10 -340 346 0
-10 -339 346 0
-10 -346 340 339 0
-11 -346 340 0
-11 346 -340 0
-12 -346 340 0
-12 346 -340 0
-13 -346 340 0
-13 -346 341 0
-13 346 -340 -341 0
-14 -346 340 0
-14 -346 342 0
-14 346 -340 -342 0
-15 -346 340 0
-15 346 -340 0
-46 -346 340 0
-46 346 -340 0
-341 0
-1 -347 341 0
-1 347 -341 0
-2 -347 341 0
-2 347 -341 0
-3 -347 341 0
-3 347 -341 0
-4 -341 347 0
-4 -337 347 0
-4 -347 341 337 0
-5 -347 341 0
-5 347 -341 0
-6 -347 341 0
-6 347 -341 0
-7 -347 341 0
-7 347 -341 0
-8 -341 347 0
-8 -338 347 0
-8 -347 341 338 0
-9 -347 341 0
-9 347 -341 0
-10 -347 341 0
-10 347 -341 0
-11 -341 347 0
-11 -339 347 0
-11 -347 341 339 0
-12 -347 341 0
-12 347 -341 0
-13 -341 347 0
-13 -340 347 0
-13 -347 341 340 0
-14 -347 341 0
-14 347 -341 0
-15 -347 341 0
-15 -347 342 0
-15 347 -341 -342 0
-46 -347 341 0
-46 347 -341 0
-342 0
-1 -348 342 0
-1 348 -342 0
-2 -348 342 0
-2 348 -342 0
-3 -348 342 0
-3 348 -342 0
-4 -348 342 0
-4 348 -342 0
-5 -342 348 0
-5 -337 348 0
-5 -348 342 337 0
-6 -348 342 0
-6 348 -342 0
-7 -348 342 0
-7 348 -342 0
-8 -348 342 0
-8 348 -342 0
-9 -342 348 0
-9 -338 348 0
-9 -348 342 338 0
-10 -348 342 0
-10 348 -342 0
-11 -348 342 0
-11 348 -342 0
-12 -342 348 0
-12 -339 348 0
-12 -348 342 339 0
-13 -348 342 0
-13 348 -342 0
-14 -342 348 0
-14 -340 348 0
-14 -348 342 340 0
-15 -342 348 0
-15 -341 348 0
-15 -348 342 341 0
-46 -348 342 0
-46 348 -342 0
-16 -349 343 0
-16 -349 344 0
-16 349 -343 -344 0
-17 -349 343 0
-17 -349 345 0
-17 349 -343 -345 0
-18 -349 343 0
-18 -349 346 0
-18 349 -343 -346 0
-19 -349 343 0
-19 -349 347 0
-19 349 -343 -347 0
-20 -349 343 0
-20 -349 348 0
-20 349 -343 -348 0
-21 -349 343 0
-21 349 -343 0
-22 -349 343 0
-22 349 -343 0
-23 -349 343 0
-23 349 -343 0
-24 -349 343 0
-24 349 -343 0
-25 -349 343 0
-25 349 -343 0
-26 -349 343 0
-26 349 -343 0
-27 -349 343 0
-27 349 -343 0
-28 -349 343 0
-28 349 -343 0
-29 -349 343 0
-29 349 -343 0
-30 -349 343 0
-30 349 -343 0
-47 -349 343 0
-47 349 -343 0
-16 -344 350 0
-16 -343 350 0
-16 -350 344 343 0
-17 -350 344 0
-17 350 -344 0
-18 -350 344 0
-18 350 -344 0
-19 -350 344 0
-19 350 -344 0
-20 -350 344 0
-20 350 -344 0
-21 -350 344 0
-21 -350 345 0
-21 350 -344 -345 0
-22 -350 344 0
-22 -350 346 0
-22 350 -344 -346 0
-23 -350 344 0
-23 -350 347 0
-23 350 -344 -347 0
-24 -350 344 0
-24 -350 348 0
-24 350 -344 -348 0
-25 -350 344 0
-25 350 -344 0
-26 -350 344 0
-26 350 -344 0
-27 -350 344 0
-27 350 -344 0
-28 -350 344 0
-28 350 -344 0
-29 -350 344 0
-29 350 -344 0
-30 -350 344 0
-30 350 -344 0
-47 -350 344 0
-47 350 -344 0
-16 -351 345 0
-16 351 -345 0
-17 -345 351 0
-17 -343 351 0
-17 -351 345 343 0
-18 -351 345 0
-18 351 -345 0
-19 -351 345 0
-19 351 -345 0
-20 -351 345 0
-20 351 -345 0
-21 -345 351 0
-21 -344 351 0
-21 -351 345 344 0
-22 -351 345 0
-22 351 -345 0
-23 -351 345 0
-23 351 -345 0
-24 -351 345 0
-24 351 -345 0
-25 -351 345 0
-25 -351 346 0
-25 351 -345 -346 0
-26 -351 345 0
-26 -351 347 0
-26 351 -345 -347 0
-27 -351 345 0
-27 -351 348 0
-27 351 -345 -348 0
-28 -351 345 0
-28 351 -345 0
-29 -351 345 0
-29 351 -345 0
-30 -351 345 0
-30 351 -345 0
-47 -351 345 0
-47 351 -345 0
-16 -352 346 0
-16 352 -346 0
-17 -352 346 0
-17 352 -346 0
-18 -346 352 0
-18 -343 352 0
-18 -352 346 343 0
-19 -352 346 0
-19 352 -346 0
-20 -352 346 0
-20 352 -346 0
-21 -352 346 0
-21 352 -346 0
-22 -346 352 0
-22 -344 352 0
-22 -352 346 344 0
-23 -352 346 0
-23 352 -346 0
-24 -352 346 0
-24 352 -346 0
-25 -346 352 0
-25 -345 352 0
-25 -352 346 345 0
-26 -352 346 0
-26 352 -346 0
-27 -352 346 0
-27 352 -346 0
-28 -352 346 0
-28 -352 347 0
-28 352 -346 -347 0
-29 -352 346 0
-29 -352 348 0
-29 352 -346 -348 0
-30 -352 346 0
-30 352 -346 0
-47 -352 346 0
-47 352 -346 0
-16 -353 347 0
-16 353 -347 0
-17 -353 347 0
-17 353 -347 0
-18 -353 347 0
-18 353 -347 0
-19 -347 353 0
-19 -343 353 0
-19 -353 347 343 0
-20 -353 347 0
-20 353 -347 0
-21 -353 347 0
-21 353 -347 0
-22 -353 347 0
-22 353 -347 0
-23 -347 353 0
-23 -344 353 0
-23 -353 347 344 0
-24 -353 347 0
-24 353 -347 0
-25 -353 347 0
-25 353 -347 0
-26 -347 353 0
-26 -345 353 0
-26 -353 347 345 0
-27 -353 347 0
-27 353 -347 0
-28 -347 353 0
-28 -346 353 0
-28 -353 347 346 0
-29 -353 347 0
-29 353 -347 0
-30 -353 347 0
-30 -353 348 0
-30 353 -347 -348 0
-47 -353 347 0
-47 353 -347 0
-16 -354 348 0
-16 354 -348 0
-17 -354 348 0
-17 354 -348 0
-18 -354 348 0
-18 354 -348 0
-19 -354 348 0
-19 354 -348 0
-20 -348 354 0
-20 -343 354 0
-20 -354 348 343 0
-21 -354 348 0
-21 354 -348 0
-22 -354 348 0
-22 354 -348 0
-23 -354 348 0
-23 354 -348 0
-24 -348 354 0
-24 -344 354 0
-24 -354 348 344 0
-25 -354 348 0
-25 354 -348 0
-26 -354 348 0
-26 354 -348 0
-27 -348 354 0
-27 -345 354 0
-27 -354 348 345 0
-28 -354 348 0
-28 354 -348 0
-29 -348 354 0
-29 -346 354 0
-29 -354 348 346 0
-30 -348 354 0
-30 -347 354 0
-30 -354 348 347 0
-47 -354 348 0
-47 354 -348 0
-31 -355 349 0
-31 -355 350 0
-31 355 -349 -350 0
-32 -355 349 0
-32 -355 351 0
-32 355 -349 -351 0
-33 -355 349 0
-33 -355 352 0
-33 355 -349 -352 0
-34 -355 349 0
-34 -355 353 0
-34 355 -349 -353 0
-35 -355 349 0
-35 -355 354 0
-35 355 -349 -354 0
-36 -355 349 0
-36 355 -349 0
-37 -355 349 0
-37 355 -349 0
-38 -355 349 0
-38 355 -349 0
-39 -355 349 0
-39 355 -349 0
-40 -355 349 0
-40 355 -349 0
-41 -355 349 0
-41 355 -349 0
-42 -355 349 0
-42 355 -349 0
-43 -355 349 0
-43 355 -349 0
-44 -355 349 0
-44 355 -349 0
-45 -355 349 0
-45 355 -349 0
-48 -355 349 0
-48 355 -349 0
-31 -350 356 0
-31 -349 356 0
-31 -356 350 349 0
-32 -356 350 0
-32 356 -350 0
-33 -356 350 0
-33 356 -350 0
-34 -356 350 0
-34 356 -350 0
-35 -356 350 0
-35 356 -350 0
-36 -356 350 0
-36 -356 351 0
-36 356 -350 -351 0
-37 -356 350 0
-37 -356 352 0
-37 356 -350 -352 0
-38 -356 350 0
-38 -356 353 0
-38 356 -350 -353 0
-39 -356 350 0
-39 -356 354 0
-39 356 -350 -354 0
-40 -356 350 0
-40 356 -350 0
-41 -356 350 0
-41 356 -350 0
-42 -356 350 0
-42 356 -350 0
-43 -356 350 0
-43 356 -350 0
-44 -356 350 0
-44 356 -350 0
-45 -356 350 0
-45 356 -350 0
-48 -356 350 0
-48 356 -350 0
-31 -357 351 0
-31 357 -351 0
-32 -351 357 0
-32 -349 357 0
-32 -357 351 349 0
-33 -357 351 0
-33 357 -351 0
-34 -357 351 0
-34 357 -351 0
-35 -357 351 0
-35 357 -351 0
-36 -351 357 0
-36 -350 357 0
-36 -357 351 350 0
-37 -357 351 0
-37 357 -351 0
-38 -357 351 0
-38 357 -351 0
-39 -357 351 0
-39 357 -351 0
-40 -357 351 0
-40 -357 352 0
-40 357 -351 -352 0
-41 -357 351 0
-41 -357 353 0
-41 357 -351 -353 0
-42 -357 351 0
-42 -357 354 0
-42 357 -351 -354 0
-43 -357 351 0
-43 357 -351 0
-44 -357 351 0
-44 357 -351 0
-45 -357 351 0
-45 357 -351 0
-48 -357 351 0
-48 357 -351 0
-31 -358 352 0
-31 358 -352 0
-32 -358 352 0
-32 358 -352 0
-33 -352 358 0
-33 -349 358 0
-33 -358 352 349 0
-34 -358 352 0
-34 358 -352 0
-35 -358 352 0
-35 358 -352 0
-36 -358 352 0
-36 358 -352 0
-37 -352 358 0
-37 -350 358 0
-37 -358 352 350 0
-38 -358 352 0
-38 358 -352 0
-39 -358 352 0
-39 358 -352 0
-40 -352 358 0
-40 -351 358 0
-40 -358 352 351 0
-41 -358 352 0
-41 358 -352 0
-42 -358 352 0
-42 358 -352 0
-43 -358 352 0
-43 -358 353 0
-43 358 -352 -353 0
-44 -358 352 0
-44 -358 354 0
-44 358 -352 -354 0
-45 -358 352 0
-45 358 -352 0
-48 -358 352 0
-48 358 -352 0
-31 -359 353 0
-31 359 -353 0
-32 -359 353 0
-32 359 -353 0
-33 -359 353 0
-33 359 -353 0
-34 -353 359 0
-34 -349 359 0
-34 -359 353 349 0
-35 -359 353 0
-35 359 -353 0
-36 -359 353 0
-36 359 -353 0
-37 -359 353 0
-37 359 -353 0
-38 -353 359 0
-38 -350 359 0
-38 -359 353 350 0
-39 -359 353 0
-39 359 -353 0
-40 -359 353 0
-40 359 -353 0
-41 -353 359 0
-41 -351 359 0
-41 -359 353 351 0
-42 -359 353 0
-42 359 -353 0
-43 -353 359 0
-43 -352 359 0
-43 -359 353 352 0
-44 -359 353 0
-44 359 -353 0
-45 -359 353 0
-45 -359 354 0
-45 359 -353 -354 0
-48 -359 353 0
-48 359 -353 0
-31 -360 354 0
-31 360 -354 0
-32 -360 354 0
-32 360 -354 0
-33 -360 354 0
-33 360 -354 0
-34 -360 354 0
-34 360 -354 0
-35 -354 360 0
-35 -349 360 0
-35 -360 354 349 0
-36 -360 354 0
-36 360 -354 0
-37 -360 354 0
-37 360 -354 0
-38 -360 354 0
-38 360 -354 0
-39 -354 360 0
-39 -350 360 0
-39 -360 354 350 0
-40 -360 354 0
-40 360 -354 0
-41 -360 354 0
-41 360 -354 0
-42 -354 360 0
-42 -351 360 0
-42 -360 354 351 0
-43 -360 354 0
-43 360 -354 0
-44 -354 360 0
-44 -352 360 0
-44 -360 354 352 0
-45 -354 360 0
-45 -353 360 0
-45 -360 354 353 0
-48 -360 354 0
-48 360 -354 0
361 0
-1 -367 361 0
-1 -367 362 0
-1 367 -361 -362 0
-2 -367 361 0
-2 -367 363 0
-2 367 -361 -363 0
-3 -367 361 0
-3 -367 364 0
-3 367 -361 -364 0
-4 -367 361 0
-4 -367 365 0
-4 367 -361 -365 0
-5 -367 361 0
-5 -367 366 0
-5 367 -361 -366 0
-6 -367 361 0
-6 367 -361 0
-7 -367 361 0
-7 367 -361 0
-8 -367 361 0
-8 367 -361 0
-9 -367 361 0
-9 367 -361 0
-10 -367 361 0
-10 367 -361 0
-11 -367 361 0
-11 367 -361 0
-12 -367 361 0
-12 367 -361 0
-13 -367 361 0
-13 367 -361 0
-14 -367 361 0
-14 367 -361 0
-15 -367 361 0
-15 367 -361 0
-46 -367 361 0
-46 367 -361 0
362 0
-1 -362 368 0
-1 -361 368 0
-1 -368 362 361 0
-2 -368 362 0
-2 368 -362 0
-3 -368 362 0
-3 368 -362 0
-4 -368 362 0
-4 368 -362 0
-5 -368 362 0
-5 368 -362 0
-6 -368 362 0
-6 -368 363 0
-6 368 -362 -363 0
-7 -368 362 0
-7 -368 364 0
-7 368 -362 -364 0
-8 -368 362 0
-8 -368 365 0
-8 368 -362 -365 0
-9 -368 362 0
-9 -368 366 0
-9 368 -362 -366 0
-10 -368 362 0
-10 368 -362 0
-11 -368 362 0
-11 368 -362 0
-12 -368 362 0
-12 368 -362 0
-13 -368 362 0
-13 368 -362 0
-14 -368 362 0
-14 368 -362 0
-15 -368 362 0
-15 368 -362 0
-46 -368 362 0
-46 368 -362 0
363 0
-1 -369 363 0
-1 369 -363 0
-2 -363 369 0
-2 -361 369 0
-2 -369 363 361 0
-3 -369 363 0
-3 369 -363 0
-4 -369 363 0
-4 369 -363 0
-5 -369 363 0
-5 369 -363 0
-6 -363 369 0
-6 -362 369 0
-6 -369 363 362 0
-7 -369 363 0
-7 369 -363 0
-8 -369 363 0
-8 369 -363 0
-9 -369 363 0
-9 369 -363 0
-10 -369 363 0
-10 -369 364 0
-10 369 -363 -364 0
-11 -369 363 0
-11 -369 365 0
-11 369 -363 -365 0
-12 -369 363 0
-12 -369 366 0
-12 369 -363 -366 0
-13 -369 363 0
-13 369 -363 0
-14 -369 363 0
-14 369 -363 0
-15 -369 363 0
-15 369 -363 0
-46 -369 363 0
-46 369 -363 0
-364 0
-1 -370 364 0
-1 370 -364 0
-2 -370 364 0
-2 370 -364 0
-3 -364 370 0
-3 -361 370 0
-3 -370 364 361 0
-4 -370 364 0
-4 370 -364 0
-5 -370 364 0
-5 370 -364 0
-6 -370 364 0
-6 370 -364 0
-7 -364 370 0
-7 -362 370 0
-7 -370 364 362 0
-8 -370 364 0
-8 370 -364 0
-9 -370 364 0
-9 370 -364 0
-10 -364 370 0
-10 -363 370 0
-10 -370 364 363 0
-11 -370 364 0
-11 370 -364 0
-12 -370 364 0
-12 370 -364 0
-13 -370 364 0
-13 -370 365 0
-13 370 -364 -365 0
-14 -370 364 0
-14 -370 366 0
-14 370 -364 -366 0
-15 -370 364 0
-15 370 -364 0
-46 -370 364 0
-46 370 -364 0
-365 0
-1 -371 365 0
-1 371 -365 0
-2 -371 365 0
-2 371 -365 0
-3 -371 365 0
-3 371 -365 0
-4 -365 371 0
-4 -361 371 0
-4 -371 365 361 0
-5 -371 365 0
-5 371 -365 0
-6 -371 365 0
-6 371 -365 0
-7 -371 365 0
-7 371 -365 0
-8 -365 371 0
-8 -362 371 0
-8 -371 365 362 0
-9 -371 365 0
-9 371 -365 0
-10 -371 365 0
-10 371 -365 0
-11 -365 371 0
-11 -363 371 0
-11 -371 365 363 0
-12 -371 365 0
-12 371 -365 0
-13 -365 371 0
-13 -364 371 0
-13 -371 365 364 0
-14 -371 365 0
-14 371 -365 0
-15 -371 365 0
-15 -371 366 0
-15 371 -365 -366 0
-46 -371 365 0
-46 371 -365 0
366 0
-1 -372 366 0
-1 372 -366 0
-2 -372 366 0
-2 372 -366 0
-3 -372 366 0
-3 372 -366 0
-4 -372 366 0
-4 372 -366 0
-5 -366 372 0
-5 -361 372 0
-5 -372 366 361 0
-6 -372 366 0
-6 372 -366 0
-7 -372 366 0
-7 372 -366 0
-8 -372 366 0
-8 372 -366 0
-9 -366 372 0
-9 -362 372 0
-9 -372 366 362 0
-10 -372 366 0
-10 372 -366 0
-11 -372 366 0
-11 372 -366 0
-12 -366 372 0
-12 -363 372 0
-12 -372 366 363 0
-13 -372 366 0
-13 372 -366 0
-14 -366 372 0
-14 -364 372 0
-14 -372 366 364 0
-15 -366 372 0
-15 -365 372 0
-15 -372 366 365 0
-46 -372 366 0
-46 372 -366 0
-16 -373 367 0
-16 -373 368 0
-16 373 -367 -368 0
-17 -373 367 0
-17 -373 369 0
-17 373 -367 -369 0
-18 -373 367 0
-18 -373 370 0
-18 373 -367 -370 0
-19 -373 367 0
-19 -373 371 0
-19 373 -367 -371 0
-20 -373 367 0
-20 -373 372 0
-20 373 -367 -372 0
-21 -373 367 0
-21 373 -367 0
-22 -373 367 0
-22 373 -367 0
-23 -373 367 0
-23 373 -367 0
-24 -373 367 0
-24 373 -367 0
-25 -373 367 0
-25 373 -367 0
-26 -373 367 0
-26 373 -367 0
-27 -373 367 0
-27 373 -367 0
-28 -373 367 0
-28 373 -367 0
-29 -373 367 0
-29 373 -367 0
-30 -373 367 0
-30 373 -367 0
-47 -373 367 0
-47 373 -367 0
-16 -368 374 0
-16 -367 374 0
-16 -374 368 367 0
-17 -374 368 0
-17 374 -368 0
-18 -374 368 0
-18 374 -368 0
-19 -374 368 0
-19 374 -368 0
-20 -374 368 0
-20 374 -368 0
-21 -374 368 0
-21 -374 369 0
-21 374 -368 -369 0
-22 -374 368 0
-22 -374 370 0
-22 374 -368 -370 0
-23 -374 368 0
-23 -374 371 0
-23 374 -368 -371 0
-24 -374 368 0
-24 -374 372 0
-24 374 -368 -372 0
-25 -374 368 0
-25 374 -368 0
-26 -374 368 0
-26 374 -368 0
-27 -374 368 0
-27 374 -368 0
-28 -374 368 0
-28 374 -368 0
-29 -374 368 0
-29 374 -368 0
-30 -374 368 0
-30 374 -368 0
-47 -374 368 0
-47 374 -368 0
-16 -375 369 0
-16 375 -369 0
-17 -369 375 0
-17 -367 375 0
-17 -375 369 367 0
-18 -375 369 0
-18 375 -369 0
-19 -375 369 0
-19 375 -369 0
-20 -375 369 0
-20 375 -369 0
-21 -369 375 0
-21 -368 375 0
-21 -375 369 368 0
-22 -375 369 0
-22 375 -369 0
-23 -375 369 0
-23 375 -369 0
-24 -375 369 0
-24 375 -369 0
-25 -375 369 0
-25 -375 370 0
-25 375 -369 -370 0
-26 -375 369 0
-26 -375 371 0
-26 375 -369 -371 0
-27 -375 369 0
-27 -375 372 0
-27 375 -369 -372 0
-28 -375 369 0
-28 375 -369 0
-29 -375 369 0
-29 375 -369 0
-30 -375 369 0
-30 375 -369 0
-47 -375 369 0
-47 375 -369 0
-16 -376 370 0
-16 376 -370 0
-17 -376 370 0
-17 376 -370 0
-18 -370 376 0
-18 -367 376 0
-18 -376 370 367 0
-19 -376 370 0
-19 376 -370 0
-20 -376 370 0
-20 376 -370 0
-21 -376 370 0
-21 376 -370 0
-22 -370 376 0
-22 -368 376 0
-22 -376 370 368 0
-23 -376 370 0
-23 376 -370 0
-24 -376 370 0
-24 376 -370 0
-25 -370 376 0
-25 -369 376 0
-25 -376 370 369 0
-26 -376 370 0
-26 376 -370 0
-27 -376 370 0
-27 376 -370 0
-28 -376 370 0
-28 -376 371 0
-28 376 -370 -371 0
-29 -376 370 0
-29 -376 372 0
-29 376 -370 -372 0
-30 -376 370 0
-30 376 -370 0
-47 -376 370 0
-47 376 -370 0
-16 -377 371 0
-16 377 -371 0
-17 -377 371 0
-17 377 -371 0
-18 -377 371 0
-18 377 -371 0
-19 -371 377 0
-19 -367 377 0
-19 -377 371 367 0
-20 -377 371 0
-20 377 -371 0
-21 -377 371 0
-21 377 -371 0
-22 -377 371 0
-22 377 -371 0
-23 -371 377 0
-23 -368 377 0
-23 -377 371 368 0
-24 -377 371 0
-24 377 -371 0
-25 -377 371 0
-25 377 -371 0
-26 -371 377 0
-26 -369 377 0
-26 -377 371 369 0
-27 -377 371 0
-27 377 -371 0
-28 -371 377 0
-28 -370 377 0
-28 -377 371 370 0
-29 -377 371 0
-29 377 -371 0
-30 -377 371 0
-30 -377 372 0
-30 377 -371 -372 0
-47 -377 371 0
-47 377 -371 0
-16 -378 372 0
-16 378 -372 0
-17 -378 372 0
-17 378 -372 0
-18 -378 372 0
-18 378 -372 0
-19 -378 372 0
-19 378 -372 0
-20 -372 378 0
-20 -367 378 0
-20 -378 372 367 0
-21 -378 372 0
-21 378 -372 0
-22 -378 372 0
-22 378 -372 0
-23 -378 372 0
-23 378 -372 0
-24 -372 378 0
-24 -368 378 0
-24 -378 372 368 0
-25 -378 372 0
-25 378 -372 0
-26 -378 372 0
-26 378 -372 0
-27 -372 378 0
-27 -369 378 0
-27 -378 372 369 0
-28 -378 372 0
-28 378 -372 0
-29 -372 378 0
-29 -370 378 0
-29 -378 372 370 0
-30 -372 378 0
-30 -371 378 0
-30 -378 372 371 0
-47 -378 372 0
-47 378 -372 0
-31 -379 373 0
-31 -379 374 0
-31 379 -373 -374 0
-32 -379 373 0
-32 -379 375 0
-32 379 -373 -375 0
-33 -379 373 0
-33 -379 376 0
-33 379 -373 -376 0
-34 -379 373 0
-34 -379 377 0
-34 379 -373 -377 0
-35 -379 373 0
-35 -379 378 0
-35 379 -373 -378 0
-36 -379 373 0
-36 379 -373 0
-37 -379 373 0
-37 379 -373 0
-38 -379 373 0
-38 379 -373 0
-39 -379 373 0
-39 379 -373 0
-40 -379 373 0
-40 379 -373 0
-41 -379 373 0
-41 379 -373 0
-42 -379 373 0
-42 379 -373 0
-43 -379 373 0
-43 379 -373 0
-44 -379 373 0
-44 379 -373 0
-45 -379 373 0
-45 379 -373 0
-48 -379 373 0
-48 379 -373 0
-31 -374 380 0
-31 -373 380 0
-31 -380 374 373 0
-32 -380 374 0
-32 380 -374 0
-33 -380 374 0
-33 380 -374 0
-34 -380 374 0
-34 380 -374 0
-35 -380 374 0
-35 380 -374 0
-36 -380 374 0
-36 -380 375 0
-36 380 -374 -375 0
-37 -380 374 0
-37 -380 376 0
-37 380 -374 -376 0
-38 -380 374 0
-38 -380 377 0
-38 380 -374 -377 0
-39 -380 374 0
-39 -380 378 0
-39 380 -374 -378 0
-40 -380 374 0
-40 380 -374 0
-41 -380 374 0
-41 380 -374 0
-42 -380 374 0
-42 380 -374 0
-43 -380 374 0
-43 380 -374 0
-44 -380 374 0
-44 380 -374 0
-45 -380 374 0
-45 380 -374 0
-48 -380 374 0
-48 380 -374 0
-31 -381 375 0
-31 381 -375 0
-32 -375 381 0
-32 -373 381 0
-32 -381 375 373 0
-33 -381 375 0
-33 381 -375 0
-34 -381 375 0
-34 381 -375 0
-35 -381 375 0
-35 381 -375 0
-36 -375 381 0
-36 -374 381 0
-36 -381 375 374 0
-37 -381 375 0
-37 381 -375 0
-38 -381 375 0
-38 381 -375 0
-39 -381 375 0
-39 381 -375 0
-40 -381 375 0
-40 -381 376 0
-40 381 -375 -376 0
-41 -381 375 0
-41 -381 377 0
-41 381 -375 -377 0
-42 -381 375 0
-42 -381 378 0
-42 381 -375 -378 0
-43 -381 375 0
-43 381 -375 0
-44 -381 375 0
-44 381 -375 0
-45 -381 375 0
-45 381 -375 0
-48 -381 375 0
-48 381 -375 0
-31 -382 376 0
-31 382 -376 0
-32 -382 376 0
-32 382 -376 0
-33 -376 382 0
-33 -373 382 0
-33 -382 376 373 0
-34 -382 376 0
-34 382 -376 0
-35 -382 376 0
-35 382 -376 0
-36 -382 376 0
-36 382 -376 0
-37 -376 382 0
-37 -374 382 0
-37 -382 376 374 0
-38 -382 376 0
-38 382 -376 0
-39 -382 376 0
-39 382 -376 0
-40 -376 382 0
-40 -375 382 0
-40 -382 376 375 0
-41 -382 376 0
-41 382 -376 0
-42 -382 376 0
-42 382 -376 0
-43 -382 376 0
-43 -382 377 0
-43 382 -376 -377 0
-44 -382 376 0
-44 -382 378 0
-44 382 -376 -378 0
-45 -382 376 0
-45 382 -376 0
-48 -382 376 0
-48 382 -376 0
-31 -383 377 0
-31 383 -377 0
-32 -383 377 0
-32 383 -377 0
-33 -383 377 0
-33 383 -377 0
-34 -377 383 0
-34 -373 383 0
-34 -383 377 373 0
-35 -383 377 0
-35 383 -377 0
-36 -383 377 0
-36 383 -377 0
-37 -383 377 0
-37 383 -377 0
-38 -377 383 0
-38 -374 383 0
-38 -383 377 374 0
-39 -383 377 0
-39 383 -377 0
-40 -383 377 0
-40 383 -377 0
-41 -377 383 0
-41 -375 383 0
-41 -383 377 375 0
-42 -383 377 0
-42 383 -377 0
-43 -377 383 0
-43 -376 383 0
-43 -383 377 376 0
-44 -383 377 0
-44 383 -377 0
-45 -383 377 0
-45 -383 378 0
-45 383 -377 -378 0
-48 -383 377 0
-48 383 -377 0
-31 -384 378 0
-31 384 -378 0
-32 -384 378 0
-32 384 -378 0
-33 -384 378 0
-33 384 -378 0
-34 -384 378 0
-34 384 -378 0
-35 -378 384 0
-35 -373 384 0
-35 -384 378 373 0
-36 -384 378 0
-36 384 -378 0
-37 -384 378 0
-37 384 -378 0
-38 -384 378 0
-38 384 -378 0
-39 -378 384 0
-39 -374 384 0
-39 -384 378 374 0
-40 -384 378 0
-40 384 -378 0
-41 -384 378 0
-41 384 -378 0
-42 -378 384 0
-42 -375 384 0
-42 -384 378 375 0
-43 -384 378 0
-43 384 -378 0
-44 -378 384 0
-44 -376 384 0
-44 -384 378 376 0
-45 -378 384 0
-45 -377 384 0
-45 -384 378 377 0
-48 -384 378 0
-48 384 -378 0
385 0
-1 -391 385 0
-1 -391 386 0
-1 391 -385 -386 0
-2 -391 385 0
-2 -391 387 0
-2 391 -385 -387 0
-3 -391 385 0
-3 -391 388 0
-3 391 -385 -388 0
-4 -391 385 0
-4 -391 389 0
-4 391 -385 -389 0
-5 -391 385 0
-5 -391 390 0
-5 391 -385 -390 0
-6 -391 385 0
-6 391 -385 0
-7 -391 385 0
-7 391 -385 0
-8 -391 385 0
-8 391 -385 0
-9 -391 385 0
-9 391 -385 0
-10 -391 385 0
-10 391 -385 0
-11 -391 385 0
-11 391 -385 0
-12 -391 385 0
-12 391 -385 0
-13 -391 385 0
-13 391 -385 0
-14 -391 385 0
-14 391 -385 0
-15 -391 385 0
-15 391 -385 0
-46 -391 385 0
-46 391 -385 0
386 0
-1 -386 392 0
-1 -385 392 0
-1 -392 386 385 0
-2 -392 386 0
-2 392 -386 0
-3 -392 386 0
-3 392 -386 0
-4 -392 386 0
-4 392 -386 0
-5 -392 386 0
-5 392 -386 0
-6 -392 386 0
-6 -392 387 0
-6 392 -386 -387 0
-7 -392 386 0
-7 -392 388 0
-7 392 -386 -388 0
-8 -392 386 0
-8 -392 389 0
-8 392 -386 -389 0
-9 -392 386 0
-9 -392 390 0
-9 392 -386 -390 0
-10 -392 386 0
-10 392 -386 0
-11 -392 386 0
-11 392 -386 0
-12 -392 386 0
-12 392 -386 0
-13 -392 386 0
-13 392 -386 0
-14 -392 386 0
-14 392 -386 0
-15 -392 386 0
-15 392 -386 0
-46 -392 386 0
-46 392 -386 0
387 0
-1 -393 387 0
-1 393 -387 0
-2 -387 393 0
-2 -385 393 0
-2 -393 387 385 0
-3 -393 387 0
-3 393 -387 0
-4 -393 387 0
-4 393 -387 0
-5 -393 387 0
-5 393 -387 0
-6 -387 393 0
-6 -386 393 0
-6 -393 387 386 0
-7 -393 387 0
-7 393 -387 0
-8 -393 387 0
-8 393 -387 0
-9 -393 387 0
-9 393 -387 0
-10 -393 387 0
-10 -393 388 0
-10 393 -387 -388 0
-11 -393 387 0
-11 -393 389 0
-11 393 -387 -389 0
-12 -393 387 0
-12 -393 390 0
-12 393 -387 -390 0
-13 -393 387 0
-13 393 -387 0
-14 -393 387 0
-14 393 -387 0
-15 -393 387 0
-15 393 -387 0
-46 -393 387 0
-46 393 -387 0
-388 0
-1 -394 388 0
-1 394 -388 0
-2 -394 388 0
-2 394 -388 0
-3 -388 394 0
-3 -385 394 0
-3 -394 388 385 0
-4 -394 388 0
-4 394 -388 0
-5 -394 388 0
-5 394 -388 0
-6 -394 388 0
-6 394 -388 0
-7 -388 394 0
-7 -386 394 0
-7 -394 388 386 0
-8 -394 388 0
-8 394 -388 0
-9 -394 388 0
-9 394 -388 0
-10 -388 394 0
-10 -387 394 0
-10 -394 388 387 0
-11 -394 388 0
-11 394 -388 0
-12 -394 388 0
-12 394 -388 0
-13 -394 388 0
-13 -394 389 0
-13 394 -388 -389 0
-14 -394 388 0
-14 -394 390 0
-14 394 -388 -390 0
-15 -394 388 0
-15 394 -388 0
-46 -394 388 0
-46 394 -388 0
389 0
-1 -395 389 0
-1 395 -389 0
-2 -395 389 0
-2 395 -389 0
-3 -395 389 0
-3 395 -389 0
-4 -389 395 0
-4 -385 395 0
-4 -395 389 385 0
-5 -395 389 0
-5 395 -389 0
-6 -395 389 0
-6 395 -389 0
-7 -395 389 0
-7 395 -389 0
-8 -389 395 0
-8 -386 395 0
-8 -395 389 386 0
-9 -395 389 0
-9 395 -389 0
-10 -395 389 0
-10 395 -389 0
-11 -389 395 0
-11 -387 395 0
-11 -395 389 387 0
-12 -395 389 0
-12 395 -389 0
-13 -389 395 0
-13 -388 395 0
-13 -395 389 388 0
-14 -395 389 0
-14 395 -389 0
-15 -395 389 0
-15 -395 390 0
-15 395 -389 -390 0
-46 -395 389 0
-46 395 -389 0
390 0
-1 -396 390 0
-1 396 -390 0
-2 -396 390 0
-2 396 -390 0
-3 -396 390 0
-3 396 -390 0
-4 -396 390 0
-4 396 -390 0
-5 -390 396 0
-5 -385 396 0
-5 -396 390 385 0
-6 -396 390 0
-6 396 -390 0
-7 -396 390 0
-7 396 -390 0
-8 -396 390 0
-8 396 -390 0
-9 -390 396 0
-9 -386 396 0
-9 -396 390 386 0
-10 -396 390 0
-10 396 -390 0
-11 -396 390 0
-11 396 -390 0
-12 -390 396 0
-12 -387 396 0
-12 -396 390 387 0
-13 -396 390 0
-13 396 -390 0
-14 -390 396 0
-14 -388 396 0
-14 -396 390 388 0
-15 -390 396 0
-15 -389 396 0
-15 -396 390 389 0
-46 -396 390 0
-46 396 -390 0
-16 -397 391 0
-16 -397 392 0
-16 397 -391 -392 0
-17 -397 391 0
-17 -397 393 0
-17 397 -391 -393 0
-18 -397 391 0
-18 -397 394 0
-18 397 -391 -394 0
-19 -397 391 0
-19 -397 395 0
-19 397 -391 -395 0
-20 -397 391 0
-20 -397 396 0
-20 397 -391 -396 0
-21 -397 391 0
-21 397 -391 0
-22 -397 391 0
-22 397 -391 0
-23 -397 391 0
-23 397 -391 0
-24 -397 391 0
-24 397 -391 0
-25 -397 391 0
-25 397 -391 0
-26 -397 391 0
-26 397 -391 0
-27 -397 391 0
-27 397 -391 0
-28 -397 391 0
-28 397 -391 0
-29 -397 391 0
-29 397 -391 0
-30 -397 391 0
-30 397 -391 0
-47 -397 391 0
-47 397 -391 0
-16 -392 398 0
-16 -391 398 0
-16 -398 392 391 0
-17 -398 392 0
-17 398 -392 0
-18 -398 392 0
-18 398 -392 0
-19 -398 392 0
-19 398 -392 0
-20 -398 392 0
-20 398 -392 0
-21 -398 392 0
-21 -398 393 0
-21 398 -392 -393 0
-22 -398 392 0
-22 -398 394 0
-22 398 -392 -394 0
-23 -398 392 0
-23 -398 395 0
-23 398 -392 -395 0
-24 -398 392 0
-24 -398 396 0
-24 398 -392 -396 0
-25 -398 392 0
-25 398 -392 0
-26 -398 392 0
-26 398 -392 0
-27 -398 392 0
-27 398 -392 0
-28 -398 392 0
-28 398 -392 0
-29 -398 392 0
-29 398 -392 0
-30 -398 392 0
-30 398 -392 0
-47 -398 392 0
-47 398 -392 0
-16 -399 393 0
-16 399 -393 0
-17 -393 399 0
-17 -391 399 0
-17 -399 393 391 0
-18 -399 393 0
-18 399 -393 0
-19 -399 393 0
-19 399 -393 0
-20 -399 393 0
-20 399 -393 0
-21 -393 399 0
-21 -392 399 0
-21 -399 393 392 0
-22 -399 393 0
-22 399 -393 0
-23 -399 393 0
-23 399 -393 0
-24 -399 393 0
-24 399 -393 0
-25 -399 393 0
-25 -399 394 0
-25 399 -393 -394 0
-26 -399 393 0
-26 -399 395 0
-26 399 -393 -395 0
-27 -399 393 0
-27 -399 396 0
-27 399 -393 -396 0
-28 -399 393 0
-28 399 -393 0
-29 -399 393 0
-29 399 -393 0
-30 -399 393 0
-30 399 -393 0
-47 -399 393 0
-47 399 -393 0
-16 -400 394 0
-16 400 -394 0
-17 -400 394 0
-17 400 -394 0
-18 -394 400 0
-18 -391 400 0
-18 -400 394 391 0
-19 -400 394 0
-19 400 -394 0
-20 -400 394 0
-20 400 -394 0
-21 -400 394 0
-21 400 -394 0
-22 -394 400 0
-22 -392 400 0
-22 -400 394 392 0
-23 -400 394 0
-23 400 -394 0
-24 -400 394 0
-24 400 -394 0
-25 -394 400 0
-25 -393 400 0
-25 -400 394 393 0
-26 -400 394 0
-26 400 -394 0
-27 -400 394 0
-27 400 -394 0
-28 -400 394 0
-28 -400 395 0
-28 400 -394 -395 0
-29 -400 394 0
-29 -400 396 0
-29 400 -394 -396 0
-30 -400 394 0
-30 400 -394 0
-47 -400 394 0
-47 400 -394 0
-16 -401 395 0
-16 401 -395 0
-17 -401 395 0
-17 401 -395 0
-18 -401 395 0
-18 401 -395 0
-19 -395 401 0
-19 -391 401 0
-19 -401 395 391 0
-20 -401 395 0
-20 401 -395 0
-21 -401 395 0
-21 401 -395 0
-22 -401 395 0
-22 401 -395 0
-23 -395 401 0
-23 -392 401 0
-23 -401 395 392 0
-24 -401 395 0
-24 401 -395 0
-25 -401 395 0
-25 401 -395 0
-26 -395 401 0
-26 -393 401 0
-26 -401 395 393 0
-27 -401 395 0
-27 401 -395 0
-28 -395 401 0
-28 -394 401 0
-28 -401 395 394 0
-29 -401 395 0
-29 401 -395 0
-30 -401 395 0
-30 -401 396 0
-30 401 -395 -396 0
-47 -401 395 0
-47 401 -395 0
-16 -402 396 0
-16 402 -396 0
-17 -402 396 0
-17 402 -396 0
-18 -402 396 0
-18 402 -396 0
-19 -402 396 0
-19 402 -396 0
-20 -396 402 0
-20 -391 402 0
-20 -402 396 391 0
-21 -402 396 0
-21 402 -396 0
-22 -402 396 0
-22 402 -396 0
-23 -402 396 0
-23 402 -396 0
-24 -396 402 0
-24 -392 402 0
-24 -402 396 392 0
-25 -402 396 0
-25 402 -396 0
-26 -402 396 0
-26 402 -396 0
-27 -396 402 0
-27 -393 402 0
-27 -402 396 393 0
-28 -402 396 0
-28 402 -396 0
-29 -396 402 0
-29 -394 402 0
-29 -402 396 394 0
-30 -396 402 0
-30 -395 402 0
-30 -402 396 395 0
-47 -402 396 0
-47 402 -396 0
-31 -403 397 0
-31 -403 398 0
-31 403 -397 -398 0
-32 -403 397 0
-32 -403 399 0
-32 403 -397 -399 0
-33 -403 397 0
-33 -403 400 0
-33 403 -397 -400 0
-34 -403 397 0
-34 -403 401 0
-34 403 -397 -401 0
-35 -403 397 0
-35 -403 402 0
-35 403 -397 -402 0
-36 -403 397 0
-36 403 -397 0
-37 -403 397 0
-37 403 -397 0
-38 -403 397 0
-38 403 -397 0
-39 -403 397 0
-39 403 -397 0
-40 -403 397 0
-40 403 -397 0
-41 -403 397 0
-41 403 -397 0
-42 -403 397 0
-42 403 -397 0
-43 -403 397 0
-43 403 -397 0
-44 -403 397 0
-44 403 -397 0
-45 -403 397 0
-45 403 -397 0
-48 -403 397 0
-48 403 -397 0
-31 -398 404 0
-31 -397 404 0
-31 -404 398 397 0
-32 -404 398 0
-32 404 -398 0
-33 -404 398 0
-33 404 -398 0
-34 -404 398 0
-34 404 -398 0
-35 -404 398 0
-35 404 -398 0
-36 -404 398 0
-36 -404 399 0
-36 404 -398 -399 0
-37 -404 398 0
-37 -404 400 0
-37 404 -398 -400 0
-38 -404 398 0
-38 -404 401 0
-38 404 -398 -401 0
-39 -404 398 0
-39 -404 402 0
-39 404 -398 -402 0
-40 -404 398 0
-40 404 -398 0
-41 -404 398 0
-41 404 -398 0
-42 -404 398 0
-42 404 -398 0
-43 -404 398 0
-43 404 -398 0
-44 -404 398 0
-44 404 -398 0
-45 -404 398 0
-45 404 -398 0
-48 -404 398 0
-48 404 -398 0
-31 -405 399 0
-31 405 -399 0
-32 -399 405 0
-32 -397 405 0
-32 -405 399 397 0
-33 -405 399 0
-33 405 -399 0
-34 -405 399 0
-34 405 -399 0
-35 -405 399 0
-35 405 -399 0
-36 -399 405 0
-36 -398 405 0
-36 -405 399 398 0
-37 -405 399 0
-37 405 -399 0
-38 -405 399 0
-38 405 -399 0
-39 -405 399 0
-39 405 -399 0
-40 -405 399 0
-40 -405 400 0
-40 405 -399 -400 0
-41 -405 399 0
-41 -405 401 0
-41 405 -399 -401 0
-42 -405 399 0
-42 -405 402 0
-42 405 -399 -402 0
-43 -405 399 0
-43 405 -399 0
-44 -405 399 0
-44 405 -399 0
-45 -405 399 0
-45 405 -399 0
-48 -405 399 0
-48 405 -399 0
-31 -406 400 0
-31 406 -400 0
-32 -406 400 0
-32 406 -400 0
-33 -400 406 0
-33 -397 406 0
-33 -406 400 397 0
-34 -406 400 0
-34 406 -400 0
-35 -406 400 0
-35 406 -400 0
-36 -406 400 0
-36 406 -400 0
-37 -400 406 0
-37 -398 406 0
-37 -406 400 398 0
-38 -406 400 0
-38 406 -400 0
-39 -406 400 0
-39 406 -400 0
-40 -400 406 0
-40 -399 406 0
-40 -406 400 399 0
-41 -406 400 0
-41 406 -400 0
-42 -406 400 0
-42 406 -400 0
-43 -406 400 0
-43 -406 401 0
-43 406 -400 -401 0
-44 -406 400 0
-44 -406 402 0
-44 406 -400 -402 0
-45 -406 400 0
-45 406 -400 0
-48 -406 400 0
-48 406 -400 0
-31 -407 401 0
-31 407 -401 0
-32 -407 401 0
-32 407 -401 0
-33 -407 401 0
-33 407 -401 0
-34 -401 407 0
-34 -397 407 0
-34 -407 401 397 0
-35 -407 401 0
-35 407 -401 0
-36 -407 401 0
-36 407 -401 0
-37 -407 401 0
-37 407 -401 0
-38 -401 407 0
-38 -398 407 0
-38 -407 401 398 0
-39 -407 401 0
-39 407 -401 0
-40 -407 401 0
-40 407 -401 0
-41 -401 407 0
-41 -399 407 0
-41 -407 401 399 0
-42 -407 401 0
-42 407 -401 0
-43 -401 407 0
-43 -400 407 0
-43 -407 401 400 0
-44 -407 401 0
-44 407 -401 0
-45 -407 401 0
-45 -407 402 0
-45 407 -401 -402 0
-48 -407 401 0
-48 407 -401 0
-31 -408 402 0
-31 408 -402 0
-32 -408 402 0
-32 408 -402 0
-33 -408 402 0
-33 408 -402 0
-34 -408 402 0
-34 408 -402 0
-35 -402 408 0
-35 -397 408 0
-35 -408 402 397 0
-36 -408 402 0
-36 408 -402 0
-37 -408 402 0
-37 408 -402 0
-38 -408 402 0
-38 408 -402 0
-39 -402 408 0
-39 -398 408 0
-39 -408 402 398 0
-40 -408 402 0
-40 408 -402 0
-41 -408 402 0
-41 408 -402 0
-42 -402 408 0
-42 -399 408 0
-42 -408 402 399 0
-43 -408 402 0
-43 408 -402 0
-44 -402 408 0
-44 -400 408 0
-44 -408 402 400 0
-45 -402 408 0
-45 -401 408 0
-45 -408 402 401 0
-48 -408 402 0
-48 408 -402 0
409 0
-1 -415 409 0
-1 -415 410 0
-1 415 -409 -410 0
-2 -415 409 0
-2 -415 411 0
-2 415 -409 -411 0
-3 -415 409 0
-3 -415 412 0
-3 415 -409 -412 0
-4 -415 409 0
-4 -415 413 0
-4 415 -409 -413 0
-5 -415 409 0
-5 -415 414 0
-5 415 -409 -414 0
-6 -415 409 0
-6 415 -409 0
-7 -415 409 0
-7 415 -409 0
-8 -415 409 0
-8 415 -409 0
-9 -415 409 0
-9 415 -409 0
-10 -415 409 0
-10 415 -409 0
-11 -415 409 0
-11 415 -409 0
-12 -415 409 0
-12 415 -409 0
-13 -415 409 0
-13 415 -409 0
-14 -415 409 0
-14 415 -409 0
-15 -415 409 0
-15 415 -409 0
-46 -415 409 0
-46 415 -409 0
410 0
-1 -410 416 0
-1 -409 416 0
-1 -416 410 409 0
-2 -416 410 0
-2 416 -410 0
-3 -416 410 0
-3 416 -410 0
-4 -416 410 0
-4 416 -410 0
-5 -416 410 0
-5 416 -410 0
-6 -416 410 0
-6 -416 411 0
-6 416 -410 -411 0
-7 -416 410 0
-7 -416 412 0
-7 416 -410 -412 0
-8 -416 410 0
-8 -416 413 0
-8 416 -410 -413 0
-9 -416 410 0
-9 -416 414 0
-9 416 -410 -414 0
-10 -416 410 0
-10 416 -410 0
-11 -416 410 0
-11 416 -410 0
-12 -416 410 0
-12 416 -410 0
-13 -416 410 0
-13 416 -410 0
-14 -416 410 0
-14 416 -410 0
-15 -416 410 0
-15 416 -410 0
-46 -416 410 0
-46 416 -410 0
411 0
-1 -417 411 0
-1 417 -411 0
-2 -411 417 0
-2 -409 417 0
-2 -417 411 409 0
-3 -417 411 0
-3 417 -411 0
-4 -417 411 0
-4 417 -411 0
-5 -417 411 0
-5 417 -411 0
-6 -411 417 0
-6 -410 417 0
-6 -417 411 410 0
-7 -417 411 0
-7 417 -411 0
-8 -417 411 0
-8 417 -411 0
-9 -417 411 0
-9 417 -411 0
-10 -417 411 0
-10 -417 412 0
-10 417 -411 -412 0
-11 -417 411 0
-11 -417 413 0
-11 417 -411 -413 0
-12 -417 411 0
-12 -417 414 0
-12 417 -411 -414 0
-13 -417 411 0
-13 417 -411 0
-14 -417 411 0
-14 417 -411 0
-15 -417 411 0
-15 417 -411 0
-46 -417 411 0
-46 417 -411 0
412 0
-1 -418 412 0
-1 418 -412 0
-2 -418 412 0
-2 418 -412 0
-3 -412 418 0
-3 -409 418 0
-3 -418 412 409 0
-4 -418 412 0
-4 418 -412 0
-5 -418 412 0
-5 418 -412 0
-6 -418 412 0
-6 418 -412 0
-7 -412 418 0
-7 -410 418 0
-7 -418 412 410 0
-8 -418 412 0
-8 418 -412 0
-9 -418 412 0
-9 418 -412 0
-10 -412 418 0
-10 -411 418 0
-10 -418 412 411 0
-11 -418 412 0
-11 418 -412 0
-12 -418 412 0
-12 418 -412 0
-13 -418 412 0
-13 -418 413 0
-13 418 -412 -413 0
-14 -418 412 0
-14 -418 414 0
-14 418 -412 -414 0
-15 -418 412 0
-15 418 -412 0
-46 -418 412 0
-46 418 -412 0
413 0
-1 -419 413 0
-1 419 -413 0
-2 -419 413 0
-2 419 -413 0
-3 -419 413 0
-3 419 -413 0
-4 -413 419 0
-4 -409 419 0
-4 -419 413 409 0
-5 -419 413 0
-5 419 -413 0
-6 -419 413 0
-6 419 -413 0
-7 -419 413 0
-7 419 -413 0
-8 -413 419 0
-8 -410 419 0
-8 -419 413 410 0
-9 -419 413 0
-9 419 -413 0
-10 -419 413 0
-10 419 -413 0
-11 -413 419 0
-11 -411 419 0
-11 -419 413 411 0
-12 -419 413 0
-12 419 -413 0
-13 -413 419 0
-13 -412 419 0
-13 -419 413 412 0
-14 -419 413 0
-14 419 -413 0
-15 -419 413 0
-15 -419 414 0
-15 419 -413 -414 0
-46 -419 413 0
-46 419 -413 0
414 0
-1 -420 414 0
-1 420 -414 0
-2 -420 414 0
-2 420 -414 0
-3 -420 414 0
-3 420 -414 0
-4 -420 414 0
-4 420 -414 0
-5 -414 420 0
-5 -409 420 0
-5 -420 414 409 0
-6 -420 414 0
-6 420 -414 0
-7 -420 414 0
-7 420 -414 0
-8 -420 414 0
-8 420 -414 0
-9 -414 420 0
-9 -410 420 0
-9 -420 414 410 0
-10 -420 414 0
-10 420 -414 0
-11 -420 414 0
-11 420 -414 0
-12 -414 420 0
-12 -411 420 0
-12 -420 414 411 0
-13 -420 414 0
-13 420 -414 0
-14 -414 420 0
-14 -412 420 0
-14 -420 414 412 0
-15 -414 420 0
-15 -413 420 0
-15 -420 414 413 0
-46 -420 414 0
-46 420 -414 0
-16 -421 415 0
-16 -421 416 0
-16 421 -415 -416 0
-17 -421 415 0
-17 -421 417 0
-17 421 -415 -417 0
-18 -421 415 0
-18 -421 418 0
-18 421 -415 -418 0
-19 -421 415 0
-19 -421 419 0
-19 421 -415 -419 0
-20 -421 415 0
-20 -421 420 0
-20 421 -415 -420 0
-21 -421 415 0
-21 421 -415 0
-22 -421 415 0
-22 421 -415 0
-23 -421 415 0
-23 421 -415 0
-24 -421 415 0
-24 421 -415 0
-25 -421 415 0
-25 421 -415 0
-26 -421 415 0
-26 421 -415 0
-27 -421 415 0
-27 421 -415 0
-28 -421 415 0
-28 421 -415 0
-29 -421 415 0
-29 421 -415 0
-30 -421 415 0
-30 421 -415 0
-47 -421 415 0
-47 421 -415 0
-16 -416 422 0
-16 -415 422 0
-16 -422 416 415 0
-17 -422 416 0
-17 422 -416 0
-18 -422 416 0
-18 422 -416 0
-19 -422 416 0
-19 422 -416 0
-20 -422 416 0
-20 422 -416 0
-21 -422 416 0
-21 -422 417 0
-21 422 -416 -417 0
-22 -422 416 0
-22 -422 418 0
-22 422 -416 -418 0
-23 -422 416 0
-23 -422 419 0
-23 422 -416 -419 0
-24 -422 416 0
-24 -422 420 0
-24 422 -416 -420 0
-25 -422 416 0
-25 422 -416 0
-26 -422 416 0
-26 422 -416 0
-27 -422 416 0
-27 422 -416 0
-28 -422 416 0
-28 422 -416 0
-29 -422 416 0
-29 422 -416 0
-30 -422 416 0
-30 422 -416 0
-47 -422 416 0
-47 422 -416 0
-16 -423 417 0
-16 423 -417 0
-17 -417 423 0
-17 -415 423 0
-17 -423 417 415 0
-18 -423 417 0
-18 423 -417 0
-19 -423 417 0
-19 423 -417 0
-20 -423 417 0
-20 423 -417 0
-21 -417 423 0
-21 -416 423 0
-21 -423 417 416 0
-22 -423 417 0
-22 423 -417 0
-23 -423 417 0
-23 423 -417 0
-24 -423 417 0
-24 423 -417 0
-25 -423 417 0
-25 -423 418 0
-25 423 -417 -418 0
-26 -423 417 0
-26 -423 419 0
-26 423 -417 -419 0
-27 -423 417 0
-27 -423 420 0
-27 423 -417 -420 0
-28 -423 417 0
-28 423 -417 0
-29 -423 417 0
-29 423 -417 0
-30 -423 417 0
-30 423 -417 0
-47 -423 417 0
-47 423 -417 0
-16 -424 418 0
-16 424 -418 0
-17 -424 418 0
-17 424 -418 0
-18 -418 424 0
-18 -415 424 0
-18 -424 418 415 0
-19 -424 418 0
-19 424 -418 0
-20 -424 418 0
-20 424 -418 0
-21 -424 418 0
-21 424 -418 0
-22 -418 424 0
-22 -416 424 0
-22 -424 418 416 0
-23 -424 418 0
-23 424 -418 0
-24 -424 418 0
-24 424 -418 0
-25 -418 424 0
-25 -417 424 0
-25 -424 418 417 0
-26 -424 418 0
-26 424 -418 0
-27 -424 418 0
-27 424 -418 0
-28 -424 418 0
-28 -424 419 0
-28 424 -418 -419 0
-29 -424 418 0
-29 -424 420 0
-29 424 -418 -420 0
-30 -424 418 0
-30 424 -418 0
-47 -424 418 0
-47 424 -418 0
-16 -425 419 0
-16 425 -419 0
-17 -425 419 0
-17 425 -419 0
-18 -425 419 0
-18 425 -419 0
-19 -419 425 0
-19 -415 425 0
-19 -425 419 415 0
-20 -425 419 0
-20 425 -419 0
-21 -425 419 0
-21 425 -419 0
-22 -425 419 0
-22 425 -419 0
-23 -419 425 0
-23 -416 425 0
-23 -425 419 416 0
-24 -425 419 0
-24 425 -419 0
-25 -425 419 0
-25 425 -419 0
-26 -419 425 0
-26 -417 425 0
-26 -425 419 417 0
-27 -425 419 0
-27 425 -419 0
-28 -419 425 0
-28 -418 425 0
-28 -425 419 418 0
-29 -425 419 0
-29 425 -419 0
-30 -425 419 0
-30 -425 420 0
-30 425 -419 -420 0
-47 -425 419 0
-47 425 -419 0
-16 -426 420 0
-16 426 -420 0
-17 -426 420 0
-17 426 -420 0
-18 -426 420 0
-18 426 -420 0
-19 -426 420 0
-19 426 -420 0
-20 -420 426 0
-20 -415 426 0
-20 -426 420 415 0
-21 -426 420 0
-21 426 -420 0
-22 -426 420 0
-22 426 -420 0
-23 -426 420 0
-23 426 -420 0
-24 -420 426 0
-24 -416 426 0
-24 -426 420 416 0
-25 -426 420 0
-25 426 -420 0
-26 -426 420 0
-26 426 -420 0
-27 -420 426 0
-27 -417 426 0
-27 -426 420 417 0
-28 -426 420 0
-28 426 -420 0
-29 -420 426 0
-29 -418 426 0
-29 -426 420 418 0
-30 -420 426 0
-30 -419 426 0
-30 -426 420 419 0
-47 -426 420 0
-47 426 -420 0
-31 -427 421 0
-31 -427 422 0
-31 427 -421 -422 0
-32 -427 421 0
-32 -427 423 0
-32 427 -421 -423 0
-33 -427 421 0
-33 -427 424 0
-33 427 -421 -424 0
-34 -427 421 0
-34 -427 425 0
-34 427 -421 -425 0
-35 -427 421 0
-35 -427 426 0
-35 427 -421 -426 0
-36 -427 421 0
-36 427 -421 0
-37 -427 421 0
-37 427 -421 0
-38 -427 421 0
-38 427 -421 0
-39 -427 421 0
-39 427 -421 0
-40 -427 421 0
-40 427 -421 0
-41 -427 421 0
-41 427 -421 0
-42 -427 421 0
-42 427 -421 0
-43 -427 421 0
-43 427 -421 0
-44 -427 421 0
-44 427 -421 0
-45 -427 421 0
-45 427 -421 0
-48 -427 421 0
-48 427 -421 0
-31 -422 428 0
-31 -421 428 0
-31 -428 422 421 0
-32 -428 422 0
-32 428 -422 0
-33 -428 422 0
-33 428 -422 0
-34 -428 422 0
-34 428 -422 0
-35 -428 422 0
-35 428 -422 0
-36 -428 422 0
-36 -428 423 0
-36 428 -422 -423 0
-37 -428 422 0
-37 -428 424 0
-37 428 -422 -424 0
-38 -428 422 0
-38 -428 425 0
-38 428 -422 -425 0
-39 -428 422 0
-39 -428 426 0
-39 428 -422 -426 0
-40 -428 422 0
-40 428 -422 0
-41 -428 422 0
-41 428 -422 0
-42 -428 422 0
-42 428 -422 0
-43 -428 422 0
-43 428 -422 0
-44 -428 422 0
-44 428 -422 0
-45 -428 422 0
-45 428 -422 0
-48 -428 422 0
-48 428 -422 0
-31 -429 423 0
-31 429 -423 0
-32 -423 429 0
-32 -421 429 0
-32 -429 423 421 0
-33 -429 423 0
-33 429 -423 0
-34 -429 423 0
-34 429 -423 0
-35 -429 423 0
-35 429 -423 0
-36 -423 429 0
-36 -422 429 0
-36 -429 423 422 0
-37 -429 423 0
-37 429 -423 0
-38 -429 423 0
-38 429 -423 0
-39 -429 423 0
-39 429 -423 0
-40 -429 423 0
-40 -429 424 0
-40 429 -423 -424 0
-41 -429 423 0
-41 -429 425 0
-41 429 -423 -425 0
-42 -429 423 0
-42 -429 426 0
-42 429 -423 -426 0
-43 -429 423 0
-43 429 -423 0
-44 -429 423 0
-44 429 -423 0
-45 -429 423 0
-45 429 -423 0
-48 -429 423 0
-48 429 -423 0
-31 -430 424 0
-31 430 -424 0
-32 -430 424 0
-32 430 -424 0
-33 -424 430 0
-33 -421 430 0
-33 -430 424 421 0
-34 -430 424 0
-34 430 -424 0
-35 -430 424 0
-35 430 -424 0
-36 -430 424 0
-36 430 -424 0
-37 -424 430 0
-37 -422 430 0
-37 -430 424 422 0
-38 -430 424 0
-38 430 -424 0
-39 -430 424 0
-39 430 -424 0
-40 -424 430 0
-40 -423 430 0
-40 -430 424 423 0
-41 -430 424 0
-41 430 -424 0
-42 -430 424 0
-42 430 -424 0
-43 -430 424 0
-43 -430 425 0
-43 430 -424 -425 0
-44 -430 424 0
-44 -430 426 0
-44 430 -424 -426 0
-45 -430 424 0
-45 430 -424 0
-48 -430 424 0
-48 430 -424 0
-31 -431 425 0
-31 431 -425 0
-32 -431 425 0
-32 431 -425 0
-33 -431 425 0
-33 431 -425 0
-34 -425 431 0
-34 -421 431 0
-34 -431 425 421 0
-35 -431 425 0
-35 431 -425 0
-36 -431 425 0
-36 431 -425 0
-37 -431 425 0
-37 431 -425 0
-38 -425 431 0
-38 -422 431 0
-38 -431 425 422 0
-39 -431 425 0
-39 431 -425 0
-40 -431 425 0
-40 431 -425 0
-41 -425 431 0
-41 -423 431 0
-41 -431 425 423 0
-42 -431 425 0
-42 431 -425 0
-43 -425 431 0
-43 -424 431 0
-43 -431 425 424 0
-44 -431 425 0
-44 431 -425 0
-45 -431 425 0
-45 -431 426 0
-45 431 -425 -426 0
-48 -431 425 0
-48 431 -425 0
-31 -432 426 0
-31 432 -426 0
-32 -432 426 0
-32 432 -426 0
-33 -432 426 0
-33 432 -426 0
-34 -432 426 0
-34 432 -426 0
-35 -426 432 0
-35 -421 432 0
-35 -432 426 421 0
-36 -432 426 0
-36 432 -426 0
-37 -432 426 0
-37 432 -426 0
-38 -432 426 0
-38 432 -426 0
-39 -426 432 0
-39 -422 432 0
-39 -432 426 422 0
-40 -432 426 0
-40 432 -426 0
-41 -432 426 0
-41 432 -426 0
-42 -426 432 0
-42 -423 432 0
-42 -432 426 423 0
-43 -432 426 0
-43 432 -426 0
-44 -426 432 0
-44 -424 432 0
-44 -432 426 424 0
-45 -426 432 0
-45 -425 432 0
-45 -432 426 425 0
-48 -432 426 0
-48 432 -426 0
-67 68 0
-68 69 0
-69 70 0
-70 71 0
-71 72 0
-91 92 0
-92 93 0
-93 94 0
-94 95 0
-95 96 0
-115 116 0
-116 117 0
-117 118 0
-118 119 0
-119 120 0
-139 140 0
-140 141 0
-141 142 0
-142 143 0
-143 144 0
-163 164 0
-164 165 0
-165 166 0
-166 167 0
-167 168 0
-187 188 0
-188 189 0
-189 190 0
-190 191 0
-191 192 0
-211 212 0
-212 213 0
-213 214 0
-214 215 0
-215 216 0
-235 236 0
-236 237 0
-237 238 0
-238 239 0
-239 240 0
-259 260 0
-260 261 0
-261 262 0
-262 263 0
-263 264 0
-283 284 0
-284 285 0
-285 286 0
-286 287 0
-287 288 0
-307 308 0
-308 309 0
-309 310 0
-310 311 0
-311 312 0
-331 332 0
-332 333 0
-333 334 0
-334 335 0
-335 336 0
-355 356 0
-356 357 0
-357 358 0
-358 359 0
-359 360 0
-379 380 0
-380 381 0
-381 382 0
-382 383 0
-383 384 0
-403 404 0
-404 405 0
-405 406 0
-406 407 0
-407 408 0
-427 428 0
-428 429 0
-429 430 0
-430 431 0
-431 432 0
