p cnf 1399 31359
1 2 3 4 5 6 7 8 9 10 91 0
-1 -2 0
-1 -3 0
-1 -4 0
-1 -5 0
-1 -6 0
-1 -7 0
-1 -8 0
-1 -9 0
-1 -10 0
-1 -91 0
-2 -3 0
-2 -4 0
-2 -5 0
-2 -6 0
-2 -7 0
-2 -8 0
-2 -9 0
-2 -10 0
-2 -91 0
-3 -4 0
-3 -5 0
-3 -6 0
-3 -7 0
-3 -8 0
-3 -9 0
-3 -10 0
-3 -91 0
-4 -5 0
-4 -6 0
-4 -7 0
-4 -8 0
-4 -9 0
-4 -10 0
-4 -91 0
-5 -6 0
-5 -7 0
-5 -8 0
-5 -9 0
-5 -10 0
-5 -91 0
-6 -7 0
-6 -8 0
-6 -9 0
-6 -10 0
-6 -91 0
-7 -8 0
-7 -9 0
-7 -10 0
-7 -91 0
-8 -9 0
-8 -10 0
-8 -91 0
-9 -10 0
-9 -91 0
-10 -91 0
11 12 13 14 15 16 17 18 19 20 92 0
-11 -12 0
-11 -13 0
-11 -14 0
-11 -15 0
-11 -16 0
-11 -17 0
-11 -18 0
-11 -19 0
-11 -20 0
-11 -92 0
-12 -13 0
-12 -14 0
-12 -15 0
-12 -16 0
-12 -17 0
-12 -18 0
-12 -19 0
-12 -20 0
-12 -92 0
-13 -14 0
-13 -15 0
-13 -16 0
-13 -17 0
-13 -18 0
-13 -19 0
-13 -20 0
-13 -92 0
-14 -15 0
-14 -16 0
-14 -17 0
-14 -18 0
-14 -19 0
-14 -20 0
-14 -92 0
-15 -16 0
-15 -17 0
-15 -18 0
-15 -19 0
-15 -20 0
-15 -92 0
-16 -17 0
-16 -18 0
-16 -19 0
-16 -20 0
-16 -92 0
-17 -18 0
-17 -19 0
-17 -20 0
-17 -92 0
-18 -19 0
-18 -20 0
-18 -92 0
-19 -20 0
-19 -92 0
-20 -92 0
21 22 23 24 25 26 27 28 29 30 93 0
-21 -22 0
-21 -23 0
-21 -24 0
-21 -25 0
-21 -26 0
-21 -27 0
-21 -28 0
-21 -29 0
-21 -30 0
-21 -93 0
-22 -23 0
-22 -24 0
-22 -25 0
-22 -26 0
-22 -27 0
-22 -28 0
-22 -29 0
-22 -30 0
-22 -93 0
-23 -24 0
-23 -25 0
-23 -26 0
-23 -27 0
-23 -28 0
-23 -29 0
-23 -30 0
-23 -93 0
-24 -25 0
-24 -26 0
-24 -27 0
-24 -28 0
-24 -29 0
-24 -30 0
-24 -93 0
-25 -26 0
-25 -27 0
-25 -28 0
-25 -29 0
-25 -30 0
-25 -93 0
-26 -27 0
-26 -28 0
-26 -29 0
-26 -30 0
-26 -93 0
-27 -28 0
-27 -29 0
-27 -30 0
-27 -93 0
-28 -29 0
-28 -30 0
-28 -93 0
-29 -30 0
-29 -93 0
-30 -93 0
31 32 33 34 35 36 37 38 39 40 94 0
-31 -32 0
-31 -33 0
-31 -34 0
-31 -35 0
-31 -36 0
-31 -37 0
-31 -38 0
-31 -39 0
-31 -40 0
-31 -94 0
-32 -33 0
-32 -34 0
-32 -35 0
-32 -36 0
-32 -37 0
-32 -38 0
-32 -39 0
-32 -40 0
-32 -94 0
-33 -34 0
-33 -35 0
-33 -36 0
-33 -37 0
-33 -38 0
-33 -39 0
-33 -40 0
-33 -94 0
-34 -35 0
-34 -36 0
-34 -37 0
-34 -38 0
-34 -39 0
-34 -40 0
-34 -94 0
-35 -36 0
-35 -37 0
-35 -38 0
-35 -39 0
-35 -40 0
-35 -94 0
-36 -37 0
-36 -38 0
-36 -39 0
-36 -40 0
-36 -94 0
-37 -38 0
-37 -39 0
-37 -40 0
-37 -94 0
-38 -39 0
-38 -40 0
-38 -94 0
-39 -40 0
-39 -94 0
-40 -94 0
41 42 43 44 45 46 47 48 49 50 95 0
-41 -42 0
-41 -43 0
-41 -44 0
-41 -45 0
-41 -46 0
-41 -47 0
-41 -48 0
-41 -49 0
-41 -50 0
-41 -95 0
-42 -43 0
-42 -44 0
-42 -45 0
-42 -46 0
-42 -47 0
-42 -48 0
-42 -49 0
-42 -50 0
-42 -95 0
-43 -44 0
-43 -45 0
-43 -46 0
-43 -47 0
-43 -48 0
-43 -49 0
-43 -50 0
-43 -95 0
-44 -45 0
-44 -46 0
-44 -47 0
-44 -48 0
-44 -49 0
-44 -50 0
-44 -95 0
-45 -46 0
-45 -47 0
-45 -48 0
-45 -49 0
-45 -50 0
-45 -95 0
-46 -47 0
-46 -48 0
-46 -49 0
-46 -50 0
-46 -95 0
-47 -48 0
-47 -49 0
-47 -50 0
-47 -95 0
-48 -49 0
-48 -50 0
-48 -95 0
-49 -50 0
-49 -95 0
-50 -95 0
51 52 53 54 55 56 57 58 59 60 96 0
-51 -52 0
-51 -53 0
-51 -54 0
-51 -55 0
-51 -56 0
-51 -57 0
-51 -58 0
-51 -59 0
-51 -60 0
-51 -96 0
-52 -53 0
-52 -54 0
-52 -55 0
-52 -56 0
-52 -57 0
-52 -58 0
-52 -59 0
-52 -60 0
-52 -96 0
-53 -54 0
-53 -55 0
-53 -56 0
-53 -57 0
-53 -58 0
-53 -59 0
-53 -60 0
-53 -96 0
-54 -55 0
-54 -56 0
-54 -57 0
-54 -58 0
-54 -59 0
-54 -60 0
-54 -96 0
-55 -56 0
-55 -57 0
-55 -58 0
-55 -59 0
-55 -60 0
-55 -96 0
-56 -57 0
-56 -58 0
-56 -59 0
-56 -60 0
-56 -96 0
-57 -58 0
-57 -59 0
-57 -60 0
-57 -96 0
-58 -59 0
-58 -60 0
-58 -96 0
-59 -60 0
-59 -96 0
-60 -96 0
61 62 63 64 65 66 67 68 69 70 97 0
-61 -62 0
-61 -63 0
-61 -64 0
-61 -65 0
-61 -66 0
-61 -67 0
-61 -68 0
-61 -69 0
-61 -70 0
-61 -97 0
-62 -63 0
-62 -64 0
-62 -65 0
-62 -66 0
-62 -67 0
-62 -68 0
-62 -69 0
-62 -70 0
-62 -97 0
-63 -64 0
-63 -65 0
-63 -66 0
-63 -67 0
-63 -68 0
-63 -69 0
-63 -70 0
-63 -97 0
-64 -65 0
-64 -66 0
-64 -67 0
-64 -68 0
-64 -69 0
-64 -70 0
-64 -97 0
-65 -66 0
-65 -67 0
-65 -68 0
-65 -69 0
-65 -70 0
-65 -97 0
-66 -67 0
-66 -68 0
-66 -69 0
-66 -70 0
-66 -97 0
-67 -68 0
-67 -69 0
-67 -70 0
-67 -97 0
-68 -69 0
-68 -70 0
-68 -97 0
-69 -70 0
-69 -97 0
-70 -97 0
71 72 73 74 75 76 77 78 79 80 98 0
-71 -72 0
-71 -73 0
-71 -74 0
-71 -75 0
-71 -76 0
-71 -77 0
-71 -78 0
-71 -79 0
-71 -80 0
-71 -98 0
-72 -73 0
-72 -74 0
-72 -75 0
-72 -76 0
-72 -77 0
-72 -78 0
-72 -79 0
-72 -80 0
-72 -98 0
-73 -74 0
-73 -75 0
-73 -76 0
-73 -77 0
-73 -78 0
-73 -79 0
-73 -80 0
-73 -98 0
-74 -75 0
-74 -76 0
-74 -77 0
-74 -78 0
-74 -79 0
-74 -80 0
-74 -98 0
-75 -76 0
-75 -77 0
-75 -78 0
-75 -79 0
-75 -80 0
-75 -98 0
-76 -77 0
-76 -78 0
-76 -79 0
-76 -80 0
-76 -98 0
-77 -78 0
-77 -79 0
-77 -80 0
-77 -98 0
-78 -79 0
-78 -80 0
-78 -98 0
-79 -80 0
-79 -98 0
-80 -98 0
81 82 83 84 85 86 87 88 89 90 99 0
-81 -82 0
-81 -83 0
-81 -84 0
-81 -85 0
-81 -86 0
-81 -87 0
-81 -88 0
-81 -89 0
-81 -90 0
-81 -99 0
-82 -83 0
-82 -84 0
-82 -85 0
-82 -86 0
-82 -87 0
-82 -88 0
-82 -89 0
-82 -90 0
-82 -99 0
-83 -84 0
-83 -85 0
-83 -86 0
-83 -87 0
-83 -88 0
-83 -89 0
-83 -90 0
-83 -99 0
-84 -85 0
-84 -86 0
-84 -87 0
-84 -88 0
-84 -89 0
-84 -90 0
-84 -99 0
-85 -86 0
-85 -87 0
-85 -88 0
-85 -89 0
-85 -90 0
-85 -99 0
-86 -87 0
-86 -88 0
-86 -89 0
-86 -90 0
-86 -99 0
-87 -88 0
-87 -89 0
-87 -90 0
-87 -99 0
-88 -89 0
-88 -90 0
-88 -99 0
-89 -90 0
-89 -99 0
-90 -99 0
1 0
-1 -11 0
-2 -12 0
-3 -13 0
-4 -14 0
-5 -15 0
-6 -16 0
-7 -17 0
-8 -18 0
-9 -19 0
-10 -20 0
-11 -21 0
-12 -22 0
-13 -23 0
-14 -24 0
-15 -25 0
-16 -26 0
-17 -27 0
-18 -28 0
-19 -29 0
-20 -30 0
-21 -31 0
-22 -32 0
-23 -33 0
-24 -34 0
-25 -35 0
-26 -36 0
-27 -37 0
-28 -38 0
-29 -39 0
-30 -40 0
-31 -41 0
-32 -42 0
-33 -43 0
-34 -44 0
-35 -45 0
-36 -46 0
-37 -47 0
-38 -48 0
-39 -49 0
-40 -50 0
-41 -51 0
-42 -52 0
-43 -53 0
-44 -54 0
-45 -55 0
-46 -56 0
-47 -57 0
-48 -58 0
-49 -59 0
-50 -60 0
-51 -61 0
-52 -62 0
-53 -63 0
-54 -64 0
-55 -65 0
-56 -66 0
-57 -67 0
-58 -68 0
-59 -69 0
-60 -70 0
-61 -71 0
-62 -72 0
-63 -73 0
-64 -74 0
-65 -75 0
-66 -76 0
-67 -77 0
-68 -78 0
-69 -79 0
-70 -80 0
-71 -81 0
-72 -82 0
-73 -83 0
-74 -84 0
-75 -85 0
-76 -86 0
-77 -87 0
-78 -88 0
-79 -89 0
-80 -90 0
-5 -13 0
-5 -14 0
-6 -12 0
-6 -14 0
-7 -12 0
-7 -13 0
-8 -11 0
-8 -14 0
-8 -17 0
-9 -11 0
-9 -13 0
-9 -16 0
-10 -11 0
-10 -12 0
-10 -15 0
-15 -23 0
-15 -24 0
-16 -22 0
-16 -24 0
-17 -22 0
-17 -23 0
-18 -21 0
-18 -24 0
-18 -27 0
-19 -21 0
-19 -23 0
-19 -26 0
-20 -21 0
-20 -22 0
-20 -25 0
-25 -33 0
-25 -34 0
-26 -32 0
-26 -34 0
-27 -32 0
-27 -33 0
-28 -31 0
-28 -34 0
-28 -37 0
-29 -31 0
-29 -33 0
-29 -36 0
-30 -31 0
-30 -32 0
-30 -35 0
-35 -43 0
-35 -44 0
-36 -42 0
-36 -44 0
-37 -42 0
-37 -43 0
-38 -41 0
-38 -44 0
-38 -47 0
-39 -41 0
-39 -43 0
-39 -46 0
-40 -41 0
-40 -42 0
-40 -45 0
-45 -53 0
-45 -54 0
-46 -52 0
-46 -54 0
-47 -52 0
-47 -53 0
-48 -51 0
-48 -54 0
-48 -57 0
-49 -51 0
-49 -53 0
-49 -56 0
-50 -51 0
-50 -52 0
-50 -55 0
-55 -63 0
-55 -64 0
-56 -62 0
-56 -64 0
-57 -62 0
-57 -63 0
-58 -61 0
-58 -64 0
-58 -67 0
-59 -61 0
-59 -63 0
-59 -66 0
-60 -61 0
-60 -62 0
-60 -65 0
-65 -73 0
-65 -74 0
-66 -72 0
-66 -74 0
-67 -72 0
-67 -73 0
-68 -71 0
-68 -74 0
-68 -77 0
-69 -71 0
-69 -73 0
-69 -76 0
-70 -71 0
-70 -72 0
-70 -75 0
-75 -83 0
-75 -84 0
-76 -82 0
-76 -84 0
-77 -82 0
-77 -83 0
-78 -81 0
-78 -84 0
-78 -87 0
-79 -81 0
-79 -83 0
-79 -86 0
-80 -81 0
-80 -82 0
-80 -85 0
-100 0
-1 -105 100 0
-1 -105 101 0
-1 105 -100 -101 0
-2 -105 100 0
-2 -105 102 0
-2 105 -100 -102 0
-3 -105 100 0
-3 -105 103 0
-3 105 -100 -103 0
-4 -105 100 0
-4 -105 104 0
-4 105 -100 -104 0
-5 -105 100 0
-5 105 -100 0
-6 -105 100 0
-6 105 -100 0
-7 -105 100 0
-7 105 -100 0
-8 -105 100 0
-8 105 -100 0
-9 -105 100 0
-9 105 -100 0
-10 -105 100 0
-10 105 -100 0
-91 -105 100 0
-91 105 -100 0
-101 0
-1 -101 106 0
-1 -100 106 0
-1 -106 101 100 0
-2 -106 101 0
-2 106 -101 0
-3 -106 101 0
-3 106 -101 0
-4 -106 101 0
-4 106 -101 0
-5 -106 101 0
-5 -106 102 0
-5 106 -101 -102 0
-6 -106 101 0
-6 -106 103 0
-6 106 -101 -103 0
-7 -106 101 0
-7 -106 104 0
-7 106 -101 -104 0
-8 -106 101 0
-8 106 -101 0
-9 -106 101 0
-9 106 -101 0
-10 -106 101 0
-10 106 -101 0
-91 -106 101 0
-91 106 -101 0
-102 0
-1 -107 102 0
-1 107 -102 0
-2 -102 107 0
-2 -100 107 0
-2 -107 102 100 0
-3 -107 102 0
-3 107 -102 0
-4 -107 102 0
-4 107 -102 0
-5 -102 107 0
-5 -101 107 0
-5 -107 102 101 0
-6 -107 102 0
-6 107 -102 0
-7 -107 102 0
-7 107 -102 0
-8 -107 102 0
-8 -107 103 0
-8 107 -102 -103 0
-9 -107 102 0
-9 -107 104 0
-9 107 -102 -104 0
-10 -107 102 0
-10 107 -102 0
-91 -107 102 0
-91 107 -102 0
103 0
-1 -108 103 0
-1 108 -103 0
-2 -108 103 0
-2 108 -103 0
-3 -103 108 0
-3 -100 108 0
-3 -108 103 100 0
-4 -108 103 0
-4 108 -103 0
-5 -108 103 0
-5 108 -103 0
-6 -103 108 0
-6 -101 108 0
-6 -108 103 101 0
-7 -108 103 0
-7 108 -103 0
-8 -103 108 0
-8 -102 108 0
-8 -108 103 102 0
-9 -108 103 0
-9 108 -103 0
-10 -108 103 0
-10 -108 104 0
-10 108 -103 -104 0
-91 -108 103 0
-91 108 -103 0
-104 0
-1 -109 104 0
-1 109 -104 0
-2 -109 104 0
-2 109 -104 0
-3 -109 104 0
-3 109 -104 0
-4 -104 109 0
-4 -100 109 0
-4 -109 104 100 0
-5 -109 104 0
-5 109 -104 0
-6 -109 104 0
-6 109 -104 0
-7 -104 109 0
-7 -101 109 0
-7 -109 104 101 0
-8 -109 104 0
-8 109 -104 0
-9 -104 109 0
-9 -102 109 0
-9 -109 104 102 0
-10 -104 109 0
-10 -103 109 0
-10 -109 104 103 0
-91 -109 104 0
-91 109 -104 0
-11 -110 105 0
-11 -110 106 0
-11 110 -105 -106 0
-12 -110 105 0
-12 -110 107 0
-12 110 -105 -107 0
-13 -110 105 0
-13 -110 108 0
-13 110 -105 -108 0
-14 -110 105 0
-14 -110 109 0
-14 110 -105 -109 0
-15 -110 105 0
-15 110 -105 0
-16 -110 105 0
-16 110 -105 0
-17 -110 105 0
-17 110 -105 0
-18 -110 105 0
-18 110 -105 0
-19 -110 105 0
-19 110 -105 0
-20 -110 105 0
-20 110 -105 0
-92 -110 105 0
-92 110 -105 0
-11 -106 111 0
-11 -105 111 0
-11 -111 106 105 0
-12 -111 106 0
-12 111 -106 0
-13 -111 106 0
-13 111 -106 0
-14 -111 106 0
-14 111 -106 0
-15 -111 106 0
-15 -111 107 0
-15 111 -106 -107 0
-16 -111 106 0
-16 -111 108 0
-16 111 -106 -108 0
-17 -111 106 0
-17 -111 109 0
-17 111 -106 -109 0
-18 -111 106 0
-18 111 -106 0
-19 -111 106 0
-19 111 -106 0
-20 -111 106 0
-20 111 -106 0
-92 -111 106 0
-92 111 -106 0
-11 -112 107 0
-11 112 -107 0
-12 -107 112 0
-12 -105 112 0
-12 -112 107 105 0
-13 -112 107 0
-13 112 -107 0
-14 -112 107 0
-14 112 -107 0
-15 -107 112 0
-15 -106 112 0
-15 -112 107 106 0
-16 -112 107 0
-16 112 -107 0
-17 -112 107 0
-17 112 -107 0
-18 -112 107 0
-18 -112 108 0
-18 112 -107 -108 0
-19 -112 107 0
-19 -112 109 0
-19 112 -107 -109 0
-20 -112 107 0
-20 112 -107 0
-92 -112 107 0
-92 112 -107 0
-11 -113 108 0
-11 113 -108 0
-12 -113 108 0
-12 113 -108 0
-13 -108 113 0
-13 -105 113 0
-13 -113 108 105 0
-14 -113 108 0
-14 113 -108 0
-15 -113 108 0
-15 113 -108 0
-16 -108 113 0
-16 -106 113 0
-16 -113 108 106 0
-17 -113 108 0
-17 113 -108 0
-18 -108 113 0
-18 -107 113 0
-18 -113 108 107 0
-19 -113 108 0
-19 113 -108 0
-20 -113 108 0
-20 -113 109 0
-20 113 -108 -109 0
-92 -113 108 0
-92 113 -108 0
-11 -114 109 0
-11 114 -109 0
-12 -114 109 0
-12 114 -109 0
-13 -114 109 0
-13 114 -109 0
-14 -109 114 0
-14 -105 114 0
-14 -114 109 105 0
-15 -114 109 0
-15 114 -109 0
-16 -114 109 0
-16 114 -109 0
-17 -109 114 0
-17 -106 114 0
-17 -114 109 106 0
-18 -114 109 0
-18 114 -109 0
-19 -109 114 0
-19 -107 114 0
-19 -114 109 107 0
-20 -109 114 0
-20 -108 114 0
-20 -114 109 108 0
-92 -114 109 0
-92 114 -109 0
-21 -115 110 0
-21 -115 111 0
-21 115 -110 -111 0
-22 -115 110 0
-22 -115 112 0
-22 115 -110 -112 0
-23 -115 110 0
-23 -115 113 0
-23 115 -110 -113 0
-24 -115 110 0
-24 -115 114 0
-24 115 -110 -114 0
-25 -115 110 0
-25 115 -110 0
-26 -115 110 0
-26 115 -110 0
-27 -115 110 0
-27 115 -110 0
-28 -115 110 0
-28 115 -110 0
-29 -115 110 0
-29 115 -110 0
-30 -115 110 0
-30 115 -110 0
-93 -115 110 0
-93 115 -110 0
-21 -111 116 0
-21 -110 116 0
-21 -116 111 110 0
-22 -116 111 0
-22 116 -111 0
-23 -116 111 0
-23 116 -111 0
-24 -116 111 0
-24 116 -111 0
-25 -116 111 0
-25 -116 112 0
-25 116 -111 -112 0
-26 -116 111 0
-26 -116 113 0
-26 116 -111 -113 0
-27 -116 111 0
-27 -116 114 0
-27 116 -111 -114 0
-28 -116 111 0
-28 116 -111 0
-29 -116 111 0
-29 116 -111 0
-30 -116 111 0
-30 116 -111 0
-93 -116 111 0
-93 116 -111 0
-21 -117 112 0
-21 117 -112 0
-22 -112 117 0
-22 -110 117 0
-22 -117 112 110 0
-23 -117 112 0
-23 117 -112 0
-24 -117 112 0
-24 117 -112 0
-25 -112 117 0
-25 -111 117 0
-25 -117 112 111 0
-26 -117 112 0
-26 117 -112 0
-27 -117 112 0
-27 117 -112 0
-28 -117 112 0
-28 -117 113 0
-28 117 -112 -113 0
-29 -117 112 0
-29 -117 114 0
-29 117 -112 -114 0
-30 -117 112 0
-30 117 -112 0
-93 -117 112 0
-93 117 -112 0
-21 -118 113 0
-21 118 -113 0
-22 -118 113 0
-22 118 -113 0
-23 -113 118 0
-23 -110 118 0
-23 -118 113 110 0
-24 -118 113 0
-24 118 -113 0
-25 -118 113 0
-25 118 -113 0
-26 -113 118 0
-26 -111 118 0
-26 -118 113 111 0
-27 -118 113 0
-27 118 -113 0
-28 -113 118 0
-28 -112 118 0
-28 -118 113 112 0
-29 -118 113 0
-29 118 -113 0
-30 -118 113 0
-30 -118 114 0
-30 118 -113 -114 0
-93 -118 113 0
-93 118 -113 0
-21 -119 114 0
-21 119 -114 0
-22 -119 114 0
-22 119 -114 0
-23 -119 114 0
-23 119 -114 0
-24 -114 119 0
-24 -110 119 0
-24 -119 114 110 0
-25 -119 114 0
-25 119 -114 0
-26 -119 114 0
-26 119 -114 0
-27 -114 119 0
-27 -111 119 0
-27 -119 114 111 0
-28 -119 114 0
-28 119 -114 0
-29 -114 119 0
-29 -112 119 0
-29 -119 114 112 0
-30 -114 119 0
-30 -113 119 0
-30 -119 114 113 0
-93 -119 114 0
-93 119 -114 0
-31 -120 115 0
-31 -120 116 0
-31 120 -115 -116 0
-32 -120 115 0
-32 -120 117 0
-32 120 -115 -117 0
-33 -120 115 0
-33 -120 118 0
-33 120 -115 -118 0
-34 -120 115 0
-34 -120 119 0
-34 120 -115 -119 0
-35 -120 115 0
-35 120 -115 0
-36 -120 115 0
-36 120 -115 0
-37 -120 115 0
-37 120 -115 0
-38 -120 115 0
-38 120 -115 0
-39 -120 115 0
-39 120 -115 0
-40 -120 115 0
-40 120 -115 0
-94 -120 115 0
-94 120 -115 0
-31 -116 121 0
-31 -115 121 0
-31 -121 116 115 0
-32 -121 116 0
-32 121 -116 0
-33 -121 116 0
-33 121 -116 0
-34 -121 116 0
-34 121 -116 0
-35 -121 116 0
-35 -121 117 0
-35 121 -116 -117 0
-36 -121 116 0
-36 -121 118 0
-36 121 -116 -118 0
-37 -121 116 0
-37 -121 119 0
-37 121 -116 -119 0
-38 -121 116 0
-38 121 -116 0
-39 -121 116 0
-39 121 -116 0
-40 -121 116 0
-40 121 -116 0
-94 -121 116 0
-94 121 -116 0
-31 -122 117 0
-31 122 -117 0
-32 -117 122 0
-32 -115 122 0
-32 -122 117 115 0
-33 -122 117 0
-33 122 -117 0
-34 -122 117 0
-34 122 -117 0
-35 -117 122 0
-35 -116 122 0
-35 -122 117 116 0
-36 -122 117 0
-36 122 -117 0
-37 -122 117 0
-37 122 -117 0
-38 -122 117 0
-38 -122 118 0
-38 122 -117 -118 0
-39 -122 117 0
-39 -122 119 0
-39 122 -117 -119 0
-40 -122 117 0
-40 122 -117 0
-94 -122 117 0
-94 122 -117 0
-31 -123 118 0
-31 123 -118 0
-32 -123 118 0
-32 123 -118 0
-33 -118 123 0
-33 -115 123 0
-33 -123 118 115 0
-34 -123 118 0
-34 123 -118 0
-35 -123 118 0
-35 123 -118 0
-36 -118 123 0
-36 -116 123 0
-36 -123 118 116 0
-37 -123 118 0
-37 123 -118 0
-38 -118 123 0
-38 -117 123 0
-38 -123 118 117 0
-39 -123 118 0
-39 123 -118 0
-40 -123 118 0
-40 -123 119 0
-40 123 -118 -119 0
-94 -123 118 0
-94 123 -118 0
-31 -124 119 0
-31 124 -119 0
-32 -124 119 0
-32 124 -119 0
-33 -124 119 0
-33 124 -119 0
-34 -119 124 0
-34 -115 124 0
-34 -124 119 115 0
-35 -124 119 0
-35 124 -119 0
-36 -124 119 0
-36 124 -119 0
-37 -119 124 0
-37 -116 124 0
-37 -124 119 116 0
-38 -124 119 0
-38 124 -119 0
-39 -119 124 0
-39 -117 124 0
-39 -124 119 117 0
-40 -119 124 0
-40 -118 124 0
-40 -124 119 118 0
-94 -124 119 0
-94 124 -119 0
-41 -125 120 0
-41 -125 121 0
-41 125 -120 -121 0
-42 -125 120 0
-42 -125 122 0
-42 125 -120 -122 0
-43 -125 120 0
-43 -125 123 0
-43 125 -120 -123 0
-44 -125 120 0
-44 -125 124 0
-44 125 -120 -124 0
-45 -125 120 0
-45 125 -120 0
-46 -125 120 0
-46 125 -120 0
-47 -125 120 0
-47 125 -120 0
-48 -125 120 0
-48 125 -120 0
-49 -125 120 0
-49 125 -120 0
-50 -125 120 0
-50 125 -120 0
-95 -125 120 0
-95 125 -120 0
-41 -121 126 0
-41 -120 126 0
-41 -126 121 120 0
-42 -126 121 0
-42 126 -121 0
-43 -126 121 0
-43 126 -121 0
-44 -126 121 0
-44 126 -121 0
-45 -126 121 0
-45 -126 122 0
-45 126 -121 -122 0
-46 -126 121 0
-46 -126 123 0
-46 126 -121 -123 0
-47 -126 121 0
-47 -126 124 0
-47 126 -121 -124 0
-48 -126 121 0
-48 126 -121 0
-49 -126 121 0
-49 126 -121 0
-50 -126 121 0
-50 126 -121 0
-95 -126 121 0
-95 126 -121 0
-41 -127 122 0
-41 127 -122 0
-42 -122 127 0
-42 -120 127 0
-42 -127 122 120 0
-43 -127 122 0
-43 127 -122 0
-44 -127 122 0
-44 127 -122 0
-45 -122 127 0
-45 -121 127 0
-45 -127 122 121 0
-46 -127 122 0
-46 127 -122 0
-47 -127 122 0
-47 127 -122 0
-48 -127 122 0
-48 -127 123 0
-48 127 -122 -123 0
-49 -127 122 0
-49 -127 124 0
-49 127 -122 -124 0
-50 -127 122 0
-50 127 -122 0
-95 -127 122 0
-95 127 -122 0
-41 -128 123 0
-41 128 -123 0
-42 -128 123 0
-42 128 -123 0
-43 -123 128 0
-43 -120 128 0
-43 -128 123 120 0
-44 -128 123 0
-44 128 -123 0
-45 -128 123 0
-45 128 -123 0
-46 -123 128 0
-46 -121 128 0
-46 -128 123 121 0
-47 -128 123 0
-47 128 -123 0
-48 -123 128 0
-48 -122 128 0
-48 -128 123 122 0
-49 -128 123 0
-49 128 -123 0
-50 -128 123 0
-50 -128 124 0
-50 128 -123 -124 0
-95 -128 123 0
-95 128 -123 0
-41 -129 124 0
-41 129 -124 0
-42 -129 124 0
-42 129 -124 0
-43 -129 124 0
-43 129 -124 0
-44 -124 129 0
-44 -120 129 0
-44 -129 124 120 0
-45 -129 124 0
-45 129 -124 0
-46 -129 124 0
-46 129 -124 0
-47 -124 129 0
-47 -121 129 0
-47 -129 124 121 0
-48 -129 124 0
-48 129 -124 0
-49 -124 129 0
-49 -122 129 0
-49 -129 124 122 0
-50 -124 129 0
-50 -123 129 0
-50 -129 124 123 0
-95 -129 124 0
-95 129 -124 0
-51 -130 125 0
-51 -130 126 0
-51 130 -125 -126 0
-52 -130 125 0
-52 -130 127 0
-52 130 -125 -127 0
-53 -130 125 0
-53 -130 128 0
-53 130 -125 -128 0
-54 -130 125 0
-54 -130 129 0
-54 130 -125 -129 0
-55 -130 125 0
-55 130 -125 0
-56 -130 125 0
-56 130 -125 0
-57 -130 125 0
-57 130 -125 0
-58 -130 125 0
-58 130 -125 0
-59 -130 125 0
-59 130 -125 0
-60 -130 125 0
-60 130 -125 0
-96 -130 125 0
-96 130 -125 0
-51 -126 131 0
-51 -125 131 0
-51 -131 126 125 0
-52 -131 126 0
-52 131 -126 0
-53 -131 126 0
-53 131 -126 0
-54 -131 126 0
-54 131 -126 0
-55 -131 126 0
-55 -131 127 0
-55 131 -126 -127 0
-56 -131 126 0
-56 -131 128 0
-56 131 -126 -128 0
-57 -131 126 0
-57 -131 129 0
-57 131 -126 -129 0
-58 -131 126 0
-58 131 -126 0
-59 -131 126 0
-59 131 -126 0
-60 -131 126 0
-60 131 -126 0
-96 -131 126 0
-96 131 -126 0
-51 -132 127 0
-51 132 -127 0
-52 -127 132 0
-52 -125 132 0
-52 -132 127 125 0
-53 -132 127 0
-53 132 -127 0
-54 -132 127 0
-54 132 -127 0
-55 -127 132 0
-55 -126 132 0
-55 -132 127 126 0
-56 -132 127 0
-56 132 -127 0
-57 -132 127 0
-57 132 -127 0
-58 -132 127 0
-58 -132 128 0
-58 132 -127 -128 0
-59 -132 127 0
-59 -132 129 0
-59 132 -127 -129 0
-60 -132 127 0
-60 132 -127 0
-96 -132 127 0
-96 132 -127 0
-51 -133 128 0
-51 133 -128 0
-52 -133 128 0
-52 133 -128 0
-53 -128 133 0
-53 -125 133 0
-53 -133 128 125 0
-54 -133 128 0
-54 133 -128 0
-55 -133 128 0
-55 133 -128 0
-56 -128 133 0
-56 -126 133 0
-56 -133 128 126 0
-57 -133 128 0
-57 133 -128 0
-58 -128 133 0
-58 -127 133 0
-58 -133 128 127 0
-59 -133 128 0
-59 133 -128 0
-60 -133 128 0
-60 -133 129 0
-60 133 -128 -129 0
-96 -133 128 0
-96 133 -128 0
-51 -134 129 0
-51 134 -129 0
-52 -134 129 0
-52 134 -129 0
-53 -134 129 0
-53 134 -129 0
-54 -129 134 0
-54 -125 134 0
-54 -134 129 125 0
-55 -134 129 0
-55 134 -129 0
-56 -134 129 0
-56 134 -129 0
-57 -129 134 0
-57 -126 134 0
-57 -134 129 126 0
-58 -134 129 0
-58 134 -129 0
-59 -129 134 0
-59 -127 134 0
-59 -134 129 127 0
-60 -129 134 0
-60 -128 134 0
-60 -134 129 128 0
-96 -134 129 0
-96 134 -129 0
-61 -135 130 0
-61 -135 131 0
-61 135 -130 -131 0
-62 -135 130 0
-62 -135 132 0
-62 135 -130 -132 0
-63 -135 130 0
-63 -135 133 0
-63 135 -130 -133 0
-64 -135 130 0
-64 -135 134 0
-64 135 -130 -134 0
-65 -135 130 0
-65 135 -130 0
-66 -135 130 0
-66 135 -130 0
-67 -135 130 0
-67 135 -130 0
-68 -135 130 0
-68 135 -130 0
-69 -135 130 0
-69 135 -130 0
-70 -135 130 0
-70 135 -130 0
-97 -135 130 0
-97 135 -130 0
-61 -131 136 0
-61 -130 136 0
-61 -136 131 130 0
-62 -136 131 0
-62 136 -131 0
-63 -136 131 0
-63 136 -131 0
-64 -136 131 0
-64 136 -131 0
-65 -136 131 0
-65 -136 132 0
-65 136 -131 -132 0
-66 -136 131 0
-66 -136 133 0
-66 136 -131 -133 0
-67 -136 131 0
-67 -136 134 0
-67 136 -131 -134 0
-68 -136 131 0
-68 136 -131 0
-69 -136 131 0
-69 136 -131 0
-70 -136 131 0
-70 136 -131 0
-97 -136 131 0
-97 136 -131 0
-61 -137 132 0
-61 137 -132 0
-62 -132 137 0
-62 -130 137 0
-62 -137 132 130 0
-63 -137 132 0
-63 137 -132 0
-64 -137 132 0
-64 137 -132 0
-65 -132 137 0
-65 -131 137 0
-65 -137 132 131 0
-66 -137 132 0
-66 137 -132 0
-67 -137 132 0
-67 137 -132 0
-68 -137 132 0
-68 -137 133 0
-68 137 -132 -133 0
-69 -137 132 0
-69 -137 134 0
-69 137 -132 -134 0
-70 -137 132 0
-70 137 -132 0
-97 -137 132 0
-97 137 -132 0
-61 -138 133 0
-61 138 -133 0
-62 -138 133 0
-62 138 -133 0
-63 -133 138 0
-63 -130 138 0
-63 -138 133 130 0
-64 -138 133 0
-64 138 -133 0
-65 -138 133 0
-65 138 -133 0
-66 -133 138 0
-66 -131 138 0
-66 -138 133 131 0
-67 -138 133 0
-67 138 -133 0
-68 -133 138 0
-68 -132 138 0
-68 -138 133 132 0
-69 -138 133 0
-69 138 -133 0
-70 -138 133 0
-70 -138 134 0
-70 138 -133 -134 0
-97 -138 133 0
-97 138 -133 0
-61 -139 134 0
-61 139 -134 0
-62 -139 134 0
-62 139 -134 0
-63 -139 134 0
-63 139 -134 0
-64 -134 139 0
-64 -130 139 0
-64 -139 134 130 0
-65 -139 134 0
-65 139 -134 0
-66 -139 134 0
-66 139 -134 0
-67 -134 139 0
-67 -131 139 0
-67 -139 134 131 0
-68 -139 134 0
-68 139 -134 0
-69 -134 139 0
-69 -132 139 0
-69 -139 134 132 0
-70 -134 139 0
-70 -133 139 0
-70 -139 134 133 0
-97 -139 134 0
-97 139 -134 0
-71 -140 135 0
-71 -140 136 0
-71 140 -135 -136 0
-72 -140 135 0
-72 -140 137 0
-72 140 -135 -137 0
-73 -140 135 0
-73 -140 138 0
-73 140 -135 -138 0
-74 -140 135 0
-74 -140 139 0
-74 140 -135 -139 0
-75 -140 135 0
-75 140 -135 0
-76 -140 135 0
-76 140 -135 0
-77 -140 135 0
-77 140 -135 0
-78 -140 135 0
-78 140 -135 0
-79 -140 135 0
-79 140 -135 0
-80 -140 135 0
-80 140 -135 0
-98 -140 135 0
-98 140 -135 0
-71 -136 141 0
-71 -135 141 0
-71 -141 136 135 0
-72 -141 136 0
-72 141 -136 0
-73 -141 136 0
-73 141 -136 0
-74 -141 136 0
-74 141 -136 0
-75 -141 136 0
-75 -141 137 0
-75 141 -136 -137 0
-76 -141 136 0
-76 -141 138 0
-76 141 -136 -138 0
-77 -141 136 0
-77 -141 139 0
-77 141 -136 -139 0
-78 -141 136 0
-78 141 -136 0
-79 -141 136 0
-79 141 -136 0
-80 -141 136 0
-80 141 -136 0
-98 -141 136 0
-98 141 -136 0
-71 -142 137 0
-71 142 -137 0
-72 -137 142 0
-72 -135 142 0
-72 -142 137 135 0
-73 -142 137 0
-73 142 -137 0
-74 -142 137 0
-74 142 -137 0
-75 -137 142 0
-75 -136 142 0
-75 -142 137 136 0
-76 -142 137 0
-76 142 -137 0
-77 -142 137 0
-77 142 -137 0
-78 -142 137 0
-78 -142 138 0
-78 142 -137 -138 0
-79 -142 137 0
-79 -142 139 0
-79 142 -137 -139 0
-80 -142 137 0
-80 142 -137 0
-98 -142 137 0
-98 142 -137 0
-71 -143 138 0
-71 143 -138 0
-72 -143 138 0
-72 143 -138 0
-73 -138 143 0
-73 -135 143 0
-73 -143 138 135 0
-74 -143 138 0
-74 143 -138 0
-75 -143 138 0
-75 143 -138 0
-76 -138 143 0
-76 -136 143 0
-76 -143 138 136 0
-77 -143 138 0
-77 143 -138 0
-78 -138 143 0
-78 -137 143 0
-78 -143 138 137 0
-79 -143 138 0
-79 143 -138 0
-80 -143 138 0
-80 -143 139 0
-80 143 -138 -139 0
-98 -143 138 0
-98 143 -138 0
-71 -144 139 0
-71 144 -139 0
-72 -144 139 0
-72 144 -139 0
-73 -144 139 0
-73 144 -139 0
-74 -139 144 0
-74 -135 144 0
-74 -144 139 135 0
-75 -144 139 0
-75 144 -139 0
-76 -144 139 0
-76 144 -139 0
-77 -139 144 0
-77 -136 144 0
-77 -144 139 136 0
-78 -144 139 0
-78 144 -139 0
-79 -139 144 0
-79 -137 144 0
-79 -144 139 137 0
-80 -139 144 0
-80 -138 144 0
-80 -144 139 138 0
-98 -144 139 0
-98 144 -139 0
-81 -145 140 0
-81 -145 141 0
-81 145 -140 -141 0
-82 -145 140 0
-82 -145 142 0
-82 145 -140 -142 0
-83 -145 140 0
-83 -145 143 0
-83 145 -140 -143 0
-84 -145 140 0
-84 -145 144 0
-84 145 -140 -144 0
-85 -145 140 0
-85 145 -140 0
-86 -145 140 0
-86 145 -140 0
-87 -145 140 0
-87 145 -140 0
-88 -145 140 0
-88 145 -140 0
-89 -145 140 0
-89 145 -140 0
-90 -145 140 0
-90 145 -140 0
-99 -145 140 0
-99 145 -140 0
-81 -141 146 0
-81 -140 146 0
-81 -146 141 140 0
-82 -146 141 0
-82 146 -141 0
-83 -146 141 0
-83 146 -141 0
-84 -146 141 0
-84 146 -141 0
-85 -146 141 0
-85 -146 142 0
-85 146 -141 -142 0
-86 -146 141 0
-86 -146 143 0
-86 146 -141 -143 0
-87 -146 141 0
-87 -146 144 0
-87 146 -141 -144 0
-88 -146 141 0
-88 146 -141 0
-89 -146 141 0
-89 146 -141 0
-90 -146 141 0
-90 146 -141 0
-99 -146 141 0
-99 146 -141 0
-81 -147 142 0
-81 147 -142 0
-82 -142 147 0
-82 -140 147 0
-82 -147 142 140 0
-83 -147 142 0
-83 147 -142 0
-84 -147 142 0
-84 147 -142 0
-85 -142 147 0
-85 -141 147 0
-85 -147 142 141 0
-86 -147 142 0
-86 147 -142 0
-87 -147 142 0
-87 147 -142 0
-88 -147 142 0
-88 -147 143 0
-88 147 -142 -143 0
-89 -147 142 0
-89 -147 144 0
-89 147 -142 -144 0
-90 -147 142 0
-90 147 -142 0
-99 -147 142 0
-99 147 -142 0
-81 -148 143 0
-81 148 -143 0
-82 -148 143 0
-82 148 -143 0
-83 -143 148 0
-83 -140 148 0
-83 -148 143 140 0
-84 -148 143 0
-84 148 -143 0
-85 -148 143 0
-85 148 -143 0
-86 -143 148 0
-86 -141 148 0
-86 -148 143 141 0
-87 -148 143 0
-87 148 -143 0
-88 -143 148 0
-88 -142 148 0
-88 -148 143 142 0
-89 -148 143 0
-89 148 -143 0
-90 -148 143 0
-90 -148 144 0
-90 148 -143 -144 0
-99 -148 143 0
-99 148 -143 0
-81 -149 144 0
-81 149 -144 0
-82 -149 144 0
-82 149 -144 0
-83 -149 144 0
-83 149 -144 0
-84 -144 149 0
-84 -140 149 0
-84 -149 144 140 0
-85 -149 144 0
-85 149 -144 0
-86 -149 144 0
-86 149 -144 0
-87 -144 149 0
-87 -141 149 0
-87 -149 144 141 0
-88 -149 144 0
-88 149 -144 0
-89 -144 149 0
-89 -142 149 0
-89 -149 144 142 0
-90 -144 149 0
-90 -143 149 0
-90 -149 144 143 0
-99 -149 144 0
-99 149 -144 0
-150 0
-1 -155 150 0
-1 -155 151 0
-1 155 -150 -151 0
-2 -155 150 0
-2 -155 152 0
-2 155 -150 -152 0
-3 -155 150 0
-3 -155 153 0
-3 155 -150 -153 0
-4 -155 150 0
-4 -155 154 0
-4 155 -150 -154 0
-5 -155 150 0
-5 155 -150 0
-6 -155 150 0
-6 155 -150 0
-7 -155 150 0
-7 155 -150 0
-8 -155 150 0
-8 155 -150 0
-9 -155 150 0
-9 155 -150 0
-10 -155 150 0
-10 155 -150 0
-91 -155 150 0
-91 155 -150 0
-151 0
-1 -151 156 0
-1 -150 156 0
-1 -156 151 150 0
-2 -156 151 0
-2 156 -151 0
-3 -156 151 0
-3 156 -151 0
-4 -156 151 0
-4 156 -151 0
-5 -156 151 0
-5 -156 152 0
-5 156 -151 -152 0
-6 -156 151 0
-6 -156 153 0
-6 156 -151 -153 0
-7 -156 151 0
-7 -156 154 0
-7 156 -151 -154 0
-8 -156 151 0
-8 156 -151 0
-9 -156 151 0
-9 156 -151 0
-10 -156 151 0
-10 156 -151 0
-91 -156 151 0
-91 156 -151 0
152 0
-1 -157 152 0
-1 157 -152 0
-2 -152 157 0
-2 -150 157 0
-2 -157 152 150 0
-3 -157 152 0
-3 157 -152 0
-4 -157 152 0
-4 157 -152 0
-5 -152 157 0
-5 -151 157 0
-5 -157 152 151 0
-6 -157 152 0
-6 157 -152 0
-7 -157 152 0
-7 157 -152 0
-8 -157 152 0
-8 -157 153 0
-8 157 -152 -153 0
-9 -157 152 0
-9 -157 154 0
-9 157 -152 -154 0
-10 -157 152 0
-10 157 -152 0
-91 -157 152 0
-91 157 -152 0
-153 0
-1 -158 153 0
-1 158 -153 0
-2 -158 153 0
-2 158 -153 0
-3 -153 158 0
-3 -150 158 0
-3 -158 153 150 0
-4 -158 153 0
-4 158 -153 0
-5 -158 153 0
-5 158 -153 0
-6 -153 158 0
-6 -151 158 0
-6 -158 153 151 0
-7 -158 153 0
-7 158 -153 0
-8 -153 158 0
-8 -152 158 0
-8 -158 153 152 0
-9 -158 153 0
-9 158 -153 0
-10 -158 153 0
-10 -158 154 0
-10 158 -153 -154 0
-91 -158 153 0
-91 158 -153 0
-154 0
-1 -159 154 0
-1 159 -154 0
-2 -159 154 0
-2 159 -154 0
-3 -159 154 0
-3 159 -154 0
-4 -154 159 0
-4 -150 159 0
-4 -159 154 150 0
-5 -159 154 0
-5 159 -154 0
-6 -159 154 0
-6 159 -154 0
-7 -154 159 0
-7 -151 159 0
-7 -159 154 151 0
-8 -159 154 0
-8 159 -154 0
-9 -154 159 0
-9 -152 159 0
-9 -159 154 152 0
-10 -154 159 0
-10 -153 159 0
-10 -159 154 153 0
-91 -159 154 0
-91 159 -154 0
-11 -160 155 0
-11 -160 156 0
-11 160 -155 -156 0
-12 -160 155 0
-12 -160 157 0
-12 160 -155 -157 0
-13 -160 155 0
-13 -160 158 0
-13 160 -155 -158 0
-14 -160 155 0
-14 -160 159 0
-14 160 -155 -159 0
-15 -160 155 0
-15 160 -155 0
-16 -160 155 0
-16 160 -155 0
-17 -160 155 0
-17 160 -155 0
-18 -160 155 0
-18 160 -155 0
-19 -160 155 0
-19 160 -155 0
-20 -160 155 0
-20 160 -155 0
-92 -160 155 0
-92 160 -155 0
-11 -156 161 0
-11 -155 161 0
-11 -161 156 155 0
-12 -161 156 0
-12 161 -156 0
-13 -161 156 0
-13 161 -156 0
-14 -161 156 0
-14 161 -156 0
-15 -161 156 0
-15 -161 157 0
-15 161 -156 -157 0
-16 -161 156 0
-16 -161 158 0
-16 161 -156 -158 0
-17 -161 156 0
-17 -161 159 0
-17 161 -156 -159 0
-18 -161 156 0
-18 161 -156 0
-19 -161 156 0
-19 161 -156 0
-20 -161 156 0
-20 161 -156 0
-92 -161 156 0
-92 161 -156 0
-11 -162 157 0
-11 162 -157 0
-12 -157 162 0
-12 -155 162 0
-12 -162 157 155 0
-13 -162 157 0
-13 162 -157 0
-14 -162 157 0
-14 162 -157 0
-15 -157 162 0
-15 -156 162 0
-15 -162 157 156 0
-16 -162 157 0
-16 162 -157 0
-17 -162 157 0
-17 162 -157 0
-18 -162 157 0
-18 -162 158 0
-18 162 -157 -158 0
-19 -162 157 0
-19 -162 159 0
-19 162 -157 -159 0
-20 -162 157 0
-20 162 -157 0
-92 -162 157 0
-92 162 -157 0
-11 -163 158 0
-11 163 -158 0
-12 -163 158 0
-12 163 -158 0
-13 -158 163 0
-13 -155 163 0
-13 -163 158 155 0
-14 -163 158 0
-14 163 -158 0
-15 -163 158 0
-15 163 -158 0
-16 -158 163 0
-16 -156 163 0
-16 -163 158 156 0
-17 -163 158 0
-17 163 -158 0
-18 -158 163 0
-18 -157 163 0
-18 -163 158 157 0
-19 -163 158 0
-19 163 -158 0
-20 -163 158 0
-20 -163 159 0
-20 163 -158 -159 0
-92 -163 158 0
-92 163 -158 0
-11 -164 159 0
-11 164 -159 0
-12 -164 159 0
-12 164 -159 0
-13 -164 159 0
-13 164 -159 0
-14 -159 164 0
-14 -155 164 0
-14 -164 159 155 0
-15 -164 159 0
-15 164 -159 0
-16 -164 159 0
-16 164 -159 0
-17 -159 164 0
-17 -156 164 0
-17 -164 159 156 0
-18 -164 159 0
-18 164 -159 0
-19 -159 164 0
-19 -157 164 0
-19 -164 159 157 0
-20 -159 164 0
-20 -158 164 0
-20 -164 159 158 0
-92 -164 159 0
-92 164 -159 0
-21 -165 160 0
-21 -165 161 0
-21 165 -160 -161 0
-22 -165 160 0
-22 -165 162 0
-22 165 -160 -162 0
-23 -165 160 0
-23 -165 163 0
-23 165 -160 -163 0
-24 -165 160 0
-24 -165 164 0
-24 165 -160 -164 0
-25 -165 160 0
-25 165 -160 0
-26 -165 160 0
-26 165 -160 0
-27 -165 160 0
-27 165 -160 0
-28 -165 160 0
-28 165 -160 0
-29 -165 160 0
-29 165 -160 0
-30 -165 160 0
-30 165 -160 0
-93 -165 160 0
-93 165 -160 0
-21 -161 166 0
-21 -160 166 0
-21 -166 161 160 0
-22 -166 161 0
-22 166 -161 0
-23 -166 161 0
-23 166 -161 0
-24 -166 161 0
-24 166 -161 0
-25 -166 161 0
-25 -166 162 0
-25 166 -161 -162 0
-26 -166 161 0
-26 -166 163 0
-26 166 -161 -163 0
-27 -166 161 0
-27 -166 164 0
-27 166 -161 -164 0
-28 -166 161 0
-28 166 -161 0
-29 -166 161 0
-29 166 -161 0
-30 -166 161 0
-30 166 -161 0
-93 -166 161 0
-93 166 -161 0
-21 -167 162 0
-21 167 -162 0
-22 -162 167 0
-22 -160 167 0
-22 -167 162 160 0
-23 -167 162 0
-23 167 -162 0
-24 -167 162 0
-24 167 -162 0
-25 -162 167 0
-25 -161 167 0
-25 -167 162 161 0
-26 -167 162 0
-26 167 -162 0
-27 -167 162 0
-27 167 -162 0
-28 -167 162 0
-28 -167 163 0
-28 167 -162 -163 0
-29 -167 162 0
-29 -167 164 0
-29 167 -162 -164 0
-30 -167 162 0
-30 167 -162 0
-93 -167 162 0
-93 167 -162 0
-21 -168 163 0
-21 168 -163 0
-22 -168 163 0
-22 168 -163 0
-23 -163 168 0
-23 -160 168 0
-23 -168 163 160 0
-24 -168 163 0
-24 168 -163 0
-25 -168 163 0
-25 168 -163 0
-26 -163 168 0
-26 -161 168 0
-26 -168 163 161 0
-27 -168 163 0
-27 168 -163 0
-28 -163 168 0
-28 -162 168 0
-28 -168 163 162 0
-29 -168 163 0
-29 168 -163 0
-30 -168 163 0
-30 -168 164 0
-30 168 -163 -164 0
-93 -168 163 0
-93 168 -163 0
-21 -169 164 0
-21 169 -164 0
-22 -169 164 0
-22 169 -164 0
-23 -169 164 0
-23 169 -164 0
-24 -164 169 0
-24 -160 169 0
-24 -169 164 160 0
-25 -169 164 0
-25 169 -164 0
-26 -169 164 0
-26 169 -164 0
-27 -164 169 0
-27 -161 169 0
-27 -169 164 161 0
-28 -169 164 0
-28 169 -164 0
-29 -164 169 0
-29 -162 169 0
-29 -169 164 162 0
-30 -164 169 0
-30 -163 169 0
-30 -169 164 163 0
-93 -169 164 0
-93 169 -164 0
-31 -170 165 0
-31 -170 166 0
-31 170 -165 -166 0
-32 -170 165 0
-32 -170 167 0
-32 170 -165 -167 0
-33 -170 165 0
-33 -170 168 0
-33 170 -165 -168 0
-34 -170 165 0
-34 -170 169 0
-34 170 -165 -169 0
-35 -170 165 0
-35 170 -165 0
-36 -170 165 0
-36 170 -165 0
-37 -170 165 0
-37 170 -165 0
-38 -170 165 0
-38 170 -165 0
-39 -170 165 0
-39 170 -165 0
-40 -170 165 0
-40 170 -165 0
-94 -170 165 0
-94 170 -165 0
-31 -166 171 0
-31 -165 171 0
-31 -171 166 165 0
-32 -171 166 0
-32 171 -166 0
-33 -171 166 0
-33 171 -166 0
-34 -171 166 0
-34 171 -166 0
-35 -171 166 0
-35 -171 167 0
-35 171 -166 -167 0
-36 -171 166 0
-36 -171 168 0
-36 171 -166 -168 0
-37 -171 166 0
-37 -171 169 0
-37 171 -166 -169 0
-38 -171 166 0
-38 171 -166 0
-39 -171 166 0
-39 171 -166 0
-40 -171 166 0
-40 171 -166 0
-94 -171 166 0
-94 171 -166 0
-31 -172 167 0
-31 172 -167 0
-32 -167 172 0
-32 -165 172 0
-32 -172 167 165 0
-33 -172 167 0
-33 172 -167 0
-34 -172 167 0
-34 172 -167 0
-35 -167 172 0
-35 -166 172 0
-35 -172 167 166 0
-36 -172 167 0
-36 172 -167 0
-37 -172 167 0
-37 172 -167 0
-38 -172 167 0
-38 -172 168 0
-38 172 -167 -168 0
-39 -172 167 0
-39 -172 169 0
-39 172 -167 -169 0
-40 -172 167 0
-40 172 -167 0
-94 -172 167 0
-94 172 -167 0
-31 -173 168 0
-31 173 -168 0
-32 -173 168 0
-32 173 -168 0
-33 -168 173 0
-33 -165 173 0
-33 -173 168 165 0
-34 -173 168 0
-34 173 -168 0
-35 -173 168 0
-35 173 -168 0
-36 -168 173 0
-36 -166 173 0
-36 -173 168 166 0
-37 -173 168 0
-37 173 -168 0
-38 -168 173 0
-38 -167 173 0
-38 -173 168 167 0
-39 -173 168 0
-39 173 -168 0
-40 -173 168 0
-40 -173 169 0
-40 173 -168 -169 0
-94 -173 168 0
-94 173 -168 0
-31 -174 169 0
-31 174 -169 0
-32 -174 169 0
-32 174 -169 0
-33 -174 169 0
-33 174 -169 0
-34 -169 174 0
-34 -165 174 0
-34 -174 169 165 0
-35 -174 169 0
-35 174 -169 0
-36 -174 169 0
-36 174 -169 0
-37 -169 174 0
-37 -166 174 0
-37 -174 169 166 0
-38 -174 169 0
-38 174 -169 0
-39 -169 174 0
-39 -167 174 0
-39 -174 169 167 0
-40 -169 174 0
-40 -168 174 0
-40 -174 169 168 0
-94 -174 169 0
-94 174 -169 0
-41 -175 170 0
-41 -175 171 0
-41 175 -170 -171 0
-42 -175 170 0
-42 -175 172 0
-42 175 -170 -172 0
-43 -175 170 0
-43 -175 173 0
-43 175 -170 -173 0
-44 -175 170 0
-44 -175 174 0
-44 175 -170 -174 0
-45 -175 170 0
-45 175 -170 0
-46 -175 170 0
-46 175 -170 0
-47 -175 170 0
-47 175 -170 0
-48 -175 170 0
-48 175 -170 0
-49 -175 170 0
-49 175 -170 0
-50 -175 170 0
-50 175 -170 0
-95 -175 170 0
-95 175 -170 0
-41 -171 176 0
-41 -170 176 0
-41 -176 171 170 0
-42 -176 171 0
-42 176 -171 0
-43 -176 171 0
-43 176 -171 0
-44 -176 171 0
-44 176 -171 0
-45 -176 171 0
-45 -176 172 0
-45 176 -171 -172 0
-46 -176 171 0
-46 -176 173 0
-46 176 -171 -173 0
-47 -176 171 0
-47 -176 174 0
-47 176 -171 -174 0
-48 -176 171 0
-48 176 -171 0
-49 -176 171 0
-49 176 -171 0
-50 -176 171 0
-50 176 -171 0
-95 -176 171 0
-95 176 -171 0
-41 -177 172 0
-41 177 -172 0
-42 -172 177 0
-42 -170 177 0
-42 -177 172 170 0
-43 -177 172 0
-43 177 -172 0
-44 -177 172 0
-44 177 -172 0
-45 -172 177 0
-45 -171 177 0
-45 -177 172 171 0
-46 -177 172 0
-46 177 -172 0
-47 -177 172 0
-47 177 -172 0
-48 -177 172 0
-48 -177 173 0
-48 177 -172 -173 0
-49 -177 172 0
-49 -177 174 0
-49 177 -172 -174 0
-50 -177 172 0
-50 177 -172 0
-95 -177 172 0
-95 177 -172 0
-41 -178 173 0
-41 178 -173 0
-42 -178 173 0
-42 178 -173 0
-43 -173 178 0
-43 -170 178 0
-43 -178 173 170 0
-44 -178 173 0
-44 178 -173 0
-45 -178 173 0
-45 178 -173 0
-46 -173 178 0
-46 -171 178 0
-46 -178 173 171 0
-47 -178 173 0
-47 178 -173 0
-48 -173 178 0
-48 -172 178 0
-48 -178 173 172 0
-49 -178 173 0
-49 178 -173 0
-50 -178 173 0
-50 -178 174 0
-50 178 -173 -174 0
-95 -178 173 0
-95 178 -173 0
-41 -179 174 0
-41 179 -174 0
-42 -179 174 0
-42 179 -174 0
-43 -179 174 0
-43 179 -174 0
-44 -174 179 0
-44 -170 179 0
-44 -179 174 170 0
-45 -179 174 0
-45 179 -174 0
-46 -179 174 0
-46 179 -174 0
-47 -174 179 0
-47 -171 179 0
-47 -179 174 171 0
-48 -179 174 0
-48 179 -174 0
-49 -174 179 0
-49 -172 179 0
-49 -179 174 172 0
-50 -174 179 0
-50 -173 179 0
-50 -179 174 173 0
-95 -179 174 0
-95 179 -174 0
-51 -180 175 0
-51 -180 176 0
-51 180 -175 -176 0
-52 -180 175 0
-52 -180 177 0
-52 180 -175 -177 0
-53 -180 175 0
-53 -180 178 0
-53 180 -175 -178 0
-54 -180 175 0
-54 -180 179 0
-54 180 -175 -179 0
-55 -180 175 0
-55 180 -175 0
-56 -180 175 0
-56 180 -175 0
-57 -180 175 0
-57 180 -175 0
-58 -180 175 0
-58 180 -175 0
-59 -180 175 0
-59 180 -175 0
-60 -180 175 0
-60 180 -175 0
-96 -180 175 0
-96 180 -175 0
-51 -176 181 0
-51 -175 181 0
-51 -181 176 175 0
-52 -181 176 0
-52 181 -176 0
-53 -181 176 0
-53 181 -176 0
-54 -181 176 0
-54 181 -176 0
-55 -181 176 0
-55 -181 177 0
-55 181 -176 -177 0
-56 -181 176 0
-56 -181 178 0
-56 181 -176 -178 0
-57 -181 176 0
-57 -181 179 0
-57 181 -176 -179 0
-58 -181 176 0
-58 181 -176 0
-59 -181 176 0
-59 181 -176 0
-60 -181 176 0
-60 181 -176 0
-96 -181 176 0
-96 181 -176 0
-51 -182 177 0
-51 182 -177 0
-52 -177 182 0
-52 -175 182 0
-52 -182 177 175 0
-53 -182 177 0
-53 182 -177 0
-54 -182 177 0
-54 182 -177 0
-55 -177 182 0
-55 -176 182 0
-55 -182 177 176 0
-56 -182 177 0
-56 182 -177 0
-57 -182 177 0
-57 182 -177 0
-58 -182 177 0
-58 -182 178 0
-58 182 -177 -178 0
-59 -182 177 0
-59 -182 179 0
-59 182 -177 -179 0
-60 -182 177 0
-60 182 -177 0
-96 -182 177 0
-96 182 -177 0
-51 -183 178 0
-51 183 -178 0
-52 -183 178 0
-52 183 -178 0
-53 -178 183 0
-53 -175 183 0
-53 -183 178 175 0
-54 -183 178 0
-54 183 -178 0
-55 -183 178 0
-55 183 -178 0
-56 -178 183 0
-56 -176 183 0
-56 -183 178 176 0
-57 -183 178 0
-57 183 -178 0
-58 -178 183 0
-58 -177 183 0
-58 -183 178 177 0
-59 -183 178 0
-59 183 -178 0
-60 -183 178 0
-60 -183 179 0
-60 183 -178 -179 0
-96 -183 178 0
-96 183 -178 0
-51 -184 179 0
-51 184 -179 0
-52 -184 179 0
-52 184 -179 0
-53 -184 179 0
-53 184 -179 0
-54 -179 184 0
-54 -175 184 0
-54 -184 179 175 0
-55 -184 179 0
-55 184 -179 0
-56 -184 179 0
-56 184 -179 0
-57 -179 184 0
-57 -176 184 0
-57 -184 179 176 0
-58 -184 179 0
-58 184 -179 0
-59 -179 184 0
-59 -177 184 0
-59 -184 179 177 0
-60 -179 184 0
-60 -178 184 0
-60 -184 179 178 0
-96 -184 179 0
-96 184 -179 0
-61 -185 180 0
-61 -185 181 0
-61 185 -180 -181 0
-62 -185 180 0
-62 -185 182 0
-62 185 -180 -182 0
-63 -185 180 0
-63 -185 183 0
-63 185 -180 -183 0
-64 -185 180 0
-64 -185 184 0
-64 185 -180 -184 0
-65 -185 180 0
-65 185 -180 0
-66 -185 180 0
-66 185 -180 0
-67 -185 180 0
-67 185 -180 0
-68 -185 180 0
-68 185 -180 0
-69 -185 180 0
-69 185 -180 0
-70 -185 180 0
-70 185 -180 0
-97 -185 180 0
-97 185 -180 0
-61 -181 186 0
-61 -180 186 0
-61 -186 181 180 0
-62 -186 181 0
-62 186 -181 0
-63 -186 181 0
-63 186 -181 0
-64 -186 181 0
-64 186 -181 0
-65 -186 181 0
-65 -186 182 0
-65 186 -181 -182 0
-66 -186 181 0
-66 -186 183 0
-66 186 -181 -183 0
-67 -186 181 0
-67 -186 184 0
-67 186 -181 -184 0
-68 -186 181 0
-68 186 -181 0
-69 -186 181 0
-69 186 -181 0
-70 -186 181 0
-70 186 -181 0
-97 -186 181 0
-97 186 -181 0
-61 -187 182 0
-61 187 -182 0
-62 -182 187 0
-62 -180 187 0
-62 -187 182 180 0
-63 -187 182 0
-63 187 -182 0
-64 -187 182 0
-64 187 -182 0
-65 -182 187 0
-65 -181 187 0
-65 -187 182 181 0
-66 -187 182 0
-66 187 -182 0
-67 -187 182 0
-67 187 -182 0
-68 -187 182 0
-68 -187 183 0
-68 187 -182 -183 0
-69 -187 182 0
-69 -187 184 0
-69 187 -182 -184 0
-70 -187 182 0
-70 187 -182 0
-97 -187 182 0
-97 187 -182 0
-61 -188 183 0
-61 188 -183 0
-62 -188 183 0
-62 188 -183 0
-63 -183 188 0
-63 -180 188 0
-63 -188 183 180 0
-64 -188 183 0
-64 188 -183 0
-65 -188 183 0
-65 188 -183 0
-66 -183 188 0
-66 -181 188 0
-66 -188 183 181 0
-67 -188 183 0
-67 188 -183 0
-68 -183 188 0
-68 -182 188 0
-68 -188 183 182 0
-69 -188 183 0
-69 188 -183 0
-70 -188 183 0
-70 -188 184 0
-70 188 -183 -184 0
-97 -188 183 0
-97 188 -183 0
-61 -189 184 0
-61 189 -184 0
-62 -189 184 0
-62 189 -184 0
-63 -189 184 0
-63 189 -184 0
-64 -184 189 0
-64 -180 189 0
-64 -189 184 180 0
-65 -189 184 0
-65 189 -184 0
-66 -189 184 0
-66 189 -184 0
-67 -184 189 0
-67 -181 189 0
-67 -189 184 181 0
-68 -189 184 0
-68 189 -184 0
-69 -184 189 0
-69 -182 189 0
-69 -189 184 182 0
-70 -184 189 0
-70 -183 189 0
-70 -189 184 183 0
-97 -189 184 0
-97 189 -184 0
-71 -190 185 0
-71 -190 186 0
-71 190 -185 -186 0
-72 -190 185 0
-72 -190 187 0
-72 190 -185 -187 0
-73 -190 185 0
-73 -190 188 0
-73 190 -185 -188 0
-74 -190 185 0
-74 -190 189 0
-74 190 -185 -189 0
-75 -190 185 0
-75 190 -185 0
-76 -190 185 0
-76 190 -185 0
-77 -190 185 0
-77 190 -185 0
-78 -190 185 0
-78 190 -185 0
-79 -190 185 0
-79 190 -185 0
-80 -190 185 0
-80 190 -185 0
-98 -190 185 0
-98 190 -185 0
-71 -186 191 0
-71 -185 191 0
-71 -191 186 185 0
-72 -191 186 0
-72 191 -186 0
-73 -191 186 0
-73 191 -186 0
-74 -191 186 0
-74 191 -186 0
-75 -191 186 0
-75 -191 187 0
-75 191 -186 -187 0
-76 -191 186 0
-76 -191 188 0
-76 191 -186 -188 0
-77 -191 186 0
-77 -191 189 0
-77 191 -186 -189 0
-78 -191 186 0
-78 191 -186 0
-79 -191 186 0
-79 191 -186 0
-80 -191 186 0
-80 191 -186 0
-98 -191 186 0
-98 191 -186 0
-71 -192 187 0
-71 192 -187 0
-72 -187 192 0
-72 -185 192 0
-72 -192 187 185 0
-73 -192 187 0
-73 192 -187 0
-74 -192 187 0
-74 192 -187 0
-75 -187 192 0
-75 -186 192 0
-75 -192 187 186 0
-76 -192 187 0
-76 192 -187 0
-77 -192 187 0
-77 192 -187 0
-78 -192 187 0
-78 -192 188 0
-78 192 -187 -188 0
-79 -192 187 0
-79 -192 189 0
-79 192 -187 -189 0
-80 -192 187 0
-80 192 -187 0
-98 -192 187 0
-98 192 -187 0
-71 -193 188 0
-71 193 -188 0
-72 -193 188 0
-72 193 -188 0
-73 -188 193 0
-73 -185 193 0
-73 -193 188 185 0
-74 -193 188 0
-74 193 -188 0
-75 -193 188 0
-75 193 -188 0
-76 -188 193 0
-76 -186 193 0
-76 -193 188 186 0
-77 -193 188 0
-77 193 -188 0
-78 -188 193 0
-78 -187 193 0
-78 -193 188 187 0
-79 -193 188 0
-79 193 -188 0
-80 -193 188 0
-80 -193 189 0
-80 193 -188 -189 0
-98 -193 188 0
-98 193 -188 0
-71 -194 189 0
-71 194 -189 0
-72 -194 189 0
-72 194 -189 0
-73 -194 189 0
-73 194 -189 0
-74 -189 194 0
-74 -185 194 0
-74 -194 189 185 0
-75 -194 189 0
-75 194 -189 0
-76 -194 189 0
-76 194 -189 0
-77 -189 194 0
-77 -186 194 0
-77 -194 189 186 0
-78 -194 189 0
-78 194 -189 0
-79 -189 194 0
-79 -187 194 0
-79 -194 189 187 0
-80 -189 194 0
-80 -188 194 0
-80 -194 189 188 0
-98 -194 189 0
-98 194 -189 0
-81 -195 190 0
-81 -195 191 0
-81 195 -190 -191 0
-82 -195 190 0
-82 -195 192 0
-82 195 -190 -192 0
-83 -195 190 0
-83 -195 193 0
-83 195 -190 -193 0
-84 -195 190 0
-84 -195 194 0
-84 195 -190 -194 0
-85 -195 190 0
-85 195 -190 0
-86 -195 190 0
-86 195 -190 0
-87 -195 190 0
-87 195 -190 0
-88 -195 190 0
-88 195 -190 0
-89 -195 190 0
-89 195 -190 0
-90 -195 190 0
-90 195 -190 0
-99 -195 190 0
-99 195 -190 0
-81 -191 196 0
-81 -190 196 0
-81 -196 191 190 0
-82 -196 191 0
-82 196 -191 0
-83 -196 191 0
-83 196 -191 0
-84 -196 191 0
-84 196 -191 0
-85 -196 191 0
-85 -196 192 0
-85 196 -191 -192 0
-86 -196 191 0
-86 -196 193 0
-86 196 -191 -193 0
-87 -196 191 0
-87 -196 194 0
-87 196 -191 -194 0
-88 -196 191 0
-88 196 -191 0
-89 -196 191 0
-89 196 -191 0
-90 -196 191 0
-90 196 -191 0
-99 -196 191 0
-99 196 -191 0
-81 -197 192 0
-81 197 -192 0
-82 -192 197 0
-82 -190 197 0
-82 -197 192 190 0
-83 -197 192 0
-83 197 -192 0
-84 -197 192 0
-84 197 -192 0
-85 -192 197 0
-85 -191 197 0
-85 -197 192 191 0
-86 -197 192 0
-86 197 -192 0
-87 -197 192 0
-87 197 -192 0
-88 -197 192 0
-88 -197 193 0
-88 197 -192 -193 0
-89 -197 192 0
-89 -197 194 0
-89 197 -192 -194 0
-90 -197 192 0
-90 197 -192 0
-99 -197 192 0
-99 197 -192 0
-81 -198 193 0
-81 198 -193 0
-82 -198 193 0
-82 198 -193 0
-83 -193 198 0
-83 -190 198 0
-83 -198 193 190 0
-84 -198 193 0
-84 198 -193 0
-85 -198 193 0
-85 198 -193 0
-86 -193 198 0
-86 -191 198 0
-86 -198 193 191 0
-87 -198 193 0
-87 198 -193 0
-88 -193 198 0
-88 -192 198 0
-88 -198 193 192 0
-89 -198 193 0
-89 198 -193 0
-90 -198 193 0
-90 -198 194 0
-90 198 -193 -194 0
-99 -198 193 0
-99 198 -193 0
-81 -199 194 0
-81 199 -194 0
-82 -199 194 0
-82 199 -194 0
-83 -199 194 0
-83 199 -194 0
-84 -194 199 0
-84 -190 199 0
-84 -199 194 190 0
-85 -199 194 0
-85 199 -194 0
-86 -199 194 0
-86 199 -194 0
-87 -194 199 0
-87 -191 199 0
-87 -199 194 191 0
-88 -199 194 0
-88 199 -194 0
-89 -194 199 0
-89 -192 199 0
-89 -199 194 192 0
-90 -194 199 0
-90 -193 199 0
-90 -199 194 193 0
-99 -199 194 0
-99 199 -194 0
-200 0
-1 -205 200 0
-1 -205 201 0
-1 205 -200 -201 0
-2 -205 200 0
-2 -205 202 0
-2 205 -200 -202 0
-3 -205 200 0
-3 -205 203 0
-3 205 -200 -203 0
-4 -205 200 0
-4 -205 204 0
-4 205 -200 -204 0
-5 -205 200 0
-5 205 -200 0
-6 -205 200 0
-6 205 -200 0
-7 -205 200 0
-7 205 -200 0
-8 -205 200 0
-8 205 -200 0
-9 -205 200 0
-9 205 -200 0
-10 -205 200 0
-10 205 -200 0
-91 -205 200 0
-91 205 -200 0
-201 0
-1 -201 206 0
-1 -200 206 0
-1 -206 201 200 0
-2 -206 201 0
-2 206 -201 0
-3 -206 201 0
-3 206 -201 0
-4 -206 201 0
-4 206 -201 0
-5 -206 201 0
-5 -206 202 0
-5 206 -201 -202 0
-6 -206 201 0
-6 -206 203 0
-6 206 -201 -203 0
-7 -206 201 0
-7 -206 204 0
-7 206 -201 -204 0
-8 -206 201 0
-8 206 -201 0
-9 -206 201 0
-9 206 -201 0
-10 -206 201 0
-10 206 -201 0
-91 -206 201 0
-91 206 -201 0
202 0
-1 -207 202 0
-1 207 -202 0
-2 -202 207 0
-2 -200 207 0
-2 -207 202 200 0
-3 -207 202 0
-3 207 -202 0
-4 -207 202 0
-4 207 -202 0
-5 -202 207 0
-5 -201 207 0
-5 -207 202 201 0
-6 -207 202 0
-6 207 -202 0
-7 -207 202 0
-7 207 -202 0
-8 -207 202 0
-8 -207 203 0
-8 207 -202 -203 0
-9 -207 202 0
-9 -207 204 0
-9 207 -202 -204 0
-10 -207 202 0
-10 207 -202 0
-91 -207 202 0
-91 207 -202 0
-203 0
-1 -208 203 0
-1 208 -203 0
-2 -208 203 0
-2 208 -203 0
-3 -203 208 0
-3 -200 208 0
-3 -208 203 200 0
-4 -208 203 0
-4 208 -203 0
-5 -208 203 0
-5 208 -203 0
-6 -203 208 0
-6 -201 208 0
-6 -208 203 201 0
-7 -208 203 0
-7 208 -203 0
-8 -203 208 0
-8 -202 208 0
-8 -208 203 202 0
-9 -208 203 0
-9 208 -203 0
-10 -208 203 0
-10 -208 204 0
-10 208 -203 -204 0
-91 -208 203 0
-91 208 -203 0
204 0
-1 -209 204 0
-1 209 -204 0
-2 -209 204 0
-2 209 -204 0
-3 -209 204 0
-3 209 -204 0
-4 -204 209 0
-4 -200 209 0
-4 -209 204 200 0
-5 -209 204 0
-5 209 -204 0
-6 -209 204 0
-6 209 -204 0
-7 -204 209 0
-7 -201 209 0
-7 -209 204 201 0
-8 -209 204 0
-8 209 -204 0
-9 -204 209 0
-9 -202 209 0
-9 -209 204 202 0
-10 -204 209 0
-10 -203 209 0
-10 -209 204 203 0
-91 -209 204 0
-91 209 -204 0
-11 -210 205 0
-11 -210 206 0
-11 210 -205 -206 0
-12 -210 205 0
-12 -210 207 0
-12 210 -205 -207 0
-13 -210 205 0
-13 -210 208 0
-13 210 -205 -208 0
-14 -210 205 0
-14 -210 209 0
-14 210 -205 -209 0
-15 -210 205 0
-15 210 -205 0
-16 -210 205 0
-16 210 -205 0
-17 -210 205 0
-17 210 -205 0
-18 -210 205 0
-18 210 -205 0
-19 -210 205 0
-19 210 -205 0
-20 -210 205 0
-20 210 -205 0
-92 -210 205 0
-92 210 -205 0
-11 -206 211 0
-11 -205 211 0
-11 -211 206 205 0
-12 -211 206 0
-12 211 -206 0
-13 -211 206 0
-13 211 -206 0
-14 -211 206 0
-14 211 -206 0
-15 -211 206 0
-15 -211 207 0
-15 211 -206 -207 0
-16 -211 206 0
-16 -211 208 0
-16 211 -206 -208 0
-17 -211 206 0
-17 -211 209 0
-17 211 -206 -209 0
-18 -211 206 0
-18 211 -206 0
-19 -211 206 0
-19 211 -206 0
-20 -211 206 0
-20 211 -206 0
-92 -211 206 0
-92 211 -206 0
-11 -212 207 0
-11 212 -207 0
-12 -207 212 0
-12 -205 212 0
-12 -212 207 205 0
-13 -212 207 0
-13 212 -207 0
-14 -212 207 0
-14 212 -207 0
-15 -207 212 0
-15 -206 212 0
-15 -212 207 206 0
-16 -212 207 0
-16 212 -207 0
-17 -212 207 0
-17 212 -207 0
-18 -212 207 0
-18 -212 208 0
-18 212 -207 -208 0
-19 -212 207 0
-19 -212 209 0
-19 212 -207 -209 0
-20 -212 207 0
-20 212 -207 0
-92 -212 207 0
-92 212 -207 0
-11 -213 208 0
-11 213 -208 0
-12 -213 208 0
-12 213 -208 0
-13 -208 213 0
-13 -205 213 0
-13 -213 208 205 0
-14 -213 208 0
-14 213 -208 0
-15 -213 208 0
-15 213 -208 0
-16 -208 213 0
-16 -206 213 0
-16 -213 208 206 0
-17 -213 208 0
-17 213 -208 0
-18 -208 213 0
-18 -207 213 0
-18 -213 208 207 0
-19 -213 208 0
-19 213 -208 0
-20 -213 208 0
-20 -213 209 0
-20 213 -208 -209 0
-92 -213 208 0
-92 213 -208 0
-11 -214 209 0
-11 214 -209 0
-12 -214 209 0
-12 214 -209 0
-13 -214 209 0
-13 214 -209 0
-14 -209 214 0
-14 -205 214 0
-14 -214 209 205 0
-15 -214 209 0
-15 214 -209 0
-16 -214 209 0
-16 214 -209 0
-17 -209 214 0
-17 -206 214 0
-17 -214 209 206 0
-18 -214 209 0
-18 214 -209 0
-19 -209 214 0
-19 -207 214 0
-19 -214 209 207 0
-20 -209 214 0
-20 -208 214 0
-20 -214 209 208 0
-92 -214 209 0
-92 214 -209 0
-21 -215 210 0
-21 -215 211 0
-21 215 -210 -211 0
-22 -215 210 0
-22 -215 212 0
-22 215 -210 -212 0
-23 -215 210 0
-23 -215 213 0
-23 215 -210 -213 0
-24 -215 210 0
-24 -215 214 0
-24 215 -210 -214 0
-25 -215 210 0
-25 215 -210 0
-26 -215 210 0
-26 215 -210 0
-27 -215 210 0
-27 215 -210 0
-28 -215 210 0
-28 215 -210 0
-29 -215 210 0
-29 215 -210 0
-30 -215 210 0
-30 215 -210 0
-93 -215 210 0
-93 215 -210 0
-21 -211 216 0
-21 -210 216 0
-21 -216 211 210 0
-22 -216 211 0
-22 216 -211 0
-23 -216 211 0
-23 216 -211 0
-24 -216 211 0
-24 216 -211 0
-25 -216 211 0
-25 -216 212 0
-25 216 -211 -212 0
-26 -216 211 0
-26 -216 213 0
-26 216 -211 -213 0
-27 -216 211 0
-27 -216 214 0
-27 216 -211 -214 0
-28 -216 211 0
-28 216 -211 0
-29 -216 211 0
-29 216 -211 0
-30 -216 211 0
-30 216 -211 0
-93 -216 211 0
-93 216 -211 0
-21 -217 212 0
-21 217 -212 0
-22 -212 217 0
-22 -210 217 0
-22 -217 212 210 0
-23 -217 212 0
-23 217 -212 0
-24 -217 212 0
-24 217 -212 0
-25 -212 217 0
-25 -211 217 0
-25 -217 212 211 0
-26 -217 212 0
-26 217 -212 0
-27 -217 212 0
-27 217 -212 0
-28 -217 212 0
-28 -217 213 0
-28 217 -212 -213 0
-29 -217 212 0
-29 -217 214 0
-29 217 -212 -214 0
-30 -217 212 0
-30 217 -212 0
-93 -217 212 0
-93 217 -212 0
-21 -218 213 0
-21 218 -213 0
-22 -218 213 0
-22 218 -213 0
-23 -213 218 0
-23 -210 218 0
-23 -218 213 210 0
-24 -218 213 0
-24 218 -213 0
-25 -218 213 0
-25 218 -213 0
-26 -213 218 0
-26 -211 218 0
-26 -218 213 211 0
-27 -218 213 0
-27 218 -213 0
-28 -213 218 0
-28 -212 218 0
-28 -218 213 212 0
-29 -218 213 0
-29 218 -213 0
-30 -218 213 0
-30 -218 214 0
-30 218 -213 -214 0
-93 -218 213 0
-93 218 -213 0
-21 -219 214 0
-21 219 -214 0
-22 -219 214 0
-22 219 -214 0
-23 -219 214 0
-23 219 -214 0
-24 -214 219 0
-24 -210 219 0
-24 -219 214 210 0
-25 -219 214 0
-25 219 -214 0
-26 -219 214 0
-26 219 -214 0
-27 -214 219 0
-27 -211 219 0
-27 -219 214 211 0
-28 -219 214 0
-28 219 -214 0
-29 -214 219 0
-29 -212 219 0
-29 -219 214 212 0
-30 -214 219 0
-30 -213 219 0
-30 -219 214 213 0
-93 -219 214 0
-93 219 -214 0
-31 -220 215 0
-31 -220 216 0
-31 220 -215 -216 0
-32 -220 215 0
-32 -220 217 0
-32 220 -215 -217 0
-33 -220 215 0
-33 -220 218 0
-33 220 -215 -218 0
-34 -220 215 0
-34 -220 219 0
-34 220 -215 -219 0
-35 -220 215 0
-35 220 -215 0
-36 -220 215 0
-36 220 -215 0
-37 -220 215 0
-37 220 -215 0
-38 -220 215 0
-38 220 -215 0
-39 -220 215 0
-39 220 -215 0
-40 -220 215 0
-40 220 -215 0
-94 -220 215 0
-94 220 -215 0
-31 -216 221 0
-31 -215 221 0
-31 -221 216 215 0
-32 -221 216 0
-32 221 -216 0
-33 -221 216 0
-33 221 -216 0
-34 -221 216 0
-34 221 -216 0
-35 -221 216 0
-35 -221 217 0
-35 221 -216 -217 0
-36 -221 216 0
-36 -221 218 0
-36 221 -216 -218 0
-37 -221 216 0
-37 -221 219 0
-37 221 -216 -219 0
-38 -221 216 0
-38 221 -216 0
-39 -221 216 0
-39 221 -216 0
-40 -221 216 0
-40 221 -216 0
-94 -221 216 0
-94 221 -216 0
-31 -222 217 0
-31 222 -217 0
-32 -217 222 0
-32 -215 222 0
-32 -222 217 215 0
-33 -222 217 0
-33 222 -217 0
-34 -222 217 0
-34 222 -217 0
-35 -217 222 0
-35 -216 222 0
-35 -222 217 216 0
-36 -222 217 0
-36 222 -217 0
-37 -222 217 0
-37 222 -217 0
-38 -222 217 0
-38 -222 218 0
-38 222 -217 -218 0
-39 -222 217 0
-39 -222 219 0
-39 222 -217 -219 0
-40 -222 217 0
-40 222 -217 0
-94 -222 217 0
-94 222 -217 0
-31 -223 218 0
-31 223 -218 0
-32 -223 218 0
-32 223 -218 0
-33 -218 223 0
-33 -215 223 0
-33 -223 218 215 0
-34 -223 218 0
-34 223 -218 0
-35 -223 218 0
-35 223 -218 0
-36 -218 223 0
-36 -216 223 0
-36 -223 218 216 0
-37 -223 218 0
-37 223 -218 0
-38 -218 223 0
-38 -217 223 0
-38 -223 218 217 0
-39 -223 218 0
-39 223 -218 0
-40 -223 218 0
-40 -223 219 0
-40 223 -218 -219 0
-94 -223 218 0
-94 223 -218 0
-31 -224 219 0
-31 224 -219 0
-32 -224 219 0
-32 224 -219 0
-33 -224 219 0
-33 224 -219 0
-34 -219 224 0
-34 -215 224 0
-34 -224 219 215 0
-35 -224 219 0
-35 224 -219 0
-36 -224 219 0
-36 224 -219 0
-37 -219 224 0
-37 -216 224 0
-37 -224 219 216 0
-38 -224 219 0
-38 224 -219 0
-39 -219 224 0
-39 -217 224 0
-39 -224 219 217 0
-40 -219 224 0
-40 -218 224 0
-40 -224 219 218 0
-94 -224 219 0
-94 224 -219 0
-41 -225 220 0
-41 -225 221 0
-41 225 -220 -221 0
-42 -225 220 0
-42 -225 222 0
-42 225 -220 -222 0
-43 -225 220 0
-43 -225 223 0
-43 225 -220 -223 0
-44 -225 220 0
-44 -225 224 0
-44 225 -220 -224 0
-45 -225 220 0
-45 225 -220 0
-46 -225 220 0
-46 225 -220 0
-47 -225 220 0
-47 225 -220 0
-48 -225 220 0
-48 225 -220 0
-49 -225 220 0
-49 225 -220 0
-50 -225 220 0
-50 225 -220 0
-95 -225 220 0
-95 225 -220 0
-41 -221 226 0
-41 -220 226 0
-41 -226 221 220 0
-42 -226 221 0
-42 226 -221 0
-43 -226 221 0
-43 226 -221 0
-44 -226 221 0
-44 226 -221 0
-45 -226 221 0
-45 -226 222 0
-45 226 -221 -222 0
-46 -226 221 0
-46 -226 223 0
-46 226 -221 -223 0
-47 -226 221 0
-47 -226 224 0
-47 226 -221 -224 0
-48 -226 221 0
-48 226 -221 0
-49 -226 221 0
-49 226 -221 0
-50 -226 221 0
-50 226 -221 0
-95 -226 221 0
-95 226 -221 0
-41 -227 222 0
-41 227 -222 0
-42 -222 227 0
-42 -220 227 0
-42 -227 222 220 0
-43 -227 222 0
-43 227 -222 0
-44 -227 222 0
-44 227 -222 0
-45 -222 227 0
-45 -221 227 0
-45 -227 222 221 0
-46 -227 222 0
-46 227 -222 0
-47 -227 222 0
-47 227 -222 0
-48 -227 222 0
-48 -227 223 0
-48 227 -222 -223 0
-49 -227 222 0
-49 -227 224 0
-49 227 -222 -224 0
-50 -227 222 0
-50 227 -222 0
-95 -227 222 0
-95 227 -222 0
-41 -228 223 0
-41 228 -223 0
-42 -228 223 0
-42 228 -223 0
-43 -223 228 0
-43 -220 228 0
-43 -228 223 220 0
-44 -228 223 0
-44 228 -223 0
-45 -228 223 0
-45 228 -223 0
-46 -223 228 0
-46 -221 228 0
-46 -228 223 221 0
-47 -228 223 0
-47 228 -223 0
-48 -223 228 0
-48 -222 228 0
-48 -228 223 222 0
-49 -228 223 0
-49 228 -223 0
-50 -228 223 0
-50 -228 224 0
-50 228 -223 -224 0
-95 -228 223 0
-95 228 -223 0
-41 -229 224 0
-41 229 -224 0
-42 -229 224 0
-42 229 -224 0
-43 -229 224 0
-43 229 -224 0
-44 -224 229 0
-44 -220 229 0
-44 -229 224 220 0
-45 -229 224 0
-45 229 -224 0
-46 -229 224 0
-46 229 -224 0
-47 -224 229 0
-47 -221 229 0
-47 -229 224 221 0
-48 -229 224 0
-48 229 -224 0
-49 -224 229 0
-49 -222 229 0
-49 -229 224 222 0
-50 -224 229 0
-50 -223 229 0
-50 -229 224 223 0
-95 -229 224 0
-95 229 -224 0
-51 -230 225 0
-51 -230 226 0
-51 230 -225 -226 0
-52 -230 225 0
-52 -230 227 0
-52 230 -225 -227 0
-53 -230 225 0
-53 -230 228 0
-53 230 -225 -228 0
-54 -230 225 0
-54 -230 229 0
-54 230 -225 -229 0
-55 -230 225 0
-55 230 -225 0
-56 -230 225 0
-56 230 -225 0
-57 -230 225 0
-57 230 -225 0
-58 -230 225 0
-58 230 -225 0
-59 -230 225 0
-59 230 -225 0
-60 -230 225 0
-60 230 -225 0
-96 -230 225 0
-96 230 -225 0
-51 -226 231 0
-51 -225 231 0
-51 -231 226 225 0
-52 -231 226 0
-52 231 -226 0
-53 -231 226 0
-53 231 -226 0
-54 -231 226 0
-54 231 -226 0
-55 -231 226 0
-55 -231 227 0
-55 231 -226 -227 0
-56 -231 226 0
-56 -231 228 0
-56 231 -226 -228 0
-57 -231 226 0
-57 -231 229 0
-57 231 -226 -229 0
-58 -231 226 0
-58 231 -226 0
-59 -231 226 0
-59 231 -226 0
-60 -231 226 0
-60 231 -226 0
-96 -231 226 0
-96 231 -226 0
-51 -232 227 0
-51 232 -227 0
-52 -227 232 0
-52 -225 232 0
-52 -232 227 225 0
-53 -232 227 0
-53 232 -227 0
-54 -232 227 0
-54 232 -227 0
-55 -227 232 0
-55 -226 232 0
-55 -232 227 226 0
-56 -232 227 0
-56 232 -227 0
-57 -232 227 0
-57 232 -227 0
-58 -232 227 0
-58 -232 228 0
-58 232 -227 -228 0
-59 -232 227 0
-59 -232 229 0
-59 232 -227 -229 0
-60 -232 227 0
-60 232 -227 0
-96 -232 227 0
-96 232 -227 0
-51 -233 228 0
-51 233 -228 0
-52 -233 228 0
-52 233 -228 0
-53 -228 233 0
-53 -225 233 0
-53 -233 228 225 0
-54 -233 228 0
-54 233 -228 0
-55 -233 228 0
-55 233 -228 0
-56 -228 233 0
-56 -226 233 0
-56 -233 228 226 0
-57 -233 228 0
-57 233 -228 0
-58 -228 233 0
-58 -227 233 0
-58 -233 228 227 0
-59 -233 228 0
-59 233 -228 0
-60 -233 228 0
-60 -233 229 0
-60 233 -228 -229 0
-96 -233 228 0
-96 233 -228 0
-51 -234 229 0
-51 234 -229 0
-52 -234 229 0
-52 234 -229 0
-53 -234 229 0
-53 234 -229 0
-54 -229 234 0
-54 -225 234 0
-54 -234 229 225 0
-55 -234 229 0
-55 234 -229 0
-56 -234 229 0
-56 234 -229 0
-57 -229 234 0
-57 -226 234 0
-57 -234 229 226 0
-58 -234 229 0
-58 234 -229 0
-59 -229 234 0
-59 -227 234 0
-59 -234 229 227 0
-60 -229 234 0
-60 -228 234 0
-60 -234 229 228 0
-96 -234 229 0
-96 234 -229 0
-61 -235 230 0
-61 -235 231 0
-61 235 -230 -231 0
-62 -235 230 0
-62 -235 232 0
-62 235 -230 -232 0
-63 -235 230 0
-63 -235 233 0
-63 235 -230 -233 0
-64 -235 230 0
-64 -235 234 0
-64 235 -230 -234 0
-65 -235 230 0
-65 235 -230 0
-66 -235 230 0
-66 235 -230 0
-67 -235 230 0
-67 235 -230 0
-68 -235 230 0
-68 235 -230 0
-69 -235 230 0
-69 235 -230 0
-70 -235 230 0
-70 235 -230 0
-97 -235 230 0
-97 235 -230 0
-61 -231 236 0
-61 -230 236 0
-61 -236 231 230 0
-62 -236 231 0
-62 236 -231 0
-63 -236 231 0
-63 236 -231 0
-64 -236 231 0
-64 236 -231 0
-65 -236 231 0
-65 -236 232 0
-65 236 -231 -232 0
-66 -236 231 0
-66 -236 233 0
-66 236 -231 -233 0
-67 -236 231 0
-67 -236 234 0
-67 236 -231 -234 0
-68 -236 231 0
-68 236 -231 0
-69 -236 231 0
-69 236 -231 0
-70 -236 231 0
-70 236 -231 0
-97 -236 231 0
-97 236 -231 0
-61 -237 232 0
-61 237 -232 0
-62 -232 237 0
-62 -230 237 0
-62 -237 232 230 0
-63 -237 232 0
-63 237 -232 0
-64 -237 232 0
-64 237 -232 0
-65 -232 237 0
-65 -231 237 0
-65 -237 232 231 0
-66 -237 232 0
-66 237 -232 0
-67 -237 232 0
-67 237 -232 0
-68 -237 232 0
-68 -237 233 0
-68 237 -232 -233 0
-69 -237 232 0
-69 -237 234 0
-69 237 -232 -234 0
-70 -237 232 0
-70 237 -232 0
-97 -237 232 0
-97 237 -232 0
-61 -238 233 0
-61 238 -233 0
-62 -238 233 0
-62 238 -233 0
-63 -233 238 0
-63 -230 238 0
-63 -238 233 230 0
-64 -238 233 0
-64 238 -233 0
-65 -238 233 0
-65 238 -233 0
-66 -233 238 0
-66 -231 238 0
-66 -238 233 231 0
-67 -238 233 0
-67 238 -233 0
-68 -233 238 0
-68 -232 238 0
-68 -238 233 232 0
-69 -238 233 0
-69 238 -233 0
-70 -238 233 0
-70 -238 234 0
-70 238 -233 -234 0
-97 -238 233 0
-97 238 -233 0
-61 -239 234 0
-61 239 -234 0
-62 -239 234 0
-62 239 -234 0
-63 -239 234 0
-63 239 -234 0
-64 -234 239 0
-64 -230 239 0
-64 -239 234 230 0
-65 -239 234 0
-65 239 -234 0
-66 -239 234 0
-66 239 -234 0
-67 -234 239 0
-67 -231 239 0
-67 -239 234 231 0
-68 -239 234 0
-68 239 -234 0
-69 -234 239 0
-69 -232 239 0
-69 -239 234 232 0
-70 -234 239 0
-70 -233 239 0
-70 -239 234 233 0
-97 -239 234 0
-97 239 -234 0
-71 -240 235 0
-71 -240 236 0
-71 240 -235 -236 0
-72 -240 235 0
-72 -240 237 0
-72 240 -235 -237 0
-73 -240 235 0
-73 -240 238 0
-73 240 -235 -238 0
-74 -240 235 0
-74 -240 239 0
-74 240 -235 -239 0
-75 -240 235 0
-75 240 -235 0
-76 -240 235 0
-76 240 -235 0
-77 -240 235 0
-77 240 -235 0
-78 -240 235 0
-78 240 -235 0
-79 -240 235 0
-79 240 -235 0
-80 -240 235 0
-80 240 -235 0
-98 -240 235 0
-98 240 -235 0
-71 -236 241 0
-71 -235 241 0
-71 -241 236 235 0
-72 -241 236 0
-72 241 -236 0
-73 -241 236 0
-73 241 -236 0
-74 -241 236 0
-74 241 -236 0
-75 -241 236 0
-75 -241 237 0
-75 241 -236 -237 0
-76 -241 236 0
-76 -241 238 0
-76 241 -236 -238 0
-77 -241 236 0
-77 -241 239 0
-77 241 -236 -239 0
-78 -241 236 0
-78 241 -236 0
-79 -241 236 0
-79 241 -236 0
-80 -241 236 0
-80 241 -236 0
-98 -241 236 0
-98 241 -236 0
-71 -242 237 0
-71 242 -237 0
-72 -237 242 0
-72 -235 242 0
-72 -242 237 235 0
-73 -242 237 0
-73 242 -237 0
-74 -242 237 0
-74 242 -237 0
-75 -237 242 0
-75 -236 242 0
-75 -242 237 236 0
-76 -242 237 0
-76 242 -237 0
-77 -242 237 0
-77 242 -237 0
-78 -242 237 0
-78 -242 238 0
-78 242 -237 -238 0
-79 -242 237 0
-79 -242 239 0
-79 242 -237 -239 0
-80 -242 237 0
-80 242 -237 0
-98 -242 237 0
-98 242 -237 0
-71 -243 238 0
-71 243 -238 0
-72 -243 238 0
-72 243 -238 0
-73 -238 243 0
-73 -235 243 0
-73 -243 238 235 0
-74 -243 238 0
-74 243 -238 0
-75 -243 238 0
-75 243 -238 0
-76 -238 243 0
-76 -236 243 0
-76 -243 238 236 0
-77 -243 238 0
-77 243 -238 0
-78 -238 243 0
-78 -237 243 0
-78 -243 238 237 0
-79 -243 238 0
-79 243 -238 0
-80 -243 238 0
-80 -243 239 0
-80 243 -238 -239 0
-98 -243 238 0
-98 243 -238 0
-71 -244 239 0
-71 244 -239 0
-72 -244 239 0
-72 244 -239 0
-73 -244 239 0
-73 244 -239 0
-74 -239 244 0
-74 -235 244 0
-74 -244 239 235 0
-75 -244 239 0
-75 244 -239 0
-76 -244 239 0
-76 244 -239 0
-77 -239 244 0
-77 -236 244 0
-77 -244 239 236 0
-78 -244 239 0
-78 244 -239 0
-79 -239 244 0
-79 -237 244 0
-79 -244 239 237 0
-80 -239 244 0
-80 -238 244 0
-80 -244 239 238 0
-98 -244 239 0
-98 244 -239 0
-81 -245 240 0
-81 -245 241 0
-81 245 -240 -241 0
-82 -245 240 0
-82 -245 242 0
-82 245 -240 -242 0
-83 -245 240 0
-83 -245 243 0
-83 245 -240 -243 0
-84 -245 240 0
-84 -245 244 0
-84 245 -240 -244 0
-85 -245 240 0
-85 245 -240 0
-86 -245 240 0
-86 245 -240 0
-87 -245 240 0
-87 245 -240 0
-88 -245 240 0
-88 245 -240 0
-89 -245 240 0
-89 245 -240 0
-90 -245 240 0
-90 245 -240 0
-99 -245 240 0
-99 245 -240 0
-81 -241 246 0
-81 -240 246 0
-81 -246 241 240 0
-82 -246 241 0
-82 246 -241 0
-83 -246 241 0
-83 246 -241 0
-84 -246 241 0
-84 246 -241 0
-85 -246 241 0
-85 -246 242 0
-85 246 -241 -242 0
-86 -246 241 0
-86 -246 243 0
-86 246 -241 -243 0
-87 -246 241 0
-87 -246 244 0
-87 246 -241 -244 0
-88 -246 241 0
-88 246 -241 0
-89 -246 241 0
-89 246 -241 0
-90 -246 241 0
-90 246 -241 0
-99 -246 241 0
-99 246 -241 0
-81 -247 242 0
-81 247 -242 0
-82 -242 247 0
-82 -240 247 0
-82 -247 242 240 0
-83 -247 242 0
-83 247 -242 0
-84 -247 242 0
-84 247 -242 0
-85 -242 247 0
-85 -241 247 0
-85 -247 242 241 0
-86 -247 242 0
-86 247 -242 0
-87 -247 242 0
-87 247 -242 0
-88 -247 242 0
-88 -247 243 0
-88 247 -242 -243 0
-89 -247 242 0
-89 -247 244 0
-89 247 -242 -244 0
-90 -247 242 0
-90 247 -242 0
-99 -247 242 0
-99 247 -242 0
-81 -248 243 0
-81 248 -243 0
-82 -248 243 0
-82 248 -243 0
-83 -243 248 0
-83 -240 248 0
-83 -248 243 240 0
-84 -248 243 0
-84 248 -243 0
-85 -248 243 0
-85 248 -243 0
-86 -243 248 0
-86 -241 248 0
-86 -248 243 241 0
-87 -248 243 0
-87 248 -243 0
-88 -243 248 0
-88 -242 248 0
-88 -248 243 242 0
-89 -248 243 0
-89 248 -243 0
-90 -248 243 0
-90 -248 244 0
-90 248 -243 -244 0
-99 -248 243 0
-99 248 -243 0
-81 -249 244 0
-81 249 -244 0
-82 -249 244 0
-82 249 -244 0
-83 -249 244 0
-83 249 -244 0
-84 -244 249 0
-84 -240 249 0
-84 -249 244 240 0
-85 -249 244 0
-85 249 -244 0
-86 -249 244 0
-86 249 -244 0
-87 -244 249 0
-87 -241 249 0
-87 -249 244 241 0
-88 -249 244 0
-88 249 -244 0
-89 -244 249 0
-89 -242 249 0
-89 -249 244 242 0
-90 -244 249 0
-90 -243 249 0
-90 -249 244 243 0
-99 -249 244 0
-99 249 -244 0
-250 0
-1 -255 250 0
-1 -255 251 0
-1 255 -250 -251 0
-2 -255 250 0
-2 -255 252 0
-2 255 -250 -252 0
-3 -255 250 0
-3 -255 253 0
-3 255 -250 -253 0
-4 -255 250 0
-4 -255 254 0
-4 255 -250 -254 0
-5 -255 250 0
-5 255 -250 0
-6 -255 250 0
-6 255 -250 0
-7 -255 250 0
-7 255 -250 0
-8 -255 250 0
-8 255 -250 0
-9 -255 250 0
-9 255 -250 0
-10 -255 250 0
-10 255 -250 0
-91 -255 250 0
-91 255 -250 0
-251 0
-1 -251 256 0
-1 -250 256 0
-1 -256 251 250 0
-2 -256 251 0
-2 256 -251 0
-3 -256 251 0
-3 256 -251 0
-4 -256 251 0
-4 256 -251 0
-5 -256 251 0
-5 -256 252 0
-5 256 -251 -252 0
-6 -256 251 0
-6 -256 253 0
-6 256 -251 -253 0
-7 -256 251 0
-7 -256 254 0
-7 256 -251 -254 0
-8 -256 251 0
-8 256 -251 0
-9 -256 251 0
-9 256 -251 0
-10 -256 251 0
-10 256 -251 0
-91 -256 251 0
-91 256 -251 0
252 0
-1 -257 252 0
-1 257 -252 0
-2 -252 257 0
-2 -250 257 0
-2 -257 252 250 0
-3 -257 252 0
-3 257 -252 0
-4 -257 252 0
-4 257 -252 0
-5 -252 257 0
-5 -251 257 0
-5 -257 252 251 0
-6 -257 252 0
-6 257 -252 0
-7 -257 252 0
-7 257 -252 0
-8 -257 252 0
-8 -257 253 0
-8 257 -252 -253 0
-9 -257 252 0
-9 -257 254 0
-9 257 -252 -254 0
-10 -257 252 0
-10 257 -252 0
-91 -257 252 0
-91 257 -252 0
253 0
-1 -258 253 0
-1 258 -253 0
-2 -258 253 0
-2 258 -253 0
-3 -253 258 0
-3 -250 258 0
-3 -258 253 250 0
-4 -258 253 0
-4 258 -253 0
-5 -258 253 0
-5 258 -253 0
-6 -253 258 0
-6 -251 258 0
-6 -258 253 251 0
-7 -258 253 0
-7 258 -253 0
-8 -253 258 0
-8 -252 258 0
-8 -258 253 252 0
-9 -258 253 0
-9 258 -253 0
-10 -258 253 0
-10 -258 254 0
-10 258 -253 -254 0
-91 -258 253 0
-91 258 -253 0
-254 0
-1 -259 254 0
-1 259 -254 0
-2 -259 254 0
-2 259 -254 0
-3 -259 254 0
-3 259 -254 0
-4 -254 259 0
-4 -250 259 0
-4 -259 254 250 0
-5 -259 254 0
-5 259 -254 0
-6 -259 254 0
-6 259 -254 0
-7 -254 259 0
-7 -251 259 0
-7 -259 254 251 0
-8 -259 254 0
-8 259 -254 0
-9 -254 259 0
-9 -252 259 0
-9 -259 254 252 0
-10 -254 259 0
-10 -253 259 0
-10 -259 254 253 0
-91 -259 254 0
-91 259 -254 0
-11 -260 255 0
-11 -260 256 0
-11 260 -255 -256 0
-12 -260 255 0
-12 -260 257 0
-12 260 -255 -257 0
-13 -260 255 0
-13 -260 258 0
-13 260 -255 -258 0
-14 -260 255 0
-14 -260 259 0
-14 260 -255 -259 0
-15 -260 255 0
-15 260 -255 0
-16 -260 255 0
-16 260 -255 0
-17 -260 255 0
-17 260 -255 0
-18 -260 255 0
-18 260 -255 0
-19 -260 255 0
-19 260 -255 0
-20 -260 255 0
-20 260 -255 0
-92 -260 255 0
-92 260 -255 0
-11 -256 261 0
-11 -255 261 0
-11 -261 256 255 0
-12 -261 256 0
-12 261 -256 0
-13 -261 256 0
-13 261 -256 0
-14 -261 256 0
-14 261 -256 0
-15 -261 256 0
-15 -261 257 0
-15 261 -256 -257 0
-16 -261 256 0
-16 -261 258 0
-16 261 -256 -258 0
-17 -261 256 0
-17 -261 259 0
-17 261 -256 -259 0
-18 -261 256 0
-18 261 -256 0
-19 -261 256 0
-19 261 -256 0
-20 -261 256 0
-20 261 -256 0
-92 -261 256 0
-92 261 -256 0
-11 -262 257 0
-11 262 -257 0
-12 -257 262 0
-12 -255 262 0
-12 -262 257 255 0
-13 -262 257 0
-13 262 -257 0
-14 -262 257 0
-14 262 -257 0
-15 -257 262 0
-15 -256 262 0
-15 -262 257 256 0
-16 -262 257 0
-16 262 -257 0
-17 -262 257 0
-17 262 -257 0
-18 -262 257 0
-18 -262 258 0
-18 262 -257 -258 0
-19 -262 257 0
-19 -262 259 0
-19 262 -257 -259 0
-20 -262 257 0
-20 262 -257 0
-92 -262 257 0
-92 262 -257 0
-11 -263 258 0
-11 263 -258 0
-12 -263 258 0
-12 263 -258 0
-13 -258 263 0
-13 -255 263 0
-13 -263 258 255 0
-14 -263 258 0
-14 263 -258 0
-15 -263 258 0
-15 263 -258 0
-16 -258 263 0
-16 -256 263 0
-16 -263 258 256 0
-17 -263 258 0
-17 263 -258 0
-18 -258 263 0
-18 -257 263 0
-18 -263 258 257 0
-19 -263 258 0
-19 263 -258 0
-20 -263 258 0
-20 -263 259 0
-20 263 -258 -259 0
-92 -263 258 0
-92 263 -258 0
-11 -264 259 0
-11 264 -259 0
-12 -264 259 0
-12 264 -259 0
-13 -264 259 0
-13 264 -259 0
-14 -259 264 0
-14 -255 264 0
-14 -264 259 255 0
-15 -264 259 0
-15 264 -259 0
-16 -264 259 0
-16 264 -259 0
-17 -259 264 0
-17 -256 264 0
-17 -264 259 256 0
-18 -264 259 0
-18 264 -259 0
-19 -259 264 0
-19 -257 264 0
-19 -264 259 257 0
-20 -259 264 0
-20 -258 264 0
-20 -264 259 258 0
-92 -264 259 0
-92 264 -259 0
-21 -265 260 0
-21 -265 261 0
-21 265 -260 -261 0
-22 -265 260 0
-22 -265 262 0
-22 265 -260 -262 0
-23 -265 260 0
-23 -265 263 0
-23 265 -260 -263 0
-24 -265 260 0
-24 -265 264 0
-24 265 -260 -264 0
-25 -265 260 0
-25 265 -260 0
-26 -265 260 0
-26 265 -260 0
-27 -265 260 0
-27 265 -260 0
-28 -265 260 0
-28 265 -260 0
-29 -265 260 0
-29 265 -260 0
-30 -265 260 0
-30 265 -260 0
-93 -265 260 0
-93 265 -260 0
-21 -261 266 0
-21 -260 266 0
-21 -266 261 260 0
-22 -266 261 0
-22 266 -261 0
-23 -266 261 0
-23 266 -261 0
-24 -266 261 0
-24 266 -261 0
-25 -266 261 0
-25 -266 262 0
-25 266 -261 -262 0
-26 -266 261 0
-26 -266 263 0
-26 266 -261 -263 0
-27 -266 261 0
-27 -266 264 0
-27 266 -261 -264 0
-28 -266 261 0
-28 266 -261 0
-29 -266 261 0
-29 266 -261 0
-30 -266 261 0
-30 266 -261 0
-93 -266 261 0
-93 266 -261 0
-21 -267 262 0
-21 267 -262 0
-22 -262 267 0
-22 -260 267 0
-22 -267 262 260 0
-23 -267 262 0
-23 267 -262 0
-24 -267 262 0
-24 267 -262 0
-25 -262 267 0
-25 -261 267 0
-25 -267 262 261 0
-26 -267 262 0
-26 267 -262 0
-27 -267 262 0
-27 267 -262 0
-28 -267 262 0
-28 -267 263 0
-28 267 -262 -263 0
-29 -267 262 0
-29 -267 264 0
-29 267 -262 -264 0
-30 -267 262 0
-30 267 -262 0
-93 -267 262 0
-93 267 -262 0
-21 -268 263 0
-21 268 -263 0
-22 -268 263 0
-22 268 -263 0
-23 -263 268 0
-23 -260 268 0
-23 -268 263 260 0
-24 -268 263 0
-24 268 -263 0
-25 -268 263 0
-25 268 -263 0
-26 -263 268 0
-26 -261 268 0
-26 -268 263 261 0
-27 -268 263 0
-27 268 -263 0
-28 -263 268 0
-28 -262 268 0
-28 -268 263 262 0
-29 -268 263 0
-29 268 -263 0
-30 -268 263 0
-30 -268 264 0
-30 268 -263 -264 0
-93 -268 263 0
-93 268 -263 0
-21 -269 264 0
-21 269 -264 0
-22 -269 264 0
-22 269 -264 0
-23 -269 264 0
-23 269 -264 0
-24 -264 269 0
-24 -260 269 0
-24 -269 264 260 0
-25 -269 264 0
-25 269 -264 0
-26 -269 264 0
-26 269 -264 0
-27 -264 269 0
-27 -261 269 0
-27 -269 264 261 0
-28 -269 264 0
-28 269 -264 0
-29 -264 269 0
-29 -262 269 0
-29 -269 264 262 0
-30 -264 269 0
-30 -263 269 0
-30 -269 264 263 0
-93 -269 264 0
-93 269 -264 0
-31 -270 265 0
-31 -270 266 0
-31 270 -265 -266 0
-32 -270 265 0
-32 -270 267 0
-32 270 -265 -267 0
-33 -270 265 0
-33 -270 268 0
-33 270 -265 -268 0
-34 -270 265 0
-34 -270 269 0
-34 270 -265 -269 0
-35 -270 265 0
-35 270 -265 0
-36 -270 265 0
-36 270 -265 0
-37 -270 265 0
-37 270 -265 0
-38 -270 265 0
-38 270 -265 0
-39 -270 265 0
-39 270 -265 0
-40 -270 265 0
-40 270 -265 0
-94 -270 265 0
-94 270 -265 0
-31 -266 271 0
-31 -265 271 0
-31 -271 266 265 0
-32 -271 266 0
-32 271 -266 0
-33 -271 266 0
-33 271 -266 0
-34 -271 266 0
-34 271 -266 0
-35 -271 266 0
-35 -271 267 0
-35 271 -266 -267 0
-36 -271 266 0
-36 -271 268 0
-36 271 -266 -268 0
-37 -271 266 0
-37 -271 269 0
-37 271 -266 -269 0
-38 -271 266 0
-38 271 -266 0
-39 -271 266 0
-39 271 -266 0
-40 -271 266 0
-40 271 -266 0
-94 -271 266 0
-94 271 -266 0
-31 -272 267 0
-31 272 -267 0
-32 -267 272 0
-32 -265 272 0
-32 -272 267 265 0
-33 -272 267 0
-33 272 -267 0
-34 -272 267 0
-34 272 -267 0
-35 -267 272 0
-35 -266 272 0
-35 -272 267 266 0
-36 -272 267 0
-36 272 -267 0
-37 -272 267 0
-37 272 -267 0
-38 -272 267 0
-38 -272 268 0
-38 272 -267 -268 0
-39 -272 267 0
-39 -272 269 0
-39 272 -267 -269 0
-40 -272 267 0
-40 272 -267 0
-94 -272 267 0
-94 272 -267 0
-31 -273 268 0
-31 273 -268 0
-32 -273 268 0
-32 273 -268 0
-33 -268 273 0
-33 -265 273 0
-33 -273 268 265 0
-34 -273 268 0
-34 273 -268 0
-35 -273 268 0
-35 273 -268 0
-36 -268 273 0
-36 -266 273 0
-36 -273 268 266 0
-37 -273 268 0
-37 273 -268 0
-38 -268 273 0
-38 -267 273 0
-38 -273 268 267 0
-39 -273 268 0
-39 273 -268 0
-40 -273 268 0
-40 -273 269 0
-40 273 -268 -269 0
-94 -273 268 0
-94 273 -268 0
-31 -274 269 0
-31 274 -269 0
-32 -274 269 0
-32 274 -269 0
-33 -274 269 0
-33 274 -269 0
-34 -269 274 0
-34 -265 274 0
-34 -274 269 265 0
-35 -274 269 0
-35 274 -269 0
-36 -274 269 0
-36 274 -269 0
-37 -269 274 0
-37 -266 274 0
-37 -274 269 266 0
-38 -274 269 0
-38 274 -269 0
-39 -269 274 0
-39 -267 274 0
-39 -274 269 267 0
-40 -269 274 0
-40 -268 274 0
-40 -274 269 268 0
-94 -274 269 0
-94 274 -269 0
-41 -275 270 0
-41 -275 271 0
-41 275 -270 -271 0
-42 -275 270 0
-42 -275 272 0
-42 275 -270 -272 0
-43 -275 270 0
-43 -275 273 0
-43 275 -270 -273 0
-44 -275 270 0
-44 -275 274 0
-44 275 -270 -274 0
-45 -275 270 0
-45 275 -270 0
-46 -275 270 0
-46 275 -270 0
-47 -275 270 0
-47 275 -270 0
-48 -275 270 0
-48 275 -270 0
-49 -275 270 0
-49 275 -270 0
-50 -275 270 0
-50 275 -270 0
-95 -275 270 0
-95 275 -270 0
-41 -271 276 0
-41 -270 276 0
-41 -276 271 270 0
-42 -276 271 0
-42 276 -271 0
-43 -276 271 0
-43 276 -271 0
-44 -276 271 0
-44 276 -271 0
-45 -276 271 0
-45 -276 272 0
-45 276 -271 -272 0
-46 -276 271 0
-46 -276 273 0
-46 276 -271 -273 0
-47 -276 271 0
-47 -276 274 0
-47 276 -271 -274 0
-48 -276 271 0
-48 276 -271 0
-49 -276 271 0
-49 276 -271 0
-50 -276 271 0
-50 276 -271 0
-95 -276 271 0
-95 276 -271 0
-41 -277 272 0
-41 277 -272 0
-42 -272 277 0
-42 -270 277 0
-42 -277 272 270 0
-43 -277 272 0
-43 277 -272 0
-44 -277 272 0
-44 277 -272 0
-45 -272 277 0
-45 -271 277 0
-45 -277 272 271 0
-46 -277 272 0
-46 277 -272 0
-47 -277 272 0
-47 277 -272 0
-48 -277 272 0
-48 -277 273 0
-48 277 -272 -273 0
-49 -277 272 0
-49 -277 274 0
-49 277 -272 -274 0
-50 -277 272 0
-50 277 -272 0
-95 -277 272 0
-95 277 -272 0
-41 -278 273 0
-41 278 -273 0
-42 -278 273 0
-42 278 -273 0
-43 -273 278 0
-43 -270 278 0
-43 -278 273 270 0
-44 -278 273 0
-44 278 -273 0
-45 -278 273 0
-45 278 -273 0
-46 -273 278 0
-46 -271 278 0
-46 -278 273 271 0
-47 -278 273 0
-47 278 -273 0
-48 -273 278 0
-48 -272 278 0
-48 -278 273 272 0
-49 -278 273 0
-49 278 -273 0
-50 -278 273 0
-50 -278 274 0
-50 278 -273 -274 0
-95 -278 273 0
-95 278 -273 0
-41 -279 274 0
-41 279 -274 0
-42 -279 274 0
-42 279 -274 0
-43 -279 274 0
-43 279 -274 0
-44 -274 279 0
-44 -270 279 0
-44 -279 274 270 0
-45 -279 274 0
-45 279 -274 0
-46 -279 274 0
-46 279 -274 0
-47 -274 279 0
-47 -271 279 0
-47 -279 274 271 0
-48 -279 274 0
-48 279 -274 0
-49 -274 279 0
-49 -272 279 0
-49 -279 274 272 0
-50 -274 279 0
-50 -273 279 0
-50 -279 274 273 0
-95 -279 274 0
-95 279 -274 0
-51 -280 275 0
-51 -280 276 0
-51 280 -275 -276 0
-52 -280 275 0
-52 -280 277 0
-52 280 -275 -277 0
-53 -280 275 0
-53 -280 278 0
-53 280 -275 -278 0
-54 -280 275 0
-54 -280 279 0
-54 280 -275 -279 0
-55 -280 275 0
-55 280 -275 0
-56 -280 275 0
-56 280 -275 0
-57 -280 275 0
-57 280 -275 0
-58 -280 275 0
-58 280 -275 0
-59 -280 275 0
-59 280 -275 0
-60 -280 275 0
-60 280 -275 0
-96 -280 275 0
-96 280 -275 0
-51 -276 281 0
-51 -275 281 0
-51 -281 276 275 0
-52 -281 276 0
-52 281 -276 0
-53 -281 276 0
-53 281 -276 0
-54 -281 276 0
-54 281 -276 0
-55 -281 276 0
-55 -281 277 0
-55 281 -276 -277 0
-56 -281 276 0
-56 -281 278 0
-56 281 -276 -278 0
-57 -281 276 0
-57 -281 279 0
-57 281 -276 -279 0
-58 -281 276 0
-58 281 -276 0
-59 -281 276 0
-59 281 -276 0
-60 -281 276 0
-60 281 -276 0
-96 -281 276 0
-96 281 -276 0
-51 -282 277 0
-51 282 -277 0
-52 -277 282 0
-52 -275 282 0
-52 -282 277 275 0
-53 -282 277 0
-53 282 -277 0
-54 -282 277 0
-54 282 -277 0
-55 -277 282 0
-55 -276 282 0
-55 -282 277 276 0
-56 -282 277 0
-56 282 -277 0
-57 -282 277 0
-57 282 -277 0
-58 -282 277 0
-58 -282 278 0
-58 282 -277 -278 0
-59 -282 277 0
-59 -282 279 0
-59 282 -277 -279 0
-60 -282 277 0
-60 282 -277 0
-96 -282 277 0
-96 282 -277 0
-51 -283 278 0
-51 283 -278 0
-52 -283 278 0
-52 283 -278 0
-53 -278 283 0
-53 -275 283 0
-53 -283 278 275 0
-54 -283 278 0
-54 283 -278 0
-55 -283 278 0
-55 283 -278 0
-56 -278 283 0
-56 -276 283 0
-56 -283 278 276 0
-57 -283 278 0
-57 283 -278 0
-58 -278 283 0
-58 -277 283 0
-58 -283 278 277 0
-59 -283 278 0
-59 283 -278 0
-60 -283 278 0
-60 -283 279 0
-60 283 -278 -279 0
-96 -283 278 0
-96 283 -278 0
-51 -284 279 0
-51 284 -279 0
-52 -284 279 0
-52 284 -279 0
-53 -284 279 0
-53 284 -279 0
-54 -279 284 0
-54 -275 284 0
-54 -284 279 275 0
-55 -284 279 0
-55 284 -279 0
-56 -284 279 0
-56 284 -279 0
-57 -279 284 0
-57 -276 284 0
-57 -284 279 276 0
-58 -284 279 0
-58 284 -279 0
-59 -279 284 0
-59 -277 284 0
-59 -284 279 277 0
-60 -279 284 0
-60 -278 284 0
-60 -284 279 278 0
-96 -284 279 0
-96 284 -279 0
-61 -285 280 0
-61 -285 281 0
-61 285 -280 -281 0
-62 -285 280 0
-62 -285 282 0
-62 285 -280 -282 0
-63 -285 280 0
-63 -285 283 0
-63 285 -280 -283 0
-64 -285 280 0
-64 -285 284 0
-64 285 -280 -284 0
-65 -285 280 0
-65 285 -280 0
-66 -285 280 0
-66 285 -280 0
-67 -285 280 0
-67 285 -280 0
-68 -285 280 0
-68 285 -280 0
-69 -285 280 0
-69 285 -280 0
-70 -285 280 0
-70 285 -280 0
-97 -285 280 0
-97 285 -280 0
-61 -281 286 0
-61 -280 286 0
-61 -286 281 280 0
-62 -286 281 0
-62 286 -281 0
-63 -286 281 0
-63 286 -281 0
-64 -286 281 0
-64 286 -281 0
-65 -286 281 0
-65 -286 282 0
-65 286 -281 -282 0
-66 -286 281 0
-66 -286 283 0
-66 286 -281 -283 0
-67 -286 281 0
-67 -286 284 0
-67 286 -281 -284 0
-68 -286 281 0
-68 286 -281 0
-69 -286 281 0
-69 286 -281 0
-70 -286 281 0
-70 286 -281 0
-97 -286 281 0
-97 286 -281 0
-61 -287 282 0
-61 287 -282 0
-62 -282 287 0
-62 -280 287 0
-62 -287 282 280 0
-63 -287 282 0
-63 287 -282 0
-64 -287 282 0
-64 287 -282 0
-65 -282 287 0
-65 -281 287 0
-65 -287 282 281 0
-66 -287 282 0
-66 287 -282 0
-67 -287 282 0
-67 287 -282 0
-68 -287 282 0
-68 -287 283 0
-68 287 -282 -283 0
-69 -287 282 0
-69 -287 284 0
-69 287 -282 -284 0
-70 -287 282 0
-70 287 -282 0
-97 -287 282 0
-97 287 -282 0
-61 -288 283 0
-61 288 -283 0
-62 -288 283 0
-62 288 -283 0
-63 -283 288 0
-63 -280 288 0
-63 -288 283 280 0
-64 -288 283 0
-64 288 -283 0
-65 -288 283 0
-65 288 -283 0
-66 -283 288 0
-66 -281 288 0
-66 -288 283 281 0
-67 -288 283 0
-67 288 -283 0
-68 -283 288 0
-68 -282 288 0
-68 -288 283 282 0
-69 -288 283 0
-69 288 -283 0
-70 -288 283 0
-70 -288 284 0
-70 288 -283 -284 0
-97 -288 283 0
-97 288 -283 0
-61 -289 284 0
-61 289 -284 0
-62 -289 284 0
-62 289 -284 0
-63 -289 284 0
-63 289 -284 0
-64 -284 289 0
-64 -280 289 0
-64 -289 284 280 0
-65 -289 284 0
-65 289 -284 0
-66 -289 284 0
-66 289 -284 0
-67 -284 289 0
-67 -281 289 0
-67 -289 284 281 0
-68 -289 284 0
-68 289 -284 0
-69 -284 289 0
-69 -282 289 0
-69 -289 284 282 0
-70 -284 289 0
-70 -283 289 0
-70 -289 284 283 0
-97 -289 284 0
-97 289 -284 0
-71 -290 285 0
-71 -290 286 0
-71 290 -285 -286 0
-72 -290 285 0
-72 -290 287 0
-72 290 -285 -287 0
-73 -290 285 0
-73 -290 288 0
-73 290 -285 -288 0
-74 -290 285 0
-74 -290 289 0
-74 290 -285 -289 0
-75 -290 285 0
-75 290 -285 0
-76 -290 285 0
-76 290 -285 0
-77 -290 285 0
-77 290 -285 0
-78 -290 285 0
-78 290 -285 0
-79 -290 285 0
-79 290 -285 0
-80 -290 285 0
-80 290 -285 0
-98 -290 285 0
-98 290 -285 0
-71 -286 291 0
-71 -285 291 0
-71 -291 286 285 0
-72 -291 286 0
-72 291 -286 0
-73 -291 286 0
-73 291 -286 0
-74 -291 286 0
-74 291 -286 0
-75 -291 286 0
-75 -291 287 0
-75 291 -286 -287 0
-76 -291 286 0
-76 -291 288 0
-76 291 -286 -288 0
-77 -291 286 0
-77 -291 289 0
-77 291 -286 -289 0
-78 -291 286 0
-78 291 -286 0
-79 -291 286 0
-79 291 -286 0
-80 -291 286 0
-80 291 -286 0
-98 -291 286 0
-98 291 -286 0
-71 -292 287 0
-71 292 -287 0
-72 -287 292 0
-72 -285 292 0
-72 -292 287 285 0
-73 -292 287 0
-73 292 -287 0
-74 -292 287 0
-74 292 -287 0
-75 -287 292 0
-75 -286 292 0
-75 -292 287 286 0
-76 -292 287 0
-76 292 -287 0
-77 -292 287 0
-77 292 -287 0
-78 -292 287 0
-78 -292 288 0
-78 292 -287 -288 0
-79 -292 287 0
-79 -292 289 0
-79 292 -287 -289 0
-80 -292 287 0
-80 292 -287 0
-98 -292 287 0
-98 292 -287 0
-71 -293 288 0
-71 293 -288 0
-72 -293 288 0
-72 293 -288 0
-73 -288 293 0
-73 -285 293 0
-73 -293 288 285 0
-74 -293 288 0
-74 293 -288 0
-75 -293 288 0
-75 293 -288 0
-76 -288 293 0
-76 -286 293 0
-76 -293 288 286 0
-77 -293 288 0
-77 293 -288 0
-78 -288 293 0
-78 -287 293 0
-78 -293 288 287 0
-79 -293 288 0
-79 293 -288 0
-80 -293 288 0
-80 -293 289 0
-80 293 -288 -289 0
-98 -293 288 0
-98 293 -288 0
-71 -294 289 0
-71 294 -289 0
-72 -294 289 0
-72 294 -289 0
-73 -294 289 0
-73 294 -289 0
-74 -289 294 0
-74 -285 294 0
-74 -294 289 285 0
-75 -294 289 0
-75 294 -289 0
-76 -294 289 0
-76 294 -289 0
-77 -289 294 0
-77 -286 294 0
-77 -294 289 286 0
-78 -294 289 0
-78 294 -289 0
-79 -289 294 0
-79 -287 294 0
-79 -294 289 287 0
-80 -289 294 0
-80 -288 294 0
-80 -294 289 288 0
-98 -294 289 0
-98 294 -289 0
-81 -295 290 0
-81 -295 291 0
-81 295 -290 -291 0
-82 -295 290 0
-82 -295 292 0
-82 295 -290 -292 0
-83 -295 290 0
-83 -295 293 0
-83 295 -290 -293 0
-84 -295 290 0
-84 -295 294 0
-84 295 -290 -294 0
-85 -295 290 0
-85 295 -290 0
-86 -295 290 0
-86 295 -290 0
-87 -295 290 0
-87 295 -290 0
-88 -295 290 0
-88 295 -290 0
-89 -295 290 0
-89 295 -290 0
-90 -295 290 0
-90 295 -290 0
-99 -295 290 0
-99 295 -290 0
-81 -291 296 0
-81 -290 296 0
-81 -296 291 290 0
-82 -296 291 0
-82 296 -291 0
-83 -296 291 0
-83 296 -291 0
-84 -296 291 0
-84 296 -291 0
-85 -296 291 0
-85 -296 292 0
-85 296 -291 -292 0
-86 -296 291 0
-86 -296 293 0
-86 296 -291 -293 0
-87 -296 291 0
-87 -296 294 0
-87 296 -291 -294 0
-88 -296 291 0
-88 296 -291 0
-89 -296 291 0
-89 296 -291 0
-90 -296 291 0
-90 296 -291 0
-99 -296 291 0
-99 296 -291 0
-81 -297 292 0
-81 297 -292 0
-82 -292 297 0
-82 -290 297 0
-82 -297 292 290 0
-83 -297 292 0
-83 297 -292 0
-84 -297 292 0
-84 297 -292 0
-85 -292 297 0
-85 -291 297 0
-85 -297 292 291 0
-86 -297 292 0
-86 297 -292 0
-87 -297 292 0
-87 297 -292 0
-88 -297 292 0
-88 -297 293 0
-88 297 -292 -293 0
-89 -297 292 0
-89 -297 294 0
-89 297 -292 -294 0
-90 -297 292 0
-90 297 -292 0
-99 -297 292 0
-99 297 -292 0
-81 -298 293 0
-81 298 -293 0
-82 -298 293 0
-82 298 -293 0
-83 -293 298 0
-83 -290 298 0
-83 -298 293 290 0
-84 -298 293 0
-84 298 -293 0
-85 -298 293 0
-85 298 -293 0
-86 -293 298 0
-86 -291 298 0
-86 -298 293 291 0
-87 -298 293 0
-87 298 -293 0
-88 -293 298 0
-88 -292 298 0
-88 -298 293 292 0
-89 -298 293 0
-89 298 -293 0
-90 -298 293 0
-90 -298 294 0
-90 298 -293 -294 0
-99 -298 293 0
-99 298 -293 0
-81 -299 294 0
-81 299 -294 0
-82 -299 294 0
-82 299 -294 0
-83 -299 294 0
-83 299 -294 0
-84 -294 299 0
-84 -290 299 0
-84 -299 294 290 0
-85 -299 294 0
-85 299 -294 0
-86 -299 294 0
-86 299 -294 0
-87 -294 299 0
-87 -291 299 0
-87 -299 294 291 0
-88 -299 294 0
-88 299 -294 0
-89 -294 299 0
-89 -292 299 0
-89 -299 294 292 0
-90 -294 299 0
-90 -293 299 0
-90 -299 294 293 0
-99 -299 294 0
-99 299 -294 0
-300 0
-1 -305 300 0
-1 -305 301 0
-1 305 -300 -301 0
-2 -305 300 0
-2 -305 302 0
-2 305 -300 -302 0
-3 -305 300 0
-3 -305 303 0
-3 305 -300 -303 0
-4 -305 300 0
-4 -305 304 0
-4 305 -300 -304 0
-5 -305 300 0
-5 305 -300 0
-6 -305 300 0
-6 305 -300 0
-7 -305 300 0
-7 305 -300 0
-8 -305 300 0
-8 305 -300 0
-9 -305 300 0
-9 305 -300 0
-10 -305 300 0
-10 305 -300 0
-91 -305 300 0
-91 305 -300 0
301 0
-1 -301 306 0
-1 -300 306 0
-1 -306 301 300 0
-2 -306 301 0
-2 306 -301 0
-3 -306 301 0
-3 306 -301 0
-4 -306 301 0
-4 306 -301 0
-5 -306 301 0
-5 -306 302 0
-5 306 -301 -302 0
-6 -306 301 0
-6 -306 303 0
-6 306 -301 -303 0
-7 -306 301 0
-7 -306 304 0
-7 306 -301 -304 0
-8 -306 301 0
-8 306 -301 0
-9 -306 301 0
-9 306 -301 0
-10 -306 301 0
-10 306 -301 0
-91 -306 301 0
-91 306 -301 0
-302 0
-1 -307 302 0
-1 307 -302 0
-2 -302 307 0
-2 -300 307 0
-2 -307 302 300 0
-3 -307 302 0
-3 307 -302 0
-4 -307 302 0
-4 307 -302 0
-5 -302 307 0
-5 -301 307 0
-5 -307 302 301 0
-6 -307 302 0
-6 307 -302 0
-7 -307 302 0
-7 307 -302 0
-8 -307 302 0
-8 -307 303 0
-8 307 -302 -303 0
-9 -307 302 0
-9 -307 304 0
-9 307 -302 -304 0
-10 -307 302 0
-10 307 -302 0
-91 -307 302 0
-91 307 -302 0
-303 0
-1 -308 303 0
-1 308 -303 0
-2 -308 303 0
-2 308 -303 0
-3 -303 308 0
-3 -300 308 0
-3 -308 303 300 0
-4 -308 303 0
-4 308 -303 0
-5 -308 303 0
-5 308 -303 0
-6 -303 308 0
-6 -301 308 0
-6 -308 303 301 0
-7 -308 303 0
-7 308 -303 0
-8 -303 308 0
-8 -302 308 0
-8 -308 303 302 0
-9 -308 303 0
-9 308 -303 0
-10 -308 303 0
-10 -308 304 0
-10 308 -303 -304 0
-91 -308 303 0
-91 308 -303 0
-304 0
-1 -309 304 0
-1 309 -304 0
-2 -309 304 0
-2 309 -304 0
-3 -309 304 0
-3 309 -304 0
-4 -304 309 0
-4 -300 309 0
-4 -309 304 300 0
-5 -309 304 0
-5 309 -304 0
-6 -309 304 0
-6 309 -304 0
-7 -304 309 0
-7 -301 309 0
-7 -309 304 301 0
-8 -309 304 0
-8 309 -304 0
-9 -304 309 0
-9 -302 309 0
-9 -309 304 302 0
-10 -304 309 0
-10 -303 309 0
-10 -309 304 303 0
-91 -309 304 0
-91 309 -304 0
-11 -310 305 0
-11 -310 306 0
-11 310 -305 -306 0
-12 -310 305 0
-12 -310 307 0
-12 310 -305 -307 0
-13 -310 305 0
-13 -310 308 0
-13 310 -305 -308 0
-14 -310 305 0
-14 -310 309 0
-14 310 -305 -309 0
-15 -310 305 0
-15 310 -305 0
-16 -310 305 0
-16 310 -305 0
-17 -310 305 0
-17 310 -305 0
-18 -310 305 0
-18 310 -305 0
-19 -310 305 0
-19 310 -305 0
-20 -310 305 0
-20 310 -305 0
-92 -310 305 0
-92 310 -305 0
-11 -306 311 0
-11 -305 311 0
-11 -311 306 305 0
-12 -311 306 0
-12 311 -306 0
-13 -311 306 0
-13 311 -306 0
-14 -311 306 0
-14 311 -306 0
-15 -311 306 0
-15 -311 307 0
-15 311 -306 -307 0
-16 -311 306 0
-16 -311 308 0
-16 311 -306 -308 0
-17 -311 306 0
-17 -311 309 0
-17 311 -306 -309 0
-18 -311 306 0
-18 311 -306 0
-19 -311 306 0
-19 311 -306 0
-20 -311 306 0
-20 311 -306 0
-92 -311 306 0
-92 311 -306 0
-11 -312 307 0
-11 312 -307 0
-12 -307 312 0
-12 -305 312 0
-12 -312 307 305 0
-13 -312 307 0
-13 312 -307 0
-14 -312 307 0
-14 312 -307 0
-15 -307 312 0
-15 -306 312 0
-15 -312 307 306 0
-16 -312 307 0
-16 312 -307 0
-17 -312 307 0
-17 312 -307 0
-18 -312 307 0
-18 -312 308 0
-18 312 -307 -308 0
-19 -312 307 0
-19 -312 309 0
-19 312 -307 -309 0
-20 -312 307 0
-20 312 -307 0
-92 -312 307 0
-92 312 -307 0
-11 -313 308 0
-11 313 -308 0
-12 -313 308 0
-12 313 -308 0
-13 -308 313 0
-13 -305 313 0
-13 -313 308 305 0
-14 -313 308 0
-14 313 -308 0
-15 -313 308 0
-15 313 -308 0
-16 -308 313 0
-16 -306 313 0
-16 -313 308 306 0
-17 -313 308 0
-17 313 -308 0
-18 -308 313 0
-18 -307 313 0
-18 -313 308 307 0
-19 -313 308 0
-19 313 -308 0
-20 -313 308 0
-20 -313 309 0
-20 313 -308 -309 0
-92 -313 308 0
-92 313 -308 0
-11 -314 309 0
-11 314 -309 0
-12 -314 309 0
-12 314 -309 0
-13 -314 309 0
-13 314 -309 0
-14 -309 314 0
-14 -305 314 0
-14 -314 309 305 0
-15 -314 309 0
-15 314 -309 0
-16 -314 309 0
-16 314 -309 0
-17 -309 314 0
-17 -306 314 0
-17 -314 309 306 0
-18 -314 309 0
-18 314 -309 0
-19 -309 314 0
-19 -307 314 0
-19 -314 309 307 0
-20 -309 314 0
-20 -308 314 0
-20 -314 309 308 0
-92 -314 309 0
-92 314 -309 0
-21 -315 310 0
-21 -315 311 0
-21 315 -310 -311 0
-22 -315 310 0
-22 -315 312 0
-22 315 -310 -312 0
-23 -315 310 0
-23 -315 313 0
-23 315 -310 -313 0
-24 -315 310 0
-24 -315 314 0
-24 315 -310 -314 0
-25 -315 310 0
-25 315 -310 0
-26 -315 310 0
-26 315 -310 0
-27 -315 310 0
-27 315 -310 0
-28 -315 310 0
-28 315 -310 0
-29 -315 310 0
-29 315 -310 0
-30 -315 310 0
-30 315 -310 0
-93 -315 310 0
-93 315 -310 0
-21 -311 316 0
-21 -310 316 0
-21 -316 311 310 0
-22 -316 311 0
-22 316 -311 0
-23 -316 311 0
-23 316 -311 0
-24 -316 311 0
-24 316 -311 0
-25 -316 311 0
-25 -316 312 0
-25 316 -311 -312 0
-26 -316 311 0
-26 -316 313 0
-26 316 -311 -313 0
-27 -316 311 0
-27 -316 314 0
-27 316 -311 -314 0
-28 -316 311 0
-28 316 -311 0
-29 -316 311 0
-29 316 -311 0
-30 -316 311 0
-30 316 -311 0
-93 -316 311 0
-93 316 -311 0
-21 -317 312 0
-21 317 -312 0
-22 -312 317 0
-22 -310 317 0
-22 -317 312 310 0
-23 -317 312 0
-23 317 -312 0
-24 -317 312 0
-24 317 -312 0
-25 -312 317 0
-25 -311 317 0
-25 -317 312 311 0
-26 -317 312 0
-26 317 -312 0
-27 -317 312 0
-27 317 -312 0
-28 -317 312 0
-28 -317 313 0
-28 317 -312 -313 0
-29 -317 312 0
-29 -317 314 0
-29 317 -312 -314 0
-30 -317 312 0
-30 317 -312 0
-93 -317 312 0
-93 317 -312 0
-21 -318 313 0
-21 318 -313 0
-22 -318 313 0
-22 318 -313 0
-23 -313 318 0
-23 -310 318 0
-23 -318 313 310 0
-24 -318 313 0
-24 318 -313 0
-25 -318 313 0
-25 318 -313 0
-26 -313 318 0
-26 -311 318 0
-26 -318 313 311 0
-27 -318 313 0
-27 318 -313 0
-28 -313 318 0
-28 -312 318 0
-28 -318 313 312 0
-29 -318 313 0
-29 318 -313 0
-30 -318 313 0
-30 -318 314 0
-30 318 -313 -314 0
-93 -318 313 0
-93 318 -313 0
-21 -319 314 0
-21 319 -314 0
-22 -319 314 0
-22 319 -314 0
-23 -319 314 0
-23 319 -314 0
-24 -314 319 0
-24 -310 319 0
-24 -319 314 310 0
-25 -319 314 0
-25 319 -314 0
-26 -319 314 0
-26 319 -314 0
-27 -314 319 0
-27 -311 319 0
-27 -319 314 311 0
-28 -319 314 0
-28 319 -314 0
-29 -314 319 0
-29 -312 319 0
-29 -319 314 312 0
-30 -314 319 0
-30 -313 319 0
-30 -319 314 313 0
-93 -319 314 0
-93 319 -314 0
-31 -320 315 0
-31 -320 316 0
-31 320 -315 -316 0
-32 -320 315 0
-32 -320 317 0
-32 320 -315 -317 0
-33 -320 315 0
-33 -320 318 0
-33 320 -315 -318 0
-34 -320 315 0
-34 -320 319 0
-34 320 -315 -319 0
-35 -320 315 0
-35 320 -315 0
-36 -320 315 0
-36 320 -315 0
-37 -320 315 0
-37 320 -315 0
-38 -320 315 0
-38 320 -315 0
-39 -320 315 0
-39 320 -315 0
-40 -320 315 0
-40 320 -315 0
-94 -320 315 0
-94 320 -315 0
-31 -316 321 0
-31 -315 321 0
-31 -321 316 315 0
-32 -321 316 0
-32 321 -316 0
-33 -321 316 0
-33 321 -316 0
-34 -321 316 0
-34 321 -316 0
-35 -321 316 0
-35 -321 317 0
-35 321 -316 -317 0
-36 -321 316 0
-36 -321 318 0
-36 321 -316 -318 0
-37 -321 316 0
-37 -321 319 0
-37 321 -316 -319 0
-38 -321 316 0
-38 321 -316 0
-39 -321 316 0
-39 321 -316 0
-40 -321 316 0
-40 321 -316 0
-94 -321 316 0
-94 321 -316 0
-31 -322 317 0
-31 322 -317 0
-32 -317 322 0
-32 -315 322 0
-32 -322 317 315 0
-33 -322 317 0
-33 322 -317 0
-34 -322 317 0
-34 322 -317 0
-35 -317 322 0
-35 -316 322 0
-35 -322 317 316 0
-36 -322 317 0
-36 322 -317 0
-37 -322 317 0
-37 322 -317 0
-38 -322 317 0
-38 -322 318 0
-38 322 -317 -318 0
-39 -322 317 0
-39 -322 319 0
-39 322 -317 -319 0
-40 -322 317 0
-40 322 -317 0
-94 -322 317 0
-94 322 -317 0
-31 -323 318 0
-31 323 -318 0
-32 -323 318 0
-32 323 -318 0
-33 -318 323 0
-33 -315 323 0
-33 -323 318 315 0
-34 -323 318 0
-34 323 -318 0
-35 -323 318 0
-35 323 -318 0
-36 -318 323 0
-36 -316 323 0
-36 -323 318 316 0
-37 -323 318 0
-37 323 -318 0
-38 -318 323 0
-38 -317 323 0
-38 -323 318 317 0
-39 -323 318 0
-39 323 -318 0
-40 -323 318 0
-40 -323 319 0
-40 323 -318 -319 0
-94 -323 318 0
-94 323 -318 0
-31 -324 319 0
-31 324 -319 0
-32 -324 319 0
-32 324 -319 0
-33 -324 319 0
-33 324 -319 0
-34 -319 324 0
-34 -315 324 0
-34 -324 319 315 0
-35 -324 319 0
-35 324 -319 0
-36 -324 319 0
-36 324 -319 0
-37 -319 324 0
-37 -316 324 0
-37 -324 319 316 0
-38 -324 319 0
-38 324 -319 0
-39 -319 324 0
-39 -317 324 0
-39 -324 319 317 0
-40 -319 324 0
-40 -318 324 0
-40 -324 319 318 0
-94 -324 319 0
-94 324 -319 0
-41 -325 320 0
-41 -325 321 0
-41 325 -320 -321 0
-42 -325 320 0
-42 -325 322 0
-42 325 -320 -322 0
-43 -325 320 0
-43 -325 323 0
-43 325 -320 -323 0
-44 -325 320 0
-44 -325 324 0
-44 325 -320 -324 0
-45 -325 320 0
-45 325 -320 0
-46 -325 320 0
-46 325 -320 0
-47 -325 320 0
-47 325 -320 0
-48 -325 320 0
-48 325 -320 0
-49 -325 320 0
-49 325 -320 0
-50 -325 320 0
-50 325 -320 0
-95 -325 320 0
-95 325 -320 0
-41 -321 326 0
-41 -320 326 0
-41 -326 321 320 0
-42 -326 321 0
-42 326 -321 0
-43 -326 321 0
-43 326 -321 0
-44 -326 321 0
-44 326 -321 0
-45 -326 321 0
-45 -326 322 0
-45 326 -321 -322 0
-46 -326 321 0
-46 -326 323 0
-46 326 -321 -323 0
-47 -326 321 0
-47 -326 324 0
-47 326 -321 -324 0
-48 -326 321 0
-48 326 -321 0
-49 -326 321 0
-49 326 -321 0
-50 -326 321 0
-50 326 -321 0
-95 -326 321 0
-95 326 -321 0
-41 -327 322 0
-41 327 -322 0
-42 -322 327 0
-42 -320 327 0
-42 -327 322 320 0
-43 -327 322 0
-43 327 -322 0
-44 -327 322 0
-44 327 -322 0
-45 -322 327 0
-45 -321 327 0
-45 -327 322 321 0
-46 -327 322 0
-46 327 -322 0
-47 -327 322 0
-47 327 -322 0
-48 -327 322 0
-48 -327 323 0
-48 327 -322 -323 0
-49 -327 322 0
-49 -327 324 0
-49 327 -322 -324 0
-50 -327 322 0
-50 327 -322 0
-95 -327 322 0
-95 327 -322 0
-41 -328 323 0
-41 328 -323 0
-42 -328 323 0
-42 328 -323 0
-43 -323 328 0
-43 -320 328 0
-43 -328 323 320 0
-44 -328 323 0
-44 328 -323 0
-45 -328 323 0
-45 328 -323 0
-46 -323 328 0
-46 -321 328 0
-46 -328 323 321 0
-47 -328 323 0
-47 328 -323 0
-48 -323 328 0
-48 -322 328 0
-48 -328 323 322 0
-49 -328 323 0
-49 328 -323 0
-50 -328 323 0
-50 -328 324 0
-50 328 -323 -324 0
-95 -328 323 0
-95 328 -323 0
-41 -329 324 0
-41 329 -324 0
-42 -329 324 0
-42 329 -324 0
-43 -329 324 0
-43 329 -324 0
-44 -324 329 0
-44 -320 329 0
-44 -329 324 320 0
-45 -329 324 0
-45 329 -324 0
-46 -329 324 0
-46 329 -324 0
-47 -324 329 0
-47 -321 329 0
-47 -329 324 321 0
-48 -329 324 0
-48 329 -324 0
-49 -324 329 0
-49 -322 329 0
-49 -329 324 322 0
-50 -324 329 0
-50 -323 329 0
-50 -329 324 323 0
-95 -329 324 0
-95 329 -324 0
-51 -330 325 0
-51 -330 326 0
-51 330 -325 -326 0
-52 -330 325 0
-52 -330 327 0
-52 330 -325 -327 0
-53 -330 325 0
-53 -330 328 0
-53 330 -325 -328 0
-54 -330 325 0
-54 -330 329 0
-54 330 -325 -329 0
-55 -330 325 0
-55 330 -325 0
-56 -330 325 0
-56 330 -325 0
-57 -330 325 0
-57 330 -325 0
-58 -330 325 0
-58 330 -325 0
-59 -330 325 0
-59 330 -325 0
-60 -330 325 0
-60 330 -325 0
-96 -330 325 0
-96 330 -325 0
-51 -326 331 0
-51 -325 331 0
-51 -331 326 325 0
-52 -331 326 0
-52 331 -326 0
-53 -331 326 0
-53 331 -326 0
-54 -331 326 0
-54 331 -326 0
-55 -331 326 0
-55 -331 327 0
-55 331 -326 -327 0
-56 -331 326 0
-56 -331 328 0
-56 331 -326 -328 0
-57 -331 326 0
-57 -331 329 0
-57 331 -326 -329 0
-58 -331 326 0
-58 331 -326 0
-59 -331 326 0
-59 331 -326 0
-60 -331 326 0
-60 331 -326 0
-96 -331 326 0
-96 331 -326 0
-51 -332 327 0
-51 332 -327 0
-52 -327 332 0
-52 -325 332 0
-52 -332 327 325 0
-53 -332 327 0
-53 332 -327 0
-54 -332 327 0
-54 332 -327 0
-55 -327 332 0
-55 -326 332 0
-55 -332 327 326 0
-56 -332 327 0
-56 332 -327 0
-57 -332 327 0
-57 332 -327 0
-58 -332 327 0
-58 -332 328 0
-58 332 -327 -328 0
-59 -332 327 0
-59 -332 329 0
-59 332 -327 -329 0
-60 -332 327 0
-60 332 -327 0
-96 -332 327 0
-96 332 -327 0
-51 -333 328 0
-51 333 -328 0
-52 -333 328 0
-52 333 -328 0
-53 -328 333 0
-53 -325 333 0
-53 -333 328 325 0
-54 -333 328 0
-54 333 -328 0
-55 -333 328 0
-55 333 -328 0
-56 -328 333 0
-56 -326 333 0
-56 -333 328 326 0
-57 -333 328 0
-57 333 -328 0
-58 -328 333 0
-58 -327 333 0
-58 -333 328 327 0
-59 -333 328 0
-59 333 -328 0
-60 -333 328 0
-60 -333 329 0
-60 333 -328 -329 0
-96 -333 328 0
-96 333 -328 0
-51 -334 329 0
-51 334 -329 0
-52 -334 329 0
-52 334 -329 0
-53 -334 329 0
-53 334 -329 0
-54 -329 334 0
-54 -325 334 0
-54 -334 329 325 0
-55 -334 329 0
-55 334 -329 0
-56 -334 329 0
-56 334 -329 0
-57 -329 334 0
-57 -326 334 0
-57 -334 329 326 0
-58 -334 329 0
-58 334 -329 0
-59 -329 334 0
-59 -327 334 0
-59 -334 329 327 0
-60 -329 334 0
-60 -328 334 0
-60 -334 329 328 0
-96 -334 329 0
-96 334 -329 0
-61 -335 330 0
-61 -335 331 0
-61 335 -330 -331 0
-62 -335 330 0
-62 -335 332 0
-62 335 -330 -332 0
-63 -335 330 0
-63 -335 333 0
-63 335 -330 -333 0
-64 -335 330 0
-64 -335 334 0
-64 335 -330 -334 0
-65 -335 330 0
-65 335 -330 0
-66 -335 330 0
-66 335 -330 0
-67 -335 330 0
-67 335 -330 0
-68 -335 330 0
-68 335 -330 0
-69 -335 330 0
-69 335 -330 0
-70 -335 330 0
-70 335 -330 0
-97 -335 330 0
-97 335 -330 0
-61 -331 336 0
-61 -330 336 0
-61 -336 331 330 0
-62 -336 331 0
-62 336 -331 0
-63 -336 331 0
-63 336 -331 0
-64 -336 331 0
-64 336 -331 0
-65 -336 331 0
-65 -336 332 0
-65 336 -331 -332 0
-66 -336 331 0
-66 -336 333 0
-66 336 -331 -333 0
-67 -336 331 0
-67 -336 334 0
-67 336 -331 -334 0
-68 -336 331 0
-68 336 -331 0
-69 -336 331 0
-69 336 -331 0
-70 -336 331 0
-70 336 -331 0
-97 -336 331 0
-97 336 -331 0
-61 -337 332 0
-61 337 -332 0
-62 -332 337 0
-62 -330 337 0
-62 -337 332 330 0
-63 -337 332 0
-63 337 -332 0
-64 -337 332 0
-64 337 -332 0
-65 -332 337 0
-65 -331 337 0
-65 -337 332 331 0
-66 -337 332 0
-66 337 -332 0
-67 -337 332 0
-67 337 -332 0
-68 -337 332 0
-68 -337 333 0
-68 337 -332 -333 0
-69 -337 332 0
-69 -337 334 0
-69 337 -332 -334 0
-70 -337 332 0
-70 337 -332 0
-97 -337 332 0
-97 337 -332 0
-61 -338 333 0
-61 338 -333 0
-62 -338 333 0
-62 338 -333 0
-63 -333 338 0
-63 -330 338 0
-63 -338 333 330 0
-64 -338 333 0
-64 338 -333 0
-65 -338 333 0
-65 338 -333 0
-66 -333 338 0
-66 -331 338 0
-66 -338 333 331 0
-67 -338 333 0
-67 338 -333 0
-68 -333 338 0
-68 -332 338 0
-68 -338 333 332 0
-69 -338 333 0
-69 338 -333 0
-70 -338 333 0
-70 -338 334 0
-70 338 -333 -334 0
-97 -338 333 0
-97 338 -333 0
-61 -339 334 0
-61 339 -334 0
-62 -339 334 0
-62 339 -334 0
-63 -339 334 0
-63 339 -334 0
-64 -334 339 0
-64 -330 339 0
-64 -339 334 330 0
-65 -339 334 0
-65 339 -334 0
-66 -339 334 0
-66 339 -334 0
-67 -334 339 0
-67 -331 339 0
-67 -339 334 331 0
-68 -339 334 0
-68 339 -334 0
-69 -334 339 0
-69 -332 339 0
-69 -339 334 332 0
-70 -334 339 0
-70 -333 339 0
-70 -339 334 333 0
-97 -339 334 0
-97 339 -334 0
-71 -340 335 0
-71 -340 336 0
-71 340 -335 -336 0
-72 -340 335 0
-72 -340 337 0
-72 340 -335 -337 0
-73 -340 335 0
-73 -340 338 0
-73 340 -335 -338 0
-74 -340 335 0
-74 -340 339 0
-74 340 -335 -339 0
-75 -340 335 0
-75 340 -335 0
-76 -340 335 0
-76 340 -335 0
-77 -340 335 0
-77 340 -335 0
-78 -340 335 0
-78 340 -335 0
-79 -340 335 0
-79 340 -335 0
-80 -340 335 0
-80 340 -335 0
-98 -340 335 0
-98 340 -335 0
-71 -336 341 0
-71 -335 341 0
-71 -341 336 335 0
-72 -341 336 0
-72 341 -336 0
-73 -341 336 0
-73 341 -336 0
-74 -341 336 0
-74 341 -336 0
-75 -341 336 0
-75 -341 337 0
-75 341 -336 -337 0
-76 -341 336 0
-76 -341 338 0
-76 341 -336 -338 0
-77 -341 336 0
-77 -341 339 0
-77 341 -336 -339 0
-78 -341 336 0
-78 341 -336 0
-79 -341 336 0
-79 341 -336 0
-80 -341 336 0
-80 341 -336 0
-98 -341 336 0
-98 341 -336 0
-71 -342 337 0
-71 342 -337 0
-72 -337 342 0
-72 -335 342 0
-72 -342 337 335 0
-73 -342 337 0
-73 342 -337 0
-74 -342 337 0
-74 342 -337 0
-75 -337 342 0
-75 -336 342 0
-75 -342 337 336 0
-76 -342 337 0
-76 342 -337 0
-77 -342 337 0
-77 342 -337 0
-78 -342 337 0
-78 -342 338 0
-78 342 -337 -338 0
-79 -342 337 0
-79 -342 339 0
-79 342 -337 -339 0
-80 -342 337 0
-80 342 -337 0
-98 -342 337 0
-98 342 -337 0
-71 -343 338 0
-71 343 -338 0
-72 -343 338 0
-72 343 -338 0
-73 -338 343 0
-73 -335 343 0
-73 -343 338 335 0
-74 -343 338 0
-74 343 -338 0
-75 -343 338 0
-75 343 -338 0
-76 -338 343 0
-76 -336 343 0
-76 -343 338 336 0
-77 -343 338 0
-77 343 -338 0
-78 -338 343 0
-78 -337 343 0
-78 -343 338 337 0
-79 -343 338 0
-79 343 -338 0
-80 -343 338 0
-80 -343 339 0
-80 343 -338 -339 0
-98 -343 338 0
-98 343 -338 0
-71 -344 339 0
-71 344 -339 0
-72 -344 339 0
-72 344 -339 0
-73 -344 339 0
-73 344 -339 0
-74 -339 344 0
-74 -335 344 0
-74 -344 339 335 0
-75 -344 339 0
-75 344 -339 0
-76 -344 339 0
-76 344 -339 0
-77 -339 344 0
-77 -336 344 0
-77 -344 339 336 0
-78 -344 339 0
-78 344 -339 0
-79 -339 344 0
-79 -337 344 0
-79 -344 339 337 0
-80 -339 344 0
-80 -338 344 0
-80 -344 339 338 0
-98 -344 339 0
-98 344 -339 0
-81 -345 340 0
-81 -345 341 0
-81 345 -340 -341 0
-82 -345 340 0
-82 -345 342 0
-82 345 -340 -342 0
-83 -345 340 0
-83 -345 343 0
-83 345 -340 -343 0
-84 -345 340 0
-84 -345 344 0
-84 345 -340 -344 0
-85 -345 340 0
-85 345 -340 0
-86 -345 340 0
-86 345 -340 0
-87 -345 340 0
-87 345 -340 0
-88 -345 340 0
-88 345 -340 0
-89 -345 340 0
-89 345 -340 0
-90 -345 340 0
-90 345 -340 0
-99 -345 340 0
-99 345 -340 0
-81 -341 346 0
-81 -340 346 0
-81 -346 341 340 0
-82 -346 341 0
-82 346 -341 0
-83 -346 341 0
-83 346 -341 0
-84 -346 341 0
-84 346 -341 0
-85 -346 341 0
-85 -346 342 0
-85 346 -341 -342 0
-86 -346 341 0
-86 -346 343 0
-86 346 -341 -343 0
-87 -346 341 0
-87 -346 344 0
-87 346 -341 -344 0
-88 -346 341 0
-88 346 -341 0
-89 -346 341 0
-89 346 -341 0
-90 -346 341 0
-90 346 -341 0
-99 -346 341 0
-99 346 -341 0
-81 -347 342 0
-81 347 -342 0
-82 -342 347 0
-82 -340 347 0
-82 -347 342 340 0
-83 -347 342 0
-83 347 -342 0
-84 -347 342 0
-84 347 -342 0
-85 -342 347 0
-85 -341 347 0
-85 -347 342 341 0
-86 -347 342 0
-86 347 -342 0
-87 -347 342 0
-87 347 -342 0
-88 -347 342 0
-88 -347 343 0
-88 347 -342 -343 0
-89 -347 342 0
-89 -347 344 0
-89 347 -342 -344 0
-90 -347 342 0
-90 347 -342 0
-99 -347 342 0
-99 347 -342 0
-81 -348 343 0
-81 348 -343 0
-82 -348 343 0
-82 348 -343 0
-83 -343 348 0
-83 -340 348 0
-83 -348 343 340 0
-84 -348 343 0
-84 348 -343 0
-85 -348 343 0
-85 348 -343 0
-86 -343 348 0
-86 -341 348 0
-86 -348 343 341 0
-87 -348 343 0
-87 348 -343 0
-88 -343 348 0
-88 -342 348 0
-88 -348 343 342 0
-89 -348 343 0
-89 348 -343 0
-90 -348 343 0
-90 -348 344 0
-90 348 -343 -344 0
-99 -348 343 0
-99 348 -343 0
-81 -349 344 0
-81 349 -344 0
-82 -349 344 0
-82 349 -344 0
-83 -349 344 0
-83 349 -344 0
-84 -344 349 0
-84 -340 349 0
-84 -349 344 340 0
-85 -349 344 0
-85 349 -344 0
-86 -349 344 0
-86 349 -344 0
-87 -344 349 0
-87 -341 349 0
-87 -349 344 341 0
-88 -349 344 0
-88 349 -344 0
-89 -344 349 0
-89 -342 349 0
-89 -349 344 342 0
-90 -344 349 0
-90 -343 349 0
-90 -349 344 343 0
-99 -349 344 0
-99 349 -344 0
-350 0
-1 -355 350 0
-1 -355 351 0
-1 355 -350 -351 0
-2 -355 350 0
-2 -355 352 0
-2 355 -350 -352 0
-3 -355 350 0
-3 -355 353 0
-3 355 -350 -353 0
-4 -355 350 0
-4 -355 354 0
-4 355 -350 -354 0
-5 -355 350 0
-5 355 -350 0
-6 -355 350 0
-6 355 -350 0
-7 -355 350 0
-7 355 -350 0
-8 -355 350 0
-8 355 -350 0
-9 -355 350 0
-9 355 -350 0
-10 -355 350 0
-10 355 -350 0
-91 -355 350 0
-91 355 -350 0
351 0
-1 -351 356 0
-1 -350 356 0
-1 -356 351 350 0
-2 -356 351 0
-2 356 -351 0
-3 -356 351 0
-3 356 -351 0
-4 -356 351 0
-4 356 -351 0
-5 -356 351 0
-5 -356 352 0
-5 356 -351 -352 0
-6 -356 351 0
-6 -356 353 0
-6 356 -351 -353 0
-7 -356 351 0
-7 -356 354 0
-7 356 -351 -354 0
-8 -356 351 0
-8 356 -351 0
-9 -356 351 0
-9 356 -351 0
-10 -356 351 0
-10 356 -351 0
-91 -356 351 0
-91 356 -351 0
-352 0
-1 -357 352 0
-1 357 -352 0
-2 -352 357 0
-2 -350 357 0
-2 -357 352 350 0
-3 -357 352 0
-3 357 -352 0
-4 -357 352 0
-4 357 -352 0
-5 -352 357 0
-5 -351 357 0
-5 -357 352 351 0
-6 -357 352 0
-6 357 -352 0
-7 -357 352 0
-7 357 -352 0
-8 -357 352 0
-8 -357 353 0
-8 357 -352 -353 0
-9 -357 352 0
-9 -357 354 0
-9 357 -352 -354 0
-10 -357 352 0
-10 357 -352 0
-91 -357 352 0
-91 357 -352 0
-353 0
-1 -358 353 0
-1 358 -353 0
-2 -358 353 0
-2 358 -353 0
-3 -353 358 0
-3 -350 358 0
-3 -358 353 350 0
-4 -358 353 0
-4 358 -353 0
-5 -358 353 0
-5 358 -353 0
-6 -353 358 0
-6 -351 358 0
-6 -358 353 351 0
-7 -358 353 0
-7 358 -353 0
-8 -353 358 0
-8 -352 358 0
-8 -358 353 352 0
-9 -358 353 0
-9 358 -353 0
-10 -358 353 0
-10 -358 354 0
-10 358 -353 -354 0
-91 -358 353 0
-91 358 -353 0
354 0
-1 -359 354 0
-1 359 -354 0
-2 -359 354 0
-2 359 -354 0
-3 -359 354 0
-3 359 -354 0
-4 -354 359 0
-4 -350 359 0
-4 -359 354 350 0
-5 -359 354 0
-5 359 -354 0
-6 -359 354 0
-6 359 -354 0
-7 -354 359 0
-7 -351 359 0
-7 -359 354 351 0
-8 -359 354 0
-8 359 -354 0
-9 -354 359 0
-9 -352 359 0
-9 -359 354 352 0
-10 -354 359 0
-10 -353 359 0
-10 -359 354 353 0
-91 -359 354 0
-91 359 -354 0
-11 -360 355 0
-11 -360 356 0
-11 360 -355 -356 0
-12 -360 355 0
-12 -360 357 0
-12 360 -355 -357 0
-13 -360 355 0
-13 -360 358 0
-13 360 -355 -358 0
-14 -360 355 0
-14 -360 359 0
-14 360 -355 -359 0
-15 -360 355 0
-15 360 -355 0
-16 -360 355 0
-16 360 -355 0
-17 -360 355 0
-17 360 -355 0
-18 -360 355 0
-18 360 -355 0
-19 -360 355 0
-19 360 -355 0
-20 -360 355 0
-20 360 -355 0
-92 -360 355 0
-92 360 -355 0
-11 -356 361 0
-11 -355 361 0
-11 -361 356 355 0
-12 -361 356 0
-12 361 -356 0
-13 -361 356 0
-13 361 -356 0
-14 -361 356 0
-14 361 -356 0
-15 -361 356 0
-15 -361 357 0
-15 361 -356 -357 0
-16 -361 356 0
-16 -361 358 0
-16 361 -356 -358 0
-17 -361 356 0
-17 -361 359 0
-17 361 -356 -359 0
-18 -361 356 0
-18 361 -356 0
-19 -361 356 0
-19 361 -356 0
-20 -361 356 0
-20 361 -356 0
-92 -361 356 0
-92 361 -356 0
-11 -362 357 0
-11 362 -357 0
-12 -357 362 0
-12 -355 362 0
-12 -362 357 355 0
-13 -362 357 0
-13 362 -357 0
-14 -362 357 0
-14 362 -357 0
-15 -357 362 0
-15 -356 362 0
-15 -362 357 356 0
-16 -362 357 0
-16 362 -357 0
-17 -362 357 0
-17 362 -357 0
-18 -362 357 0
-18 -362 358 0
-18 362 -357 -358 0
-19 -362 357 0
-19 -362 359 0
-19 362 -357 -359 0
-20 -362 357 0
-20 362 -357 0
-92 -362 357 0
-92 362 -357 0
-11 -363 358 0
-11 363 -358 0
-12 -363 358 0
-12 363 -358 0
-13 -358 363 0
-13 -355 363 0
-13 -363 358 355 0
-14 -363 358 0
-14 363 -358 0
-15 -363 358 0
-15 363 -358 0
-16 -358 363 0
-16 -356 363 0
-16 -363 358 356 0
-17 -363 358 0
-17 363 -358 0
-18 -358 363 0
-18 -357 363 0
-18 -363 358 357 0
-19 -363 358 0
-19 363 -358 0
-20 -363 358 0
-20 -363 359 0
-20 363 -358 -359 0
-92 -363 358 0
-92 363 -358 0
-11 -364 359 0
-11 364 -359 0
-12 -364 359 0
-12 364 -359 0
-13 -364 359 0
-13 364 -359 0
-14 -359 364 0
-14 -355 364 0
-14 -364 359 355 0
-15 -364 359 0
-15 364 -359 0
-16 -364 359 0
-16 364 -359 0
-17 -359 364 0
-17 -356 364 0
-17 -364 359 356 0
-18 -364 359 0
-18 364 -359 0
-19 -359 364 0
-19 -357 364 0
-19 -364 359 357 0
-20 -359 364 0
-20 -358 364 0
-20 -364 359 358 0
-92 -364 359 0
-92 364 -359 0
-21 -365 360 0
-21 -365 361 0
-21 365 -360 -361 0
-22 -365 360 0
-22 -365 362 0
-22 365 -360 -362 0
-23 -365 360 0
-23 -365 363 0
-23 365 -360 -363 0
-24 -365 360 0
-24 -365 364 0
-24 365 -360 -364 0
-25 -365 360 0
-25 365 -360 0
-26 -365 360 0
-26 365 -360 0
-27 -365 360 0
-27 365 -360 0
-28 -365 360 0
-28 365 -360 0
-29 -365 360 0
-29 365 -360 0
-30 -365 360 0
-30 365 -360 0
-93 -365 360 0
-93 365 -360 0
-21 -361 366 0
-21 -360 366 0
-21 -366 361 360 0
-22 -366 361 0
-22 366 -361 0
-23 -366 361 0
-23 366 -361 0
-24 -366 361 0
-24 366 -361 0
-25 -366 361 0
-25 -366 362 0
-25 366 -361 -362 0
-26 -366 361 0
-26 -366 363 0
-26 366 -361 -363 0
-27 -366 361 0
-27 -366 364 0
-27 366 -361 -364 0
-28 -366 361 0
-28 366 -361 0
-29 -366 361 0
-29 366 -361 0
-30 -366 361 0
-30 366 -361 0
-93 -366 361 0
-93 366 -361 0
-21 -367 362 0
-21 367 -362 0
-22 -362 367 0
-22 -360 367 0
-22 -367 362 360 0
-23 -367 362 0
-23 367 -362 0
-24 -367 362 0
-24 367 -362 0
-25 -362 367 0
-25 -361 367 0
-25 -367 362 361 0
-26 -367 362 0
-26 367 -362 0
-27 -367 362 0
-27 367 -362 0
-28 -367 362 0
-28 -367 363 0
-28 367 -362 -363 0
-29 -367 362 0
-29 -367 364 0
-29 367 -362 -364 0
-30 -367 362 0
-30 367 -362 0
-93 -367 362 0
-93 367 -362 0
-21 -368 363 0
-21 368 -363 0
-22 -368 363 0
-22 368 -363 0
-23 -363 368 0
-23 -360 368 0
-23 -368 363 360 0
-24 -368 363 0
-24 368 -363 0
-25 -368 363 0
-25 368 -363 0
-26 -363 368 0
-26 -361 368 0
-26 -368 363 361 0
-27 -368 363 0
-27 368 -363 0
-28 -363 368 0
-28 -362 368 0
-28 -368 363 362 0
-29 -368 363 0
-29 368 -363 0
-30 -368 363 0
-30 -368 364 0
-30 368 -363 -364 0
-93 -368 363 0
-93 368 -363 0
-21 -369 364 0
-21 369 -364 0
-22 -369 364 0
-22 369 -364 0
-23 -369 364 0
-23 369 -364 0
-24 -364 369 0
-24 -360 369 0
-24 -369 364 360 0
-25 -369 364 0
-25 369 -364 0
-26 -369 364 0
-26 369 -364 0
-27 -364 369 0
-27 -361 369 0
-27 -369 364 361 0
-28 -369 364 0
-28 369 -364 0
-29 -364 369 0
-29 -362 369 0
-29 -369 364 362 0
-30 -364 369 0
-30 -363 369 0
-30 -369 364 363 0
-93 -369 364 0
-93 369 -364 0
-31 -370 365 0
-31 -370 366 0
-31 370 -365 -366 0
-32 -370 365 0
-32 -370 367 0
-32 370 -365 -367 0
-33 -370 365 0
-33 -370 368 0
-33 370 -365 -368 0
-34 -370 365 0
-34 -370 369 0
-34 370 -365 -369 0
-35 -370 365 0
-35 370 -365 0
-36 -370 365 0
-36 370 -365 0
-37 -370 365 0
-37 370 -365 0
-38 -370 365 0
-38 370 -365 0
-39 -370 365 0
-39 370 -365 0
-40 -370 365 0
-40 370 -365 0
-94 -370 365 0
-94 370 -365 0
-31 -366 371 0
-31 -365 371 0
-31 -371 366 365 0
-32 -371 366 0
-32 371 -366 0
-33 -371 366 0
-33 371 -366 0
-34 -371 366 0
-34 371 -366 0
-35 -371 366 0
-35 -371 367 0
-35 371 -366 -367 0
-36 -371 366 0
-36 -371 368 0
-36 371 -366 -368 0
-37 -371 366 0
-37 -371 369 0
-37 371 -366 -369 0
-38 -371 366 0
-38 371 -366 0
-39 -371 366 0
-39 371 -366 0
-40 -371 366 0
-40 371 -366 0
-94 -371 366 0
-94 371 -366 0
-31 -372 367 0
-31 372 -367 0
-32 -367 372 0
-32 -365 372 0
-32 -372 367 365 0
-33 -372 367 0
-33 372 -367 0
-34 -372 367 0
-34 372 -367 0
-35 -367 372 0
-35 -366 372 0
-35 -372 367 366 0
-36 -372 367 0
-36 372 -367 0
-37 -372 367 0
-37 372 -367 0
-38 -372 367 0
-38 -372 368 0
-38 372 -367 -368 0
-39 -372 367 0
-39 -372 369 0
-39 372 -367 -369 0
-40 -372 367 0
-40 372 -367 0
-94 -372 367 0
-94 372 -367 0
-31 -373 368 0
-31 373 -368 0
-32 -373 368 0
-32 373 -368 0
-33 -368 373 0
-33 -365 373 0
-33 -373 368 365 0
-34 -373 368 0
-34 373 -368 0
-35 -373 368 0
-35 373 -368 0
-36 -368 373 0
-36 -366 373 0
-36 -373 368 366 0
-37 -373 368 0
-37 373 -368 0
-38 -368 373 0
-38 -367 373 0
-38 -373 368 367 0
-39 -373 368 0
-39 373 -368 0
-40 -373 368 0
-40 -373 369 0
-40 373 -368 -369 0
-94 -373 368 0
-94 373 -368 0
-31 -374 369 0
-31 374 -369 0
-32 -374 369 0
-32 374 -369 0
-33 -374 369 0
-33 374 -369 0
-34 -369 374 0
-34 -365 374 0
-34 -374 369 365 0
-35 -374 369 0
-35 374 -369 0
-36 -374 369 0
-36 374 -369 0
-37 -369 374 0
-37 -366 374 0
-37 -374 369 366 0
-38 -374 369 0
-38 374 -369 0
-39 -369 374 0
-39 -367 374 0
-39 -374 369 367 0
-40 -369 374 0
-40 -368 374 0
-40 -374 369 368 0
-94 -374 369 0
-94 374 -369 0
-41 -375 370 0
-41 -375 371 0
-41 375 -370 -371 0
-42 -375 370 0
-42 -375 372 0
-42 375 -370 -372 0
-43 -375 370 0
-43 -375 373 0
-43 375 -370 -373 0
-44 -375 370 0
-44 -375 374 0
-44 375 -370 -374 0
-45 -375 370 0
-45 375 -370 0
-46 -375 370 0
-46 375 -370 0
-47 -375 370 0
-47 375 -370 0
-48 -375 370 0
-48 375 -370 0
-49 -375 370 0
-49 375 -370 0
-50 -375 370 0
-50 375 -370 0
-95 -375 370 0
-95 375 -370 0
-41 -371 376 0
-41 -370 376 0
-41 -376 371 370 0
-42 -376 371 0
-42 376 -371 0
-43 -376 371 0
-43 376 -371 0
-44 -376 371 0
-44 376 -371 0
-45 -376 371 0
-45 -376 372 0
-45 376 -371 -372 0
-46 -376 371 0
-46 -376 373 0
-46 376 -371 -373 0
-47 -376 371 0
-47 -376 374 0
-47 376 -371 -374 0
-48 -376 371 0
-48 376 -371 0
-49 -376 371 0
-49 376 -371 0
-50 -376 371 0
-50 376 -371 0
-95 -376 371 0
-95 376 -371 0
-41 -377 372 0
-41 377 -372 0
-42 -372 377 0
-42 -370 377 0
-42 -377 372 370 0
-43 -377 372 0
-43 377 -372 0
-44 -377 372 0
-44 377 -372 0
-45 -372 377 0
-45 -371 377 0
-45 -377 372 371 0
-46 -377 372 0
-46 377 -372 0
-47 -377 372 0
-47 377 -372 0
-48 -377 372 0
-48 -377 373 0
-48 377 -372 -373 0
-49 -377 372 0
-49 -377 374 0
-49 377 -372 -374 0
-50 -377 372 0
-50 377 -372 0
-95 -377 372 0
-95 377 -372 0
-41 -378 373 0
-41 378 -373 0
-42 -378 373 0
-42 378 -373 0
-43 -373 378 0
-43 -370 378 0
-43 -378 373 370 0
-44 -378 373 0
-44 378 -373 0
-45 -378 373 0
-45 378 -373 0
-46 -373 378 0
-46 -371 378 0
-46 -378 373 371 0
-47 -378 373 0
-47 378 -373 0
-48 -373 378 0
-48 -372 378 0
-48 -378 373 372 0
-49 -378 373 0
-49 378 -373 0
-50 -378 373 0
-50 -378 374 0
-50 378 -373 -374 0
-95 -378 373 0
-95 378 -373 0
-41 -379 374 0
-41 379 -374 0
-42 -379 374 0
-42 379 -374 0
-43 -379 374 0
-43 379 -374 0
-44 -374 379 0
-44 -370 379 0
-44 -379 374 370 0
-45 -379 374 0
-45 379 -374 0
-46 -379 374 0
-46 379 -374 0
-47 -374 379 0
-47 -371 379 0
-47 -379 374 371 0
-48 -379 374 0
-48 379 -374 0
-49 -374 379 0
-49 -372 379 0
-49 -379 374 372 0
-50 -374 379 0
-50 -373 379 0
-50 -379 374 373 0
-95 -379 374 0
-95 379 -374 0
-51 -380 375 0
-51 -380 376 0
-51 380 -375 -376 0
-52 -380 375 0
-52 -380 377 0
-52 380 -375 -377 0
-53 -380 375 0
-53 -380 378 0
-53 380 -375 -378 0
-54 -380 375 0
-54 -380 379 0
-54 380 -375 -379 0
-55 -380 375 0
-55 380 -375 0
-56 -380 375 0
-56 380 -375 0
-57 -380 375 0
-57 380 -375 0
-58 -380 375 0
-58 380 -375 0
-59 -380 375 0
-59 380 -375 0
-60 -380 375 0
-60 380 -375 0
-96 -380 375 0
-96 380 -375 0
-51 -376 381 0
-51 -375 381 0
-51 -381 376 375 0
-52 -381 376 0
-52 381 -376 0
-53 -381 376 0
-53 381 -376 0
-54 -381 376 0
-54 381 -376 0
-55 -381 376 0
-55 -381 377 0
-55 381 -376 -377 0
-56 -381 376 0
-56 -381 378 0
-56 381 -376 -378 0
-57 -381 376 0
-57 -381 379 0
-57 381 -376 -379 0
-58 -381 376 0
-58 381 -376 0
-59 -381 376 0
-59 381 -376 0
-60 -381 376 0
-60 381 -376 0
-96 -381 376 0
-96 381 -376 0
-51 -382 377 0
-51 382 -377 0
-52 -377 382 0
-52 -375 382 0
-52 -382 377 375 0
-53 -382 377 0
-53 382 -377 0
-54 -382 377 0
-54 382 -377 0
-55 -377 382 0
-55 -376 382 0
-55 -382 377 376 0
-56 -382 377 0
-56 382 -377 0
-57 -382 377 0
-57 382 -377 0
-58 -382 377 0
-58 -382 378 0
-58 382 -377 -378 0
-59 -382 377 0
-59 -382 379 0
-59 382 -377 -379 0
-60 -382 377 0
-60 382 -377 0
-96 -382 377 0
-96 382 -377 0
-51 -383 378 0
-51 383 -378 0
-52 -383 378 0
-52 383 -378 0
-53 -378 383 0
-53 -375 383 0
-53 -383 378 375 0
-54 -383 378 0
-54 383 -378 0
-55 -383 378 0
-55 383 -378 0
-56 -378 383 0
-56 -376 383 0
-56 -383 378 376 0
-57 -383 378 0
-57 383 -378 0
-58 -378 383 0
-58 -377 383 0
-58 -383 378 377 0
-59 -383 378 0
-59 383 -378 0
-60 -383 378 0
-60 -383 379 0
-60 383 -378 -379 0
-96 -383 378 0
-96 383 -378 0
-51 -384 379 0
-51 384 -379 0
-52 -384 379 0
-52 384 -379 0
-53 -384 379 0
-53 384 -379 0
-54 -379 384 0
-54 -375 384 0
-54 -384 379 375 0
-55 -384 379 0
-55 384 -379 0
-56 -384 379 0
-56 384 -379 0
-57 -379 384 0
-57 -376 384 0
-57 -384 379 376 0
-58 -384 379 0
-58 384 -379 0
-59 -379 384 0
-59 -377 384 0
-59 -384 379 377 0
-60 -379 384 0
-60 -378 384 0
-60 -384 379 378 0
-96 -384 379 0
-96 384 -379 0
-61 -385 380 0
-61 -385 381 0
-61 385 -380 -381 0
-62 -385 380 0
-62 -385 382 0
-62 385 -380 -382 0
-63 -385 380 0
-63 -385 383 0
-63 385 -380 -383 0
-64 -385 380 0
-64 -385 384 0
-64 385 -380 -384 0
-65 -385 380 0
-65 385 -380 0
-66 -385 380 0
-66 385 -380 0
-67 -385 380 0
-67 385 -380 0
-68 -385 380 0
-68 385 -380 0
-69 -385 380 0
-69 385 -380 0
-70 -385 380 0
-70 385 -380 0
-97 -385 380 0
-97 385 -380 0
-61 -381 386 0
-61 -380 386 0
-61 -386 381 380 0
-62 -386 381 0
-62 386 -381 0
-63 -386 381 0
-63 386 -381 0
-64 -386 381 0
-64 386 -381 0
-65 -386 381 0
-65 -386 382 0
-65 386 -381 -382 0
-66 -386 381 0
-66 -386 383 0
-66 386 -381 -383 0
-67 -386 381 0
-67 -386 384 0
-67 386 -381 -384 0
-68 -386 381 0
-68 386 -381 0
-69 -386 381 0
-69 386 -381 0
-70 -386 381 0
-70 386 -381 0
-97 -386 381 0
-97 386 -381 0
-61 -387 382 0
-61 387 -382 0
-62 -382 387 0
-62 -380 387 0
-62 -387 382 380 0
-63 -387 382 0
-63 387 -382 0
-64 -387 382 0
-64 387 -382 0
-65 -382 387 0
-65 -381 387 0
-65 -387 382 381 0
-66 -387 382 0
-66 387 -382 0
-67 -387 382 0
-67 387 -382 0
-68 -387 382 0
-68 -387 383 0
-68 387 -382 -383 0
-69 -387 382 0
-69 -387 384 0
-69 387 -382 -384 0
-70 -387 382 0
-70 387 -382 0
-97 -387 382 0
-97 387 -382 0
-61 -388 383 0
-61 388 -383 0
-62 -388 383 0
-62 388 -383 0
-63 -383 388 0
-63 -380 388 0
-63 -388 383 380 0
-64 -388 383 0
-64 388 -383 0
-65 -388 383 0
-65 388 -383 0
-66 -383 388 0
-66 -381 388 0
-66 -388 383 381 0
-67 -388 383 0
-67 388 -383 0
-68 -383 388 0
-68 -382 388 0
-68 -388 383 382 0
-69 -388 383 0
-69 388 -383 0
-70 -388 383 0
-70 -388 384 0
-70 388 -383 -384 0
-97 -388 383 0
-97 388 -383 0
-61 -389 384 0
-61 389 -384 0
-62 -389 384 0
-62 389 -384 0
-63 -389 384 0
-63 389 -384 0
-64 -384 389 0
-64 -380 389 0
-64 -389 384 380 0
-65 -389 384 0
-65 389 -384 0
-66 -389 384 0
-66 389 -384 0
-67 -384 389 0
-67 -381 389 0
-67 -389 384 381 0
-68 -389 384 0
-68 389 -384 0
-69 -384 389 0
-69 -382 389 0
-69 -389 384 382 0
-70 -384 389 0
-70 -383 389 0
-70 -389 384 383 0
-97 -389 384 0
-97 389 -384 0
-71 -390 385 0
-71 -390 386 0
-71 390 -385 -386 0
-72 -390 385 0
-72 -390 387 0
-72 390 -385 -387 0
-73 -390 385 0
-73 -390 388 0
-73 390 -385 -388 0
-74 -390 385 0
-74 -390 389 0
-74 390 -385 -389 0
-75 -390 385 0
-75 390 -385 0
-76 -390 385 0
-76 390 -385 0
-77 -390 385 0
-77 390 -385 0
-78 -390 385 0
-78 390 -385 0
-79 -390 385 0
-79 390 -385 0
-80 -390 385 0
-80 390 -385 0
-98 -390 385 0
-98 390 -385 0
-71 -386 391 0
-71 -385 391 0
-71 -391 386 385 0
-72 -391 386 0
-72 391 -386 0
-73 -391 386 0
-73 391 -386 0
-74 -391 386 0
-74 391 -386 0
-75 -391 386 0
-75 -391 387 0
-75 391 -386 -387 0
-76 -391 386 0
-76 -391 388 0
-76 391 -386 -388 0
-77 -391 386 0
-77 -391 389 0
-77 391 -386 -389 0
-78 -391 386 0
-78 391 -386 0
-79 -391 386 0
-79 391 -386 0
-80 -391 386 0
-80 391 -386 0
-98 -391 386 0
-98 391 -386 0
-71 -392 387 0
-71 392 -387 0
-72 -387 392 0
-72 -385 392 0
-72 -392 387 385 0
-73 -392 387 0
-73 392 -387 0
-74 -392 387 0
-74 392 -387 0
-75 -387 392 0
-75 -386 392 0
-75 -392 387 386 0
-76 -392 387 0
-76 392 -387 0
-77 -392 387 0
-77 392 -387 0
-78 -392 387 0
-78 -392 388 0
-78 392 -387 -388 0
-79 -392 387 0
-79 -392 389 0
-79 392 -387 -389 0
-80 -392 387 0
-80 392 -387 0
-98 -392 387 0
-98 392 -387 0
-71 -393 388 0
-71 393 -388 0
-72 -393 388 0
-72 393 -388 0
-73 -388 393 0
-73 -385 393 0
-73 -393 388 385 0
-74 -393 388 0
-74 393 -388 0
-75 -393 388 0
-75 393 -388 0
-76 -388 393 0
-76 -386 393 0
-76 -393 388 386 0
-77 -393 388 0
-77 393 -388 0
-78 -388 393 0
-78 -387 393 0
-78 -393 388 387 0
-79 -393 388 0
-79 393 -388 0
-80 -393 388 0
-80 -393 389 0
-80 393 -388 -389 0
-98 -393 388 0
-98 393 -388 0
-71 -394 389 0
-71 394 -389 0
-72 -394 389 0
-72 394 -389 0
-73 -394 389 0
-73 394 -389 0
-74 -389 394 0
-74 -385 394 0
-74 -394 389 385 0
-75 -394 389 0
-75 394 -389 0
-76 -394 389 0
-76 394 -389 0
-77 -389 394 0
-77 -386 394 0
-77 -394 389 386 0
-78 -394 389 0
-78 394 -389 0
-79 -389 394 0
-79 -387 394 0
-79 -394 389 387 0
-80 -389 394 0
-80 -388 394 0
-80 -394 389 388 0
-98 -394 389 0
-98 394 -389 0
-81 -395 390 0
-81 -395 391 0
-81 395 -390 -391 0
-82 -395 390 0
-82 -395 392 0
-82 395 -390 -392 0
-83 -395 390 0
-83 -395 393 0
-83 395 -390 -393 0
-84 -395 390 0
-84 -395 394 0
-84 395 -390 -394 0
-85 -395 390 0
-85 395 -390 0
-86 -395 390 0
-86 395 -390 0
-87 -395 390 0
-87 395 -390 0
-88 -395 390 0
-88 395 -390 0
-89 -395 390 0
-89 395 -390 0
-90 -395 390 0
-90 395 -390 0
-99 -395 390 0
-99 395 -390 0
-81 -391 396 0
-81 -390 396 0
-81 -396 391 390 0
-82 -396 391 0
-82 396 -391 0
-83 -396 391 0
-83 396 -391 0
-84 -396 391 0
-84 396 -391 0
-85 -396 391 0
-85 -396 392 0
-85 396 -391 -392 0
-86 -396 391 0
-86 -396 393 0
-86 396 -391 -393 0
-87 -396 391 0
-87 -396 394 0
-87 396 -391 -394 0
-88 -396 391 0
-88 396 -391 0
-89 -396 391 0
-89 396 -391 0
-90 -396 391 0
-90 396 -391 0
-99 -396 391 0
-99 396 -391 0
-81 -397 392 0
-81 397 -392 0
-82 -392 397 0
-82 -390 397 0
-82 -397 392 390 0
-83 -397 392 0
-83 397 -392 0
-84 -397 392 0
-84 397 -392 0
-85 -392 397 0
-85 -391 397 0
-85 -397 392 391 0
-86 -397 392 0
-86 397 -392 0
-87 -397 392 0
-87 397 -392 0
-88 -397 392 0
-88 -397 393 0
-88 397 -392 -393 0
-89 -397 392 0
-89 -397 394 0
-89 397 -392 -394 0
-90 -397 392 0
-90 397 -392 0
-99 -397 392 0
-99 397 -392 0
-81 -398 393 0
-81 398 -393 0
-82 -398 393 0
-82 398 -393 0
-83 -393 398 0
-83 -390 398 0
-83 -398 393 390 0
-84 -398 393 0
-84 398 -393 0
-85 -398 393 0
-85 398 -393 0
-86 -393 398 0
-86 -391 398 0
-86 -398 393 391 0
-87 -398 393 0
-87 398 -393 0
-88 -393 398 0
-88 -392 398 0
-88 -398 393 392 0
-89 -398 393 0
-89 398 -393 0
-90 -398 393 0
-90 -398 394 0
-90 398 -393 -394 0
-99 -398 393 0
-99 398 -393 0
-81 -399 394 0
-81 399 -394 0
-82 -399 394 0
-82 399 -394 0
-83 -399 394 0
-83 399 -394 0
-84 -394 399 0
-84 -390 399 0
-84 -399 394 390 0
-85 -399 394 0
-85 399 -394 0
-86 -399 394 0
-86 399 -394 0
-87 -394 399 0
-87 -391 399 0
-87 -399 394 391 0
-88 -399 394 0
-88 399 -394 0
-89 -394 399 0
-89 -392 399 0
-89 -399 394 392 0
-90 -394 399 0
-90 -393 399 0
-90 -399 394 393 0
-99 -399 394 0
-99 399 -394 0
-400 0
-1 -405 400 0
-1 -405 401 0
-1 405 -400 -401 0
-2 -405 400 0
-2 -405 402 0
-2 405 -400 -402 0
-3 -405 400 0
-3 -405 403 0
-3 405 -400 -403 0
-4 -405 400 0
-4 -405 404 0
-4 405 -400 -404 0
-5 -405 400 0
-5 405 -400 0
-6 -405 400 0
-6 405 -400 0
-7 -405 400 0
-7 405 -400 0
-8 -405 400 0
-8 405 -400 0
-9 -405 400 0
-9 405 -400 0
-10 -405 400 0
-10 405 -400 0
-91 -405 400 0
-91 405 -400 0
401 0
-1 -401 406 0
-1 -400 406 0
-1 -406 401 400 0
-2 -406 401 0
-2 406 -401 0
-3 -406 401 0
-3 406 -401 0
-4 -406 401 0
-4 406 -401 0
-5 -406 401 0
-5 -406 402 0
-5 406 -401 -402 0
-6 -406 401 0
-6 -406 403 0
-6 406 -401 -403 0
-7 -406 401 0
-7 -406 404 0
-7 406 -401 -404 0
-8 -406 401 0
-8 406 -401 0
-9 -406 401 0
-9 406 -401 0
-10 -406 401 0
-10 406 -401 0
-91 -406 401 0
-91 406 -401 0
-402 0
-1 -407 402 0
-1 407 -402 0
-2 -402 407 0
-2 -400 407 0
-2 -407 402 400 0
-3 -407 402 0
-3 407 -402 0
-4 -407 402 0
-4 407 -402 0
-5 -402 407 0
-5 -401 407 0
-5 -407 402 401 0
-6 -407 402 0
-6 407 -402 0
-7 -407 402 0
-7 407 -402 0
-8 -407 402 0
-8 -407 403 0
-8 407 -402 -403 0
-9 -407 402 0
-9 -407 404 0
-9 407 -402 -404 0
-10 -407 402 0
-10 407 -402 0
-91 -407 402 0
-91 407 -402 0
403 0
-1 -408 403 0
-1 408 -403 0
-2 -408 403 0
-2 408 -403 0
-3 -403 408 0
-3 -400 408 0
-3 -408 403 400 0
-4 -408 403 0
-4 408 -403 0
-5 -408 403 0
-5 408 -403 0
-6 -403 408 0
-6 -401 408 0
-6 -408 403 401 0
-7 -408 403 0
-7 408 -403 0
-8 -403 408 0
-8 -402 408 0
-8 -408 403 402 0
-9 -408 403 0
-9 408 -403 0
-10 -408 403 0
-10 -408 404 0
-10 408 -403 -404 0
-91 -408 403 0
-91 408 -403 0
-404 0
-1 -409 404 0
-1 409 -404 0
-2 -409 404 0
-2 409 -404 0
-3 -409 404 0
-3 409 -404 0
-4 -404 409 0
-4 -400 409 0
-4 -409 404 400 0
-5 -409 404 0
-5 409 -404 0
-6 -409 404 0
-6 409 -404 0
-7 -404 409 0
-7 -401 409 0
-7 -409 404 401 0
-8 -409 404 0
-8 409 -404 0
-9 -404 409 0
-9 -402 409 0
-9 -409 404 402 0
-10 -404 409 0
-10 -403 409 0
-10 -409 404 403 0
-91 -409 404 0
-91 409 -404 0
-11 -410 405 0
-11 -410 406 0
-11 410 -405 -406 0
-12 -410 405 0
-12 -410 407 0
-12 410 -405 -407 0
-13 -410 405 0
-13 -410 408 0
-13 410 -405 -408 0
-14 -410 405 0
-14 -410 409 0
-14 410 -405 -409 0
-15 -410 405 0
-15 410 -405 0
-16 -410 405 0
-16 410 -405 0
-17 -410 405 0
-17 410 -405 0
-18 -410 405 0
-18 410 -405 0
-19 -410 405 0
-19 410 -405 0
-20 -410 405 0
-20 410 -405 0
-92 -410 405 0
-92 410 -405 0
-11 -406 411 0
-11 -405 411 0
-11 -411 406 405 0
-12 -411 406 0
-12 411 -406 0
-13 -411 406 0
-13 411 -406 0
-14 -411 406 0
-14 411 -406 0
-15 -411 406 0
-15 -411 407 0
-15 411 -406 -407 0
-16 -411 406 0
-16 -411 408 0
-16 411 -406 -408 0
-17 -411 406 0
-17 -411 409 0
-17 411 -406 -409 0
-18 -411 406 0
-18 411 -406 0
-19 -411 406 0
-19 411 -406 0
-20 -411 406 0
-20 411 -406 0
-92 -411 406 0
-92 411 -406 0
-11 -412 407 0
-11 412 -407 0
-12 -407 412 0
-12 -405 412 0
-12 -412 407 405 0
-13 -412 407 0
-13 412 -407 0
-14 -412 407 0
-14 412 -407 0
-15 -407 412 0
-15 -406 412 0
-15 -412 407 406 0
-16 -412 407 0
-16 412 -407 0
-17 -412 407 0
-17 412 -407 0
-18 -412 407 0
-18 -412 408 0
-18 412 -407 -408 0
-19 -412 407 0
-19 -412 409 0
-19 412 -407 -409 0
-20 -412 407 0
-20 412 -407 0
-92 -412 407 0
-92 412 -407 0
-11 -413 408 0
-11 413 -408 0
-12 -413 408 0
-12 413 -408 0
-13 -408 413 0
-13 -405 413 0
-13 -413 408 405 0
-14 -413 408 0
-14 413 -408 0
-15 -413 408 0
-15 413 -408 0
-16 -408 413 0
-16 -406 413 0
-16 -413 408 406 0
-17 -413 408 0
-17 413 -408 0
-18 -408 413 0
-18 -407 413 0
-18 -413 408 407 0
-19 -413 408 0
-19 413 -408 0
-20 -413 408 0
-20 -413 409 0
-20 413 -408 -409 0
-92 -413 408 0
-92 413 -408 0
-11 -414 409 0
-11 414 -409 0
-12 -414 409 0
-12 414 -409 0
-13 -414 409 0
-13 414 -409 0
-14 -409 414 0
-14 -405 414 0
-14 -414 409 405 0
-15 -414 409 0
-15 414 -409 0
-16 -414 409 0
-16 414 -409 0
-17 -409 414 0
-17 -406 414 0
-17 -414 409 406 0
-18 -414 409 0
-18 414 -409 0
-19 -409 414 0
-19 -407 414 0
-19 -414 409 407 0
-20 -409 414 0
-20 -408 414 0
-20 -414 409 408 0
-92 -414 409 0
-92 414 -409 0
-21 -415 410 0
-21 -415 411 0
-21 415 -410 -411 0
-22 -415 410 0
-22 -415 412 0
-22 415 -410 -412 0
-23 -415 410 0
-23 -415 413 0
-23 415 -410 -413 0
-24 -415 410 0
-24 -415 414 0
-24 415 -410 -414 0
-25 -415 410 0
-25 415 -410 0
-26 -415 410 0
-26 415 -410 0
-27 -415 410 0
-27 415 -410 0
-28 -415 410 0
-28 415 -410 0
-29 -415 410 0
-29 415 -410 0
-30 -415 410 0
-30 415 -410 0
-93 -415 410 0
-93 415 -410 0
-21 -411 416 0
-21 -410 416 0
-21 -416 411 410 0
-22 -416 411 0
-22 416 -411 0
-23 -416 411 0
-23 416 -411 0
-24 -416 411 0
-24 416 -411 0
-25 -416 411 0
-25 -416 412 0
-25 416 -411 -412 0
-26 -416 411 0
-26 -416 413 0
-26 416 -411 -413 0
-27 -416 411 0
-27 -416 414 0
-27 416 -411 -414 0
-28 -416 411 0
-28 416 -411 0
-29 -416 411 0
-29 416 -411 0
-30 -416 411 0
-30 416 -411 0
-93 -416 411 0
-93 416 -411 0
-21 -417 412 0
-21 417 -412 0
-22 -412 417 0
-22 -410 417 0
-22 -417 412 410 0
-23 -417 412 0
-23 417 -412 0
-24 -417 412 0
-24 417 -412 0
-25 -412 417 0
-25 -411 417 0
-25 -417 412 411 0
-26 -417 412 0
-26 417 -412 0
-27 -417 412 0
-27 417 -412 0
-28 -417 412 0
-28 -417 413 0
-28 417 -412 -413 0
-29 -417 412 0
-29 -417 414 0
-29 417 -412 -414 0
-30 -417 412 0
-30 417 -412 0
-93 -417 412 0
-93 417 -412 0
-21 -418 413 0
-21 418 -413 0
-22 -418 413 0
-22 418 -413 0
-23 -413 418 0
-23 -410 418 0
-23 -418 413 410 0
-24 -418 413 0
-24 418 -413 0
-25 -418 413 0
-25 418 -413 0
-26 -413 418 0
-26 -411 418 0
-26 -418 413 411 0
-27 -418 413 0
-27 418 -413 0
-28 -413 418 0
-28 -412 418 0
-28 -418 413 412 0
-29 -418 413 0
-29 418 -413 0
-30 -418 413 0
-30 -418 414 0
-30 418 -413 -414 0
-93 -418 413 0
-93 418 -413 0
-21 -419 414 0
-21 419 -414 0
-22 -419 414 0
-22 419 -414 0
-23 -419 414 0
-23 419 -414 0
-24 -414 419 0
-24 -410 419 0
-24 -419 414 410 0
-25 -419 414 0
-25 419 -414 0
-26 -419 414 0
-26 419 -414 0
-27 -414 419 0
-27 -411 419 0
-27 -419 414 411 0
-28 -419 414 0
-28 419 -414 0
-29 -414 419 0
-29 -412 419 0
-29 -419 414 412 0
-30 -414 419 0
-30 -413 419 0
-30 -419 414 413 0
-93 -419 414 0
-93 419 -414 0
-31 -420 415 0
-31 -420 416 0
-31 420 -415 -416 0
-32 -420 415 0
-32 -420 417 0
-32 420 -415 -417 0
-33 -420 415 0
-33 -420 418 0
-33 420 -415 -418 0
-34 -420 415 0
-34 -420 419 0
-34 420 -415 -419 0
-35 -420 415 0
-35 420 -415 0
-36 -420 415 0
-36 420 -415 0
-37 -420 415 0
-37 420 -415 0
-38 -420 415 0
-38 420 -415 0
-39 -420 415 0
-39 420 -415 0
-40 -420 415 0
-40 420 -415 0
-94 -420 415 0
-94 420 -415 0
-31 -416 421 0
-31 -415 421 0
-31 -421 416 415 0
-32 -421 416 0
-32 421 -416 0
-33 -421 416 0
-33 421 -416 0
-34 -421 416 0
-34 421 -416 0
-35 -421 416 0
-35 -421 417 0
-35 421 -416 -417 0
-36 -421 416 0
-36 -421 418 0
-36 421 -416 -418 0
-37 -421 416 0
-37 -421 419 0
-37 421 -416 -419 0
-38 -421 416 0
-38 421 -416 0
-39 -421 416 0
-39 421 -416 0
-40 -421 416 0
-40 421 -416 0
-94 -421 416 0
-94 421 -416 0
-31 -422 417 0
-31 422 -417 0
-32 -417 422 0
-32 -415 422 0
-32 -422 417 415 0
-33 -422 417 0
-33 422 -417 0
-34 -422 417 0
-34 422 -417 0
-35 -417 422 0
-35 -416 422 0
-35 -422 417 416 0
-36 -422 417 0
-36 422 -417 0
-37 -422 417 0
-37 422 -417 0
-38 -422 417 0
-38 -422 418 0
-38 422 -417 -418 0
-39 -422 417 0
-39 -422 419 0
-39 422 -417 -419 0
-40 -422 417 0
-40 422 -417 0
-94 -422 417 0
-94 422 -417 0
-31 -423 418 0
-31 423 -418 0
-32 -423 418 0
-32 423 -418 0
-33 -418 423 0
-33 -415 423 0
-33 -423 418 415 0
-34 -423 418 0
-34 423 -418 0
-35 -423 418 0
-35 423 -418 0
-36 -418 423 0
-36 -416 423 0
-36 -423 418 416 0
-37 -423 418 0
-37 423 -418 0
-38 -418 423 0
-38 -417 423 0
-38 -423 418 417 0
-39 -423 418 0
-39 423 -418 0
-40 -423 418 0
-40 -423 419 0
-40 423 -418 -419 0
-94 -423 418 0
-94 423 -418 0
-31 -424 419 0
-31 424 -419 0
-32 -424 419 0
-32 424 -419 0
-33 -424 419 0
-33 424 -419 0
-34 -419 424 0
-34 -415 424 0
-34 -424 419 415 0
-35 -424 419 0
-35 424 -419 0
-36 -424 419 0
-36 424 -419 0
-37 -419 424 0
-37 -416 424 0
-37 -424 419 416 0
-38 -424 419 0
-38 424 -419 0
-39 -419 424 0
-39 -417 424 0
-39 -424 419 417 0
-40 -419 424 0
-40 -418 424 0
-40 -424 419 418 0
-94 -424 419 0
-94 424 -419 0
-41 -425 420 0
-41 -425 421 0
-41 425 -420 -421 0
-42 -425 420 0
-42 -425 422 0
-42 425 -420 -422 0
-43 -425 420 0
-43 -425 423 0
-43 425 -420 -423 0
-44 -425 420 0
-44 -425 424 0
-44 425 -420 -424 0
-45 -425 420 0
-45 425 -420 0
-46 -425 420 0
-46 425 -420 0
-47 -425 420 0
-47 425 -420 0
-48 -425 420 0
-48 425 -420 0
-49 -425 420 0
-49 425 -420 0
-50 -425 420 0
-50 425 -420 0
-95 -425 420 0
-95 425 -420 0
-41 -421 426 0
-41 -420 426 0
-41 -426 421 420 0
-42 -426 421 0
-42 426 -421 0
-43 -426 421 0
-43 426 -421 0
-44 -426 421 0
-44 426 -421 0
-45 -426 421 0
-45 -426 422 0
-45 426 -421 -422 0
-46 -426 421 0
-46 -426 423 0
-46 426 -421 -423 0
-47 -426 421 0
-47 -426 424 0
-47 426 -421 -424 0
-48 -426 421 0
-48 426 -421 0
-49 -426 421 0
-49 426 -421 0
-50 -426 421 0
-50 426 -421 0
-95 -426 421 0
-95 426 -421 0
-41 -427 422 0
-41 427 -422 0
-42 -422 427 0
-42 -420 427 0
-42 -427 422 420 0
-43 -427 422 0
-43 427 -422 0
-44 -427 422 0
-44 427 -422 0
-45 -422 427 0
-45 -421 427 0
-45 -427 422 421 0
-46 -427 422 0
-46 427 -422 0
-47 -427 422 0
-47 427 -422 0
-48 -427 422 0
-48 -427 423 0
-48 427 -422 -423 0
-49 -427 422 0
-49 -427 424 0
-49 427 -422 -424 0
-50 -427 422 0
-50 427 -422 0
-95 -427 422 0
-95 427 -422 0
-41 -428 423 0
-41 428 -423 0
-42 -428 423 0
-42 428 -423 0
-43 -423 428 0
-43 -420 428 0
-43 -428 423 420 0
-44 -428 423 0
-44 428 -423 0
-45 -428 423 0
-45 428 -423 0
-46 -423 428 0
-46 -421 428 0
-46 -428 423 421 0
-47 -428 423 0
-47 428 -423 0
-48 -423 428 0
-48 -422 428 0
-48 -428 423 422 0
-49 -428 423 0
-49 428 -423 0
-50 -428 423 0
-50 -428 424 0
-50 428 -423 -424 0
-95 -428 423 0
-95 428 -423 0
-41 -429 424 0
-41 429 -424 0
-42 -429 424 0
-42 429 -424 0
-43 -429 424 0
-43 429 -424 0
-44 -424 429 0
-44 -420 429 0
-44 -429 424 420 0
-45 -429 424 0
-45 429 -424 0
-46 -429 424 0
-46 429 -424 0
-47 -424 429 0
-47 -421 429 0
-47 -429 424 421 0
-48 -429 424 0
-48 429 -424 0
-49 -424 429 0
-49 -422 429 0
-49 -429 424 422 0
-50 -424 429 0
-50 -423 429 0
-50 -429 424 423 0
-95 -429 424 0
-95 429 -424 0
-51 -430 425 0
-51 -430 426 0
-51 430 -425 -426 0
-52 -430 425 0
-52 -430 427 0
-52 430 -425 -427 0
-53 -430 425 0
-53 -430 428 0
-53 430 -425 -428 0
-54 -430 425 0
-54 -430 429 0
-54 430 -425 -429 0
-55 -430 425 0
-55 430 -425 0
-56 -430 425 0
-56 430 -425 0
-57 -430 425 0
-57 430 -425 0
-58 -430 425 0
-58 430 -425 0
-59 -430 425 0
-59 430 -425 0
-60 -430 425 0
-60 430 -425 0
-96 -430 425 0
-96 430 -425 0
-51 -426 431 0
-51 -425 431 0
-51 -431 426 425 0
-52 -431 426 0
-52 431 -426 0
-53 -431 426 0
-53 431 -426 0
-54 -431 426 0
-54 431 -426 0
-55 -431 426 0
-55 -431 427 0
-55 431 -426 -427 0
-56 -431 426 0
-56 -431 428 0
-56 431 -426 -428 0
-57 -431 426 0
-57 -431 429 0
-57 431 -426 -429 0
-58 -431 426 0
-58 431 -426 0
-59 -431 426 0
-59 431 -426 0
-60 -431 426 0
-60 431 -426 0
-96 -431 426 0
-96 431 -426 0
-51 -432 427 0
-51 432 -427 0
-52 -427 432 0
-52 -425 432 0
-52 -432 427 425 0
-53 -432 427 0
-53 432 -427 0
-54 -432 427 0
-54 432 -427 0
-55 -427 432 0
-55 -426 432 0
-55 -432 427 426 0
-56 -432 427 0
-56 432 -427 0
-57 -432 427 0
-57 432 -427 0
-58 -432 427 0
-58 -432 428 0
-58 432 -427 -428 0
-59 -432 427 0
-59 -432 429 0
-59 432 -427 -429 0
-60 -432 427 0
-60 432 -427 0
-96 -432 427 0
-96 432 -427 0
-51 -433 428 0
-51 433 -428 0
-52 -433 428 0
-52 433 -428 0
-53 -428 433 0
-53 -425 433 0
-53 -433 428 425 0
-54 -433 428 0
-54 433 -428 0
-55 -433 428 0
-55 433 -428 0
-56 -428 433 0
-56 -426 433 0
-56 -433 428 426 0
-57 -433 428 0
-57 433 -428 0
-58 -428 433 0
-58 -427 433 0
-58 -433 428 427 0
-59 -433 428 0
-59 433 -428 0
-60 -433 428 0
-60 -433 429 0
-60 433 -428 -429 0
-96 -433 428 0
-96 433 -428 0
-51 -434 429 0
-51 434 -429 0
-52 -434 429 0
-52 434 -429 0
-53 -434 429 0
-53 434 -429 0
-54 -429 434 0
-54 -425 434 0
-54 -434 429 425 0
-55 -434 429 0
-55 434 -429 0
-56 -434 429 0
-56 434 -429 0
-57 -429 434 0
-57 -426 434 0
-57 -434 429 426 0
-58 -434 429 0
-58 434 -429 0
-59 -429 434 0
-59 -427 434 0
-59 -434 429 427 0
-60 -429 434 0
-60 -428 434 0
-60 -434 429 428 0
-96 -434 429 0
-96 434 -429 0
-61 -435 430 0
-61 -435 431 0
-61 435 -430 -431 0
-62 -435 430 0
-62 -435 432 0
-62 435 -430 -432 0
-63 -435 430 0
-63 -435 433 0
-63 435 -430 -433 0
-64 -435 430 0
-64 -435 434 0
-64 435 -430 -434 0
-65 -435 430 0
-65 435 -430 0
-66 -435 430 0
-66 435 -430 0
-67 -435 430 0
-67 435 -430 0
-68 -435 430 0
-68 435 -430 0
-69 -435 430 0
-69 435 -430 0
-70 -435 430 0
-70 435 -430 0
-97 -435 430 0
-97 435 -430 0
-61 -431 436 0
-61 -430 436 0
-61 -436 431 430 0
-62 -436 431 0
-62 436 -431 0
-63 -436 431 0
-63 436 -431 0
-64 -436 431 0
-64 436 -431 0
-65 -436 431 0
-65 -436 432 0
-65 436 -431 -432 0
-66 -436 431 0
-66 -436 433 0
-66 436 -431 -433 0
-67 -436 431 0
-67 -436 434 0
-67 436 -431 -434 0
-68 -436 431 0
-68 436 -431 0
-69 -436 431 0
-69 436 -431 0
-70 -436 431 0
-70 436 -431 0
-97 -436 431 0
-97 436 -431 0
-61 -437 432 0
-61 437 -432 0
-62 -432 437 0
-62 -430 437 0
-62 -437 432 430 0
-63 -437 432 0
-63 437 -432 0
-64 -437 432 0
-64 437 -432 0
-65 -432 437 0
-65 -431 437 0
-65 -437 432 431 0
-66 -437 432 0
-66 437 -432 0
-67 -437 432 0
-67 437 -432 0
-68 -437 432 0
-68 -437 433 0
-68 437 -432 -433 0
-69 -437 432 0
-69 -437 434 0
-69 437 -432 -434 0
-70 -437 432 0
-70 437 -432 0
-97 -437 432 0
-97 437 -432 0
-61 -438 433 0
-61 438 -433 0
-62 -438 433 0
-62 438 -433 0
-63 -433 438 0
-63 -430 438 0
-63 -438 433 430 0
-64 -438 433 0
-64 438 -433 0
-65 -438 433 0
-65 438 -433 0
-66 -433 438 0
-66 -431 438 0
-66 -438 433 431 0
-67 -438 433 0
-67 438 -433 0
-68 -433 438 0
-68 -432 438 0
-68 -438 433 432 0
-69 -438 433 0
-69 438 -433 0
-70 -438 433 0
-70 -438 434 0
-70 438 -433 -434 0
-97 -438 433 0
-97 438 -433 0
-61 -439 434 0
-61 439 -434 0
-62 -439 434 0
-62 439 -434 0
-63 -439 434 0
-63 439 -434 0
-64 -434 439 0
-64 -430 439 0
-64 -439 434 430 0
-65 -439 434 0
-65 439 -434 0
-66 -439 434 0
-66 439 -434 0
-67 -434 439 0
-67 -431 439 0
-67 -439 434 431 0
-68 -439 434 0
-68 439 -434 0
-69 -434 439 0
-69 -432 439 0
-69 -439 434 432 0
-70 -434 439 0
-70 -433 439 0
-70 -439 434 433 0
-97 -439 434 0
-97 439 -434 0
-71 -440 435 0
-71 -440 436 0
-71 440 -435 -436 0
-72 -440 435 0
-72 -440 437 0
-72 440 -435 -437 0
-73 -440 435 0
-73 -440 438 0
-73 440 -435 -438 0
-74 -440 435 0
-74 -440 439 0
-74 440 -435 -439 0
-75 -440 435 0
-75 440 -435 0
-76 -440 435 0
-76 440 -435 0
-77 -440 435 0
-77 440 -435 0
-78 -440 435 0
-78 440 -435 0
-79 -440 435 0
-79 440 -435 0
-80 -440 435 0
-80 440 -435 0
-98 -440 435 0
-98 440 -435 0
-71 -436 441 0
-71 -435 441 0
-71 -441 436 435 0
-72 -441 436 0
-72 441 -436 0
-73 -441 436 0
-73 441 -436 0
-74 -441 436 0
-74 441 -436 0
-75 -441 436 0
-75 -441 437 0
-75 441 -436 -437 0
-76 -441 436 0
-76 -441 438 0
-76 441 -436 -438 0
-77 -441 436 0
-77 -441 439 0
-77 441 -436 -439 0
-78 -441 436 0
-78 441 -436 0
-79 -441 436 0
-79 441 -436 0
-80 -441 436 0
-80 441 -436 0
-98 -441 436 0
-98 441 -436 0
-71 -442 437 0
-71 442 -437 0
-72 -437 442 0
-72 -435 442 0
-72 -442 437 435 0
-73 -442 437 0
-73 442 -437 0
-74 -442 437 0
-74 442 -437 0
-75 -437 442 0
-75 -436 442 0
-75 -442 437 436 0
-76 -442 437 0
-76 442 -437 0
-77 -442 437 0
-77 442 -437 0
-78 -442 437 0
-78 -442 438 0
-78 442 -437 -438 0
-79 -442 437 0
-79 -442 439 0
-79 442 -437 -439 0
-80 -442 437 0
-80 442 -437 0
-98 -442 437 0
-98 442 -437 0
-71 -443 438 0
-71 443 -438 0
-72 -443 438 0
-72 443 -438 0
-73 -438 443 0
-73 -435 443 0
-73 -443 438 435 0
-74 -443 438 0
-74 443 -438 0
-75 -443 438 0
-75 443 -438 0
-76 -438 443 0
-76 -436 443 0
-76 -443 438 436 0
-77 -443 438 0
-77 443 -438 0
-78 -438 443 0
-78 -437 443 0
-78 -443 438 437 0
-79 -443 438 0
-79 443 -438 0
-80 -443 438 0
-80 -443 439 0
-80 443 -438 -439 0
-98 -443 438 0
-98 443 -438 0
-71 -444 439 0
-71 444 -439 0
-72 -444 439 0
-72 444 -439 0
-73 -444 439 0
-73 444 -439 0
-74 -439 444 0
-74 -435 444 0
-74 -444 439 435 0
-75 -444 439 0
-75 444 -439 0
-76 -444 439 0
-76 444 -439 0
-77 -439 444 0
-77 -436 444 0
-77 -444 439 436 0
-78 -444 439 0
-78 444 -439 0
-79 -439 444 0
-79 -437 444 0
-79 -444 439 437 0
-80 -439 444 0
-80 -438 444 0
-80 -444 439 438 0
-98 -444 439 0
-98 444 -439 0
-81 -445 440 0
-81 -445 441 0
-81 445 -440 -441 0
-82 -445 440 0
-82 -445 442 0
-82 445 -440 -442 0
-83 -445 440 0
-83 -445 443 0
-83 445 -440 -443 0
-84 -445 440 0
-84 -445 444 0
-84 445 -440 -444 0
-85 -445 440 0
-85 445 -440 0
-86 -445 440 0
-86 445 -440 0
-87 -445 440 0
-87 445 -440 0
-88 -445 440 0
-88 445 -440 0
-89 -445 440 0
-89 445 -440 0
-90 -445 440 0
-90 445 -440 0
-99 -445 440 0
-99 445 -440 0
-81 -441 446 0
-81 -440 446 0
-81 -446 441 440 0
-82 -446 441 0
-82 446 -441 0
-83 -446 441 0
-83 446 -441 0
-84 -446 441 0
-84 446 -441 0
-85 -446 441 0
-85 -446 442 0
-85 446 -441 -442 0
-86 -446 441 0
-86 -446 443 0
-86 446 -441 -443 0
-87 -446 441 0
-87 -446 444 0
-87 446 -441 -444 0
-88 -446 441 0
-88 446 -441 0
-89 -446 441 0
-89 446 -441 0
-90 -446 441 0
-90 446 -441 0
-99 -446 441 0
-99 446 -441 0
-81 -447 442 0
-81 447 -442 0
-82 -442 447 0
-82 -440 447 0
-82 -447 442 440 0
-83 -447 442 0
-83 447 -442 0
-84 -447 442 0
-84 447 -442 0
-85 -442 447 0
-85 -441 447 0
-85 -447 442 441 0
-86 -447 442 0
-86 447 -442 0
-87 -447 442 0
-87 447 -442 0
-88 -447 442 0
-88 -447 443 0
-88 447 -442 -443 0
-89 -447 442 0
-89 -447 444 0
-89 447 -442 -444 0
-90 -447 442 0
-90 447 -442 0
-99 -447 442 0
-99 447 -442 0
-81 -448 443 0
-81 448 -443 0
-82 -448 443 0
-82 448 -443 0
-83 -443 448 0
-83 -440 448 0
-83 -448 443 440 0
-84 -448 443 0
-84 448 -443 0
-85 -448 443 0
-85 448 -443 0
-86 -443 448 0
-86 -441 448 0
-86 -448 443 441 0
-87 -448 443 0
-87 448 -443 0
-88 -443 448 0
-88 -442 448 0
-88 -448 443 442 0
-89 -448 443 0
-89 448 -443 0
-90 -448 443 0
-90 -448 444 0
-90 448 -443 -444 0
-99 -448 443 0
-99 448 -443 0
-81 -449 444 0
-81 449 -444 0
-82 -449 444 0
-82 449 -444 0
-83 -449 444 0
-83 449 -444 0
-84 -444 449 0
-84 -440 449 0
-84 -449 444 440 0
-85 -449 444 0
-85 449 -444 0
-86 -449 444 0
-86 449 -444 0
-87 -444 449 0
-87 -441 449 0
-87 -449 444 441 0
-88 -449 444 0
-88 449 -444 0
-89 -444 449 0
-89 -442 449 0
-89 -449 444 442 0
-90 -444 449 0
-90 -443 449 0
-90 -449 444 443 0
-99 -449 444 0
-99 449 -444 0
-450 0
-1 -455 450 0
-1 -455 451 0
-1 455 -450 -451 0
-2 -455 450 0
-2 -455 452 0
-2 455 -450 -452 0
-3 -455 450 0
-3 -455 453 0
-3 455 -450 -453 0
-4 -455 450 0
-4 -455 454 0
-4 455 -450 -454 0
-5 -455 450 0
-5 455 -450 0
-6 -455 450 0
-6 455 -450 0
-7 -455 450 0
-7 455 -450 0
-8 -455 450 0
-8 455 -450 0
-9 -455 450 0
-9 455 -450 0
-10 -455 450 0
-10 455 -450 0
-91 -455 450 0
-91 455 -450 0
451 0
-1 -451 456 0
-1 -450 456 0
-1 -456 451 450 0
-2 -456 451 0
-2 456 -451 0
-3 -456 451 0
-3 456 -451 0
-4 -456 451 0
-4 456 -451 0
-5 -456 451 0
-5 -456 452 0
-5 456 -451 -452 0
-6 -456 451 0
-6 -456 453 0
-6 456 -451 -453 0
-7 -456 451 0
-7 -456 454 0
-7 456 -451 -454 0
-8 -456 451 0
-8 456 -451 0
-9 -456 451 0
-9 456 -451 0
-10 -456 451 0
-10 456 -451 0
-91 -456 451 0
-91 456 -451 0
-452 0
-1 -457 452 0
-1 457 -452 0
-2 -452 457 0
-2 -450 457 0
-2 -457 452 450 0
-3 -457 452 0
-3 457 -452 0
-4 -457 452 0
-4 457 -452 0
-5 -452 457 0
-5 -451 457 0
-5 -457 452 451 0
-6 -457 452 0
-6 457 -452 0
-7 -457 452 0
-7 457 -452 0
-8 -457 452 0
-8 -457 453 0
-8 457 -452 -453 0
-9 -457 452 0
-9 -457 454 0
-9 457 -452 -454 0
-10 -457 452 0
-10 457 -452 0
-91 -457 452 0
-91 457 -452 0
453 0
-1 -458 453 0
-1 458 -453 0
-2 -458 453 0
-2 458 -453 0
-3 -453 458 0
-3 -450 458 0
-3 -458 453 450 0
-4 -458 453 0
-4 458 -453 0
-5 -458 453 0
-5 458 -453 0
-6 -453 458 0
-6 -451 458 0
-6 -458 453 451 0
-7 -458 453 0
-7 458 -453 0
-8 -453 458 0
-8 -452 458 0
-8 -458 453 452 0
-9 -458 453 0
-9 458 -453 0
-10 -458 453 0
-10 -458 454 0
-10 458 -453 -454 0
-91 -458 453 0
-91 458 -453 0
454 0
-1 -459 454 0
-1 459 -454 0
-2 -459 454 0
-2 459 -454 0
-3 -459 454 0
-3 459 -454 0
-4 -454 459 0
-4 -450 459 0
-4 -459 454 450 0
-5 -459 454 0
-5 459 -454 0
-6 -459 454 0
-6 459 -454 0
-7 -454 459 0
-7 -451 459 0
-7 -459 454 451 0
-8 -459 454 0
-8 459 -454 0
-9 -454 459 0
-9 -452 459 0
-9 -459 454 452 0
-10 -454 459 0
-10 -453 459 0
-10 -459 454 453 0
-91 -459 454 0
-91 459 -454 0
-11 -460 455 0
-11 -460 456 0
-11 460 -455 -456 0
-12 -460 455 0
-12 -460 457 0
-12 460 -455 -457 0
-13 -460 455 0
-13 -460 458 0
-13 460 -455 -458 0
-14 -460 455 0
-14 -460 459 0
-14 460 -455 -459 0
-15 -460 455 0
-15 460 -455 0
-16 -460 455 0
-16 460 -455 0
-17 -460 455 0
-17 460 -455 0
-18 -460 455 0
-18 460 -455 0
-19 -460 455 0
-19 460 -455 0
-20 -460 455 0
-20 460 -455 0
-92 -460 455 0
-92 460 -455 0
-11 -456 461 0
-11 -455 461 0
-11 -461 456 455 0
-12 -461 456 0
-12 461 -456 0
-13 -461 456 0
-13 461 -456 0
-14 -461 456 0
-14 461 -456 0
-15 -461 456 0
-15 -461 457 0
-15 461 -456 -457 0
-16 -461 456 0
-16 -461 458 0
-16 461 -456 -458 0
-17 -461 456 0
-17 -461 459 0
-17 461 -456 -459 0
-18 -461 456 0
-18 461 -456 0
-19 -461 456 0
-19 461 -456 0
-20 -461 456 0
-20 461 -456 0
-92 -461 456 0
-92 461 -456 0
-11 -462 457 0
-11 462 -457 0
-12 -457 462 0
-12 -455 462 0
-12 -462 457 455 0
-13 -462 457 0
-13 462 -457 0
-14 -462 457 0
-14 462 -457 0
-15 -457 462 0
-15 -456 462 0
-15 -462 457 456 0
-16 -462 457 0
-16 462 -457 0
-17 -462 457 0
-17 462 -457 0
-18 -462 457 0
-18 -462 458 0
-18 462 -457 -458 0
-19 -462 457 0
-19 -462 459 0
-19 462 -457 -459 0
-20 -462 457 0
-20 462 -457 0
-92 -462 457 0
-92 462 -457 0
-11 -463 458 0
-11 463 -458 0
-12 -463 458 0
-12 463 -458 0
-13 -458 463 0
-13 -455 463 0
-13 -463 458 455 0
-14 -463 458 0
-14 463 -458 0
-15 -463 458 0
-15 463 -458 0
-16 -458 463 0
-16 -456 463 0
-16 -463 458 456 0
-17 -463 458 0
-17 463 -458 0
-18 -458 463 0
-18 -457 463 0
-18 -463 458 457 0
-19 -463 458 0
-19 463 -458 0
-20 -463 458 0
-20 -463 459 0
-20 463 -458 -459 0
-92 -463 458 0
-92 463 -458 0
-11 -464 459 0
-11 464 -459 0
-12 -464 459 0
-12 464 -459 0
-13 -464 459 0
-13 464 -459 0
-14 -459 464 0
-14 -455 464 0
-14 -464 459 455 0
-15 -464 459 0
-15 464 -459 0
-16 -464 459 0
-16 464 -459 0
-17 -459 464 0
-17 -456 464 0
-17 -464 459 456 0
-18 -464 459 0
-18 464 -459 0
-19 -459 464 0
-19 -457 464 0
-19 -464 459 457 0
-20 -459 464 0
-20 -458 464 0
-20 -464 459 458 0
-92 -464 459 0
-92 464 -459 0
-21 -465 460 0
-21 -465 461 0
-21 465 -460 -461 0
-22 -465 460 0
-22 -465 462 0
-22 465 -460 -462 0
-23 -465 460 0
-23 -465 463 0
-23 465 -460 -463 0
-24 -465 460 0
-24 -465 464 0
-24 465 -460 -464 0
-25 -465 460 0
-25 465 -460 0
-26 -465 460 0
-26 465 -460 0
-27 -465 460 0
-27 465 -460 0
-28 -465 460 0
-28 465 -460 0
-29 -465 460 0
-29 465 -460 0
-30 -465 460 0
-30 465 -460 0
-93 -465 460 0
-93 465 -460 0
-21 -461 466 0
-21 -460 466 0
-21 -466 461 460 0
-22 -466 461 0
-22 466 -461 0
-23 -466 461 0
-23 466 -461 0
-24 -466 461 0
-24 466 -461 0
-25 -466 461 0
-25 -466 462 0
-25 466 -461 -462 0
-26 -466 461 0
-26 -466 463 0
-26 466 -461 -463 0
-27 -466 461 0
-27 -466 464 0
-27 466 -461 -464 0
-28 -466 461 0
-28 466 -461 0
-29 -466 461 0
-29 466 -461 0
-30 -466 461 0
-30 466 -461 0
-93 -466 461 0
-93 466 -461 0
-21 -467 462 0
-21 467 -462 0
-22 -462 467 0
-22 -460 467 0
-22 -467 462 460 0
-23 -467 462 0
-23 467 -462 0
-24 -467 462 0
-24 467 -462 0
-25 -462 467 0
-25 -461 467 0
-25 -467 462 461 0
-26 -467 462 0
-26 467 -462 0
-27 -467 462 0
-27 467 -462 0
-28 -467 462 0
-28 -467 463 0
-28 467 -462 -463 0
-29 -467 462 0
-29 -467 464 0
-29 467 -462 -464 0
-30 -467 462 0
-30 467 -462 0
-93 -467 462 0
-93 467 -462 0
-21 -468 463 0
-21 468 -463 0
-22 -468 463 0
-22 468 -463 0
-23 -463 468 0
-23 -460 468 0
-23 -468 463 460 0
-24 -468 463 0
-24 468 -463 0
-25 -468 463 0
-25 468 -463 0
-26 -463 468 0
-26 -461 468 0
-26 -468 463 461 0
-27 -468 463 0
-27 468 -463 0
-28 -463 468 0
-28 -462 468 0
-28 -468 463 462 0
-29 -468 463 0
-29 468 -463 0
-30 -468 463 0
-30 -468 464 0
-30 468 -463 -464 0
-93 -468 463 0
-93 468 -463 0
-21 -469 464 0
-21 469 -464 0
-22 -469 464 0
-22 469 -464 0
-23 -469 464 0
-23 469 -464 0
-24 -464 469 0
-24 -460 469 0
-24 -469 464 460 0
-25 -469 464 0
-25 469 -464 0
-26 -469 464 0
-26 469 -464 0
-27 -464 469 0
-27 -461 469 0
-27 -469 464 461 0
-28 -469 464 0
-28 469 -464 0
-29 -464 469 0
-29 -462 469 0
-29 -469 464 462 0
-30 -464 469 0
-30 -463 469 0
-30 -469 464 463 0
-93 -469 464 0
-93 469 -464 0
-31 -470 465 0
-31 -470 466 0
-31 470 -465 -466 0
-32 -470 465 0
-32 -470 467 0
-32 470 -465 -467 0
-33 -470 465 0
-33 -470 468 0
-33 470 -465 -468 0
-34 -470 465 0
-34 -470 469 0
-34 470 -465 -469 0
-35 -470 465 0
-35 470 -465 0
-36 -470 465 0
-36 470 -465 0
-37 -470 465 0
-37 470 -465 0
-38 -470 465 0
-38 470 -465 0
-39 -470 465 0
-39 470 -465 0
-40 -470 465 0
-40 470 -465 0
-94 -470 465 0
-94 470 -465 0
-31 -466 471 0
-31 -465 471 0
-31 -471 466 465 0
-32 -471 466 0
-32 471 -466 0
-33 -471 466 0
-33 471 -466 0
-34 -471 466 0
-34 471 -466 0
-35 -471 466 0
-35 -471 467 0
-35 471 -466 -467 0
-36 -471 466 0
-36 -471 468 0
-36 471 -466 -468 0
-37 -471 466 0
-37 -471 469 0
-37 471 -466 -469 0
-38 -471 466 0
-38 471 -466 0
-39 -471 466 0
-39 471 -466 0
-40 -471 466 0
-40 471 -466 0
-94 -471 466 0
-94 471 -466 0
-31 -472 467 0
-31 472 -467 0
-32 -467 472 0
-32 -465 472 0
-32 -472 467 465 0
-33 -472 467 0
-33 472 -467 0
-34 -472 467 0
-34 472 -467 0
-35 -467 472 0
-35 -466 472 0
-35 -472 467 466 0
-36 -472 467 0
-36 472 -467 0
-37 -472 467 0
-37 472 -467 0
-38 -472 467 0
-38 -472 468 0
-38 472 -467 -468 0
-39 -472 467 0
-39 -472 469 0
-39 472 -467 -469 0
-40 -472 467 0
-40 472 -467 0
-94 -472 467 0
-94 472 -467 0
-31 -473 468 0
-31 473 -468 0
-32 -473 468 0
-32 473 -468 0
-33 -468 473 0
-33 -465 473 0
-33 -473 468 465 0
-34 -473 468 0
-34 473 -468 0
-35 -473 468 0
-35 473 -468 0
-36 -468 473 0
-36 -466 473 0
-36 -473 468 466 0
-37 -473 468 0
-37 473 -468 0
-38 -468 473 0
-38 -467 473 0
-38 -473 468 467 0
-39 -473 468 0
-39 473 -468 0
-40 -473 468 0
-40 -473 469 0
-40 473 -468 -469 0
-94 -473 468 0
-94 473 -468 0
-31 -474 469 0
-31 474 -469 0
-32 -474 469 0
-32 474 -469 0
-33 -474 469 0
-33 474 -469 0
-34 -469 474 0
-34 -465 474 0
-34 -474 469 465 0
-35 -474 469 0
-35 474 -469 0
-36 -474 469 0
-36 474 -469 0
-37 -469 474 0
-37 -466 474 0
-37 -474 469 466 0
-38 -474 469 0
-38 474 -469 0
-39 -469 474 0
-39 -467 474 0
-39 -474 469 467 0
-40 -469 474 0
-40 -468 474 0
-40 -474 469 468 0
-94 -474 469 0
-94 474 -469 0
-41 -475 470 0
-41 -475 471 0
-41 475 -470 -471 0
-42 -475 470 0
-42 -475 472 0
-42 475 -470 -472 0
-43 -475 470 0
-43 -475 473 0
-43 475 -470 -473 0
-44 -475 470 0
-44 -475 474 0
-44 475 -470 -474 0
-45 -475 470 0
-45 475 -470 0
-46 -475 470 0
-46 475 -470 0
-47 -475 470 0
-47 475 -470 0
-48 -475 470 0
-48 475 -470 0
-49 -475 470 0
-49 475 -470 0
-50 -475 470 0
-50 475 -470 0
-95 -475 470 0
-95 475 -470 0
-41 -471 476 0
-41 -470 476 0
-41 -476 471 470 0
-42 -476 471 0
-42 476 -471 0
-43 -476 471 0
-43 476 -471 0
-44 -476 471 0
-44 476 -471 0
-45 -476 471 0
-45 -476 472 0
-45 476 -471 -472 0
-46 -476 471 0
-46 -476 473 0
-46 476 -471 -473 0
-47 -476 471 0
-47 -476 474 0
-47 476 -471 -474 0
-48 -476 471 0
-48 476 -471 0
-49 -476 471 0
-49 476 -471 0
-50 -476 471 0
-50 476 -471 0
-95 -476 471 0
-95 476 -471 0
-41 -477 472 0
-41 477 -472 0
-42 -472 477 0
-42 -470 477 0
-42 -477 472 470 0
-43 -477 472 0
-43 477 -472 0
-44 -477 472 0
-44 477 -472 0
-45 -472 477 0
-45 -471 477 0
-45 -477 472 471 0
-46 -477 472 0
-46 477 -472 0
-47 -477 472 0
-47 477 -472 0
-48 -477 472 0
-48 -477 473 0
-48 477 -472 -473 0
-49 -477 472 0
-49 -477 474 0
-49 477 -472 -474 0
-50 -477 472 0
-50 477 -472 0
-95 -477 472 0
-95 477 -472 0
-41 -478 473 0
-41 478 -473 0
-42 -478 473 0
-42 478 -473 0
-43 -473 478 0
-43 -470 478 0
-43 -478 473 470 0
-44 -478 473 0
-44 478 -473 0
-45 -478 473 0
-45 478 -473 0
-46 -473 478 0
-46 -471 478 0
-46 -478 473 471 0
-47 -478 473 0
-47 478 -473 0
-48 -473 478 0
-48 -472 478 0
-48 -478 473 472 0
-49 -478 473 0
-49 478 -473 0
-50 -478 473 0
-50 -478 474 0
-50 478 -473 -474 0
-95 -478 473 0
-95 478 -473 0
-41 -479 474 0
-41 479 -474 0
-42 -479 474 0
-42 479 -474 0
-43 -479 474 0
-43 479 -474 0
-44 -474 479 0
-44 -470 479 0
-44 -479 474 470 0
-45 -479 474 0
-45 479 -474 0
-46 -479 474 0
-46 479 -474 0
-47 -474 479 0
-47 -471 479 0
-47 -479 474 471 0
-48 -479 474 0
-48 479 -474 0
-49 -474 479 0
-49 -472 479 0
-49 -479 474 472 0
-50 -474 479 0
-50 -473 479 0
-50 -479 474 473 0
-95 -479 474 0
-95 479 -474 0
-51 -480 475 0
-51 -480 476 0
-51 480 -475 -476 0
-52 -480 475 0
-52 -480 477 0
-52 480 -475 -477 0
-53 -480 475 0
-53 -480 478 0
-53 480 -475 -478 0
-54 -480 475 0
-54 -480 479 0
-54 480 -475 -479 0
-55 -480 475 0
-55 480 -475 0
-56 -480 475 0
-56 480 -475 0
-57 -480 475 0
-57 480 -475 0
-58 -480 475 0
-58 480 -475 0
-59 -480 475 0
-59 480 -475 0
-60 -480 475 0
-60 480 -475 0
-96 -480 475 0
-96 480 -475 0
-51 -476 481 0
-51 -475 481 0
-51 -481 476 475 0
-52 -481 476 0
-52 481 -476 0
-53 -481 476 0
-53 481 -476 0
-54 -481 476 0
-54 481 -476 0
-55 -481 476 0
-55 -481 477 0
-55 481 -476 -477 0
-56 -481 476 0
-56 -481 478 0
-56 481 -476 -478 0
-57 -481 476 0
-57 -481 479 0
-57 481 -476 -479 0
-58 -481 476 0
-58 481 -476 0
-59 -481 476 0
-59 481 -476 0
-60 -481 476 0
-60 481 -476 0
-96 -481 476 0
-96 481 -476 0
-51 -482 477 0
-51 482 -477 0
-52 -477 482 0
-52 -475 482 0
-52 -482 477 475 0
-53 -482 477 0
-53 482 -477 0
-54 -482 477 0
-54 482 -477 0
-55 -477 482 0
-55 -476 482 0
-55 -482 477 476 0
-56 -482 477 0
-56 482 -477 0
-57 -482 477 0
-57 482 -477 0
-58 -482 477 0
-58 -482 478 0
-58 482 -477 -478 0
-59 -482 477 0
-59 -482 479 0
-59 482 -477 -479 0
-60 -482 477 0
-60 482 -477 0
-96 -482 477 0
-96 482 -477 0
-51 -483 478 0
-51 483 -478 0
-52 -483 478 0
-52 483 -478 0
-53 -478 483 0
-53 -475 483 0
-53 -483 478 475 0
-54 -483 478 0
-54 483 -478 0
-55 -483 478 0
-55 483 -478 0
-56 -478 483 0
-56 -476 483 0
-56 -483 478 476 0
-57 -483 478 0
-57 483 -478 0
-58 -478 483 0
-58 -477 483 0
-58 -483 478 477 0
-59 -483 478 0
-59 483 -478 0
-60 -483 478 0
-60 -483 479 0
-60 483 -478 -479 0
-96 -483 478 0
-96 483 -478 0
-51 -484 479 0
-51 484 -479 0
-52 -484 479 0
-52 484 -479 0
-53 -484 479 0
-53 484 -479 0
-54 -479 484 0
-54 -475 484 0
-54 -484 479 475 0
-55 -484 479 0
-55 484 -479 0
-56 -484 479 0
-56 484 -479 0
-57 -479 484 0
-57 -476 484 0
-57 -484 479 476 0
-58 -484 479 0
-58 484 -479 0
-59 -479 484 0
-59 -477 484 0
-59 -484 479 477 0
-60 -479 484 0
-60 -478 484 0
-60 -484 479 478 0
-96 -484 479 0
-96 484 -479 0
-61 -485 480 0
-61 -485 481 0
-61 485 -480 -481 0
-62 -485 480 0
-62 -485 482 0
-62 485 -480 -482 0
-63 -485 480 0
-63 -485 483 0
-63 485 -480 -483 0
-64 -485 480 0
-64 -485 484 0
-64 485 -480 -484 0
-65 -485 480 0
-65 485 -480 0
-66 -485 480 0
-66 485 -480 0
-67 -485 480 0
-67 485 -480 0
-68 -485 480 0
-68 485 -480 0
-69 -485 480 0
-69 485 -480 0
-70 -485 480 0
-70 485 -480 0
-97 -485 480 0
-97 485 -480 0
-61 -481 486 0
-61 -480 486 0
-61 -486 481 480 0
-62 -486 481 0
-62 486 -481 0
-63 -486 481 0
-63 486 -481 0
-64 -486 481 0
-64 486 -481 0
-65 -486 481 0
-65 -486 482 0
-65 486 -481 -482 0
-66 -486 481 0
-66 -486 483 0
-66 486 -481 -483 0
-67 -486 481 0
-67 -486 484 0
-67 486 -481 -484 0
-68 -486 481 0
-68 486 -481 0
-69 -486 481 0
-69 486 -481 0
-70 -486 481 0
-70 486 -481 0
-97 -486 481 0
-97 486 -481 0
-61 -487 482 0
-61 487 -482 0
-62 -482 487 0
-62 -480 487 0
-62 -487 482 480 0
-63 -487 482 0
-63 487 -482 0
-64 -487 482 0
-64 487 -482 0
-65 -482 487 0
-65 -481 487 0
-65 -487 482 481 0
-66 -487 482 0
-66 487 -482 0
-67 -487 482 0
-67 487 -482 0
-68 -487 482 0
-68 -487 483 0
-68 487 -482 -483 0
-69 -487 482 0
-69 -487 484 0
-69 487 -482 -484 0
-70 -487 482 0
-70 487 -482 0
-97 -487 482 0
-97 487 -482 0
-61 -488 483 0
-61 488 -483 0
-62 -488 483 0
-62 488 -483 0
-63 -483 488 0
-63 -480 488 0
-63 -488 483 480 0
-64 -488 483 0
-64 488 -483 0
-65 -488 483 0
-65 488 -483 0
-66 -483 488 0
-66 -481 488 0
-66 -488 483 481 0
-67 -488 483 0
-67 488 -483 0
-68 -483 488 0
-68 -482 488 0
-68 -488 483 482 0
-69 -488 483 0
-69 488 -483 0
-70 -488 483 0
-70 -488 484 0
-70 488 -483 -484 0
-97 -488 483 0
-97 488 -483 0
-61 -489 484 0
-61 489 -484 0
-62 -489 484 0
-62 489 -484 0
-63 -489 484 0
-63 489 -484 0
-64 -484 489 0
-64 -480 489 0
-64 -489 484 480 0
-65 -489 484 0
-65 489 -484 0
-66 -489 484 0
-66 489 -484 0
-67 -484 489 0
-67 -481 489 0
-67 -489 484 481 0
-68 -489 484 0
-68 489 -484 0
-69 -484 489 0
-69 -482 489 0
-69 -489 484 482 0
-70 -484 489 0
-70 -483 489 0
-70 -489 484 483 0
-97 -489 484 0
-97 489 -484 0
-71 -490 485 0
-71 -490 486 0
-71 490 -485 -486 0
-72 -490 485 0
-72 -490 487 0
-72 490 -485 -487 0
-73 -490 485 0
-73 -490 488 0
-73 490 -485 -488 0
-74 -490 485 0
-74 -490 489 0
-74 490 -485 -489 0
-75 -490 485 0
-75 490 -485 0
-76 -490 485 0
-76 490 -485 0
-77 -490 485 0
-77 490 -485 0
-78 -490 485 0
-78 490 -485 0
-79 -490 485 0
-79 490 -485 0
-80 -490 485 0
-80 490 -485 0
-98 -490 485 0
-98 490 -485 0
-71 -486 491 0
-71 -485 491 0
-71 -491 486 485 0
-72 -491 486 0
-72 491 -486 0
-73 -491 486 0
-73 491 -486 0
-74 -491 486 0
-74 491 -486 0
-75 -491 486 0
-75 -491 487 0
-75 491 -486 -487 0
-76 -491 486 0
-76 -491 488 0
-76 491 -486 -488 0
-77 -491 486 0
-77 -491 489 0
-77 491 -486 -489 0
-78 -491 486 0
-78 491 -486 0
-79 -491 486 0
-79 491 -486 0
-80 -491 486 0
-80 491 -486 0
-98 -491 486 0
-98 491 -486 0
-71 -492 487 0
-71 492 -487 0
-72 -487 492 0
-72 -485 492 0
-72 -492 487 485 0
-73 -492 487 0
-73 492 -487 0
-74 -492 487 0
-74 492 -487 0
-75 -487 492 0
-75 -486 492 0
-75 -492 487 486 0
-76 -492 487 0
-76 492 -487 0
-77 -492 487 0
-77 492 -487 0
-78 -492 487 0
-78 -492 488 0
-78 492 -487 -488 0
-79 -492 487 0
-79 -492 489 0
-79 492 -487 -489 0
-80 -492 487 0
-80 492 -487 0
-98 -492 487 0
-98 492 -487 0
-71 -493 488 0
-71 493 -488 0
-72 -493 488 0
-72 493 -488 0
-73 -488 493 0
-73 -485 493 0
-73 -493 488 485 0
-74 -493 488 0
-74 493 -488 0
-75 -493 488 0
-75 493 -488 0
-76 -488 493 0
-76 -486 493 0
-76 -493 488 486 0
-77 -493 488 0
-77 493 -488 0
-78 -488 493 0
-78 -487 493 0
-78 -493 488 487 0
-79 -493 488 0
-79 493 -488 0
-80 -493 488 0
-80 -493 489 0
-80 493 -488 -489 0
-98 -493 488 0
-98 493 -488 0
-71 -494 489 0
-71 494 -489 0
-72 -494 489 0
-72 494 -489 0
-73 -494 489 0
-73 494 -489 0
-74 -489 494 0
-74 -485 494 0
-74 -494 489 485 0
-75 -494 489 0
-75 494 -489 0
-76 -494 489 0
-76 494 -489 0
-77 -489 494 0
-77 -486 494 0
-77 -494 489 486 0
-78 -494 489 0
-78 494 -489 0
-79 -489 494 0
-79 -487 494 0
-79 -494 489 487 0
-80 -489 494 0
-80 -488 494 0
-80 -494 489 488 0
-98 -494 489 0
-98 494 -489 0
-81 -495 490 0
-81 -495 491 0
-81 495 -490 -491 0
-82 -495 490 0
-82 -495 492 0
-82 495 -490 -492 0
-83 -495 490 0
-83 -495 493 0
-83 495 -490 -493 0
-84 -495 490 0
-84 -495 494 0
-84 495 -490 -494 0
-85 -495 490 0
-85 495 -490 0
-86 -495 490 0
-86 495 -490 0
-87 -495 490 0
-87 495 -490 0
-88 -495 490 0
-88 495 -490 0
-89 -495 490 0
-89 495 -490 0
-90 -495 490 0
-90 495 -490 0
-99 -495 490 0
-99 495 -490 0
-81 -491 496 0
-81 -490 496 0
-81 -496 491 490 0
-82 -496 491 0
-82 496 -491 0
-83 -496 491 0
-83 496 -491 0
-84 -496 491 0
-84 496 -491 0
-85 -496 491 0
-85 -496 492 0
-85 496 -491 -492 0
-86 -496 491 0
-86 -496 493 0
-86 496 -491 -493 0
-87 -496 491 0
-87 -496 494 0
-87 496 -491 -494 0
-88 -496 491 0
-88 496 -491 0
-89 -496 491 0
-89 496 -491 0
-90 -496 491 0
-90 496 -491 0
-99 -496 491 0
-99 496 -491 0
-81 -497 492 0
-81 497 -492 0
-82 -492 497 0
-82 -490 497 0
-82 -497 492 490 0
-83 -497 492 0
-83 497 -492 0
-84 -497 492 0
-84 497 -492 0
-85 -492 497 0
-85 -491 497 0
-85 -497 492 491 0
-86 -497 492 0
-86 497 -492 0
-87 -497 492 0
-87 497 -492 0
-88 -497 492 0
-88 -497 493 0
-88 497 -492 -493 0
-89 -497 492 0
-89 -497 494 0
-89 497 -492 -494 0
-90 -497 492 0
-90 497 -492 0
-99 -497 492 0
-99 497 -492 0
-81 -498 493 0
-81 498 -493 0
-82 -498 493 0
-82 498 -493 0
-83 -493 498 0
-83 -490 498 0
-83 -498 493 490 0
-84 -498 493 0
-84 498 -493 0
-85 -498 493 0
-85 498 -493 0
-86 -493 498 0
-86 -491 498 0
-86 -498 493 491 0
-87 -498 493 0
-87 498 -493 0
-88 -493 498 0
-88 -492 498 0
-88 -498 493 492 0
-89 -498 493 0
-89 498 -493 0
-90 -498 493 0
-90 -498 494 0
-90 498 -493 -494 0
-99 -498 493 0
-99 498 -493 0
-81 -499 494 0
-81 499 -494 0
-82 -499 494 0
-82 499 -494 0
-83 -499 494 0
-83 499 -494 0
-84 -494 499 0
-84 -490 499 0
-84 -499 494 490 0
-85 -499 494 0
-85 499 -494 0
-86 -499 494 0
-86 499 -494 0
-87 -494 499 0
-87 -491 499 0
-87 -499 494 491 0
-88 -499 494 0
-88 499 -494 0
-89 -494 499 0
-89 -492 499 0
-89 -499 494 492 0
-90 -494 499 0
-90 -493 499 0
-90 -499 494 493 0
-99 -499 494 0
-99 499 -494 0
-500 0
-1 -505 500 0
-1 -505 501 0
-1 505 -500 -501 0
-2 -505 500 0
-2 -505 502 0
-2 505 -500 -502 0
-3 -505 500 0
-3 -505 503 0
-3 505 -500 -503 0
-4 -505 500 0
-4 -505 504 0
-4 505 -500 -504 0
-5 -505 500 0
-5 505 -500 0
-6 -505 500 0
-6 505 -500 0
-7 -505 500 0
-7 505 -500 0
-8 -505 500 0
-8 505 -500 0
-9 -505 500 0
-9 505 -500 0
-10 -505 500 0
-10 505 -500 0
-91 -505 500 0
-91 505 -500 0
501 0
-1 -501 506 0
-1 -500 506 0
-1 -506 501 500 0
-2 -506 501 0
-2 506 -501 0
-3 -506 501 0
-3 506 -501 0
-4 -506 501 0
-4 506 -501 0
-5 -506 501 0
-5 -506 502 0
-5 506 -501 -502 0
-6 -506 501 0
-6 -506 503 0
-6 506 -501 -503 0
-7 -506 501 0
-7 -506 504 0
-7 506 -501 -504 0
-8 -506 501 0
-8 506 -501 0
-9 -506 501 0
-9 506 -501 0
-10 -506 501 0
-10 506 -501 0
-91 -506 501 0
-91 506 -501 0
502 0
-1 -507 502 0
-1 507 -502 0
-2 -502 507 0
-2 -500 507 0
-2 -507 502 500 0
-3 -507 502 0
-3 507 -502 0
-4 -507 502 0
-4 507 -502 0
-5 -502 507 0
-5 -501 507 0
-5 -507 502 501 0
-6 -507 502 0
-6 507 -502 0
-7 -507 502 0
-7 507 -502 0
-8 -507 502 0
-8 -507 503 0
-8 507 -502 -503 0
-9 -507 502 0
-9 -507 504 0
-9 507 -502 -504 0
-10 -507 502 0
-10 507 -502 0
-91 -507 502 0
-91 507 -502 0
-503 0
-1 -508 503 0
-1 508 -503 0
-2 -508 503 0
-2 508 -503 0
-3 -503 508 0
-3 -500 508 0
-3 -508 503 500 0
-4 -508 503 0
-4 508 -503 0
-5 -508 503 0
-5 508 -503 0
-6 -503 508 0
-6 -501 508 0
-6 -508 503 501 0
-7 -508 503 0
-7 508 -503 0
-8 -503 508 0
-8 -502 508 0
-8 -508 503 502 0
-9 -508 503 0
-9 508 -503 0
-10 -508 503 0
-10 -508 504 0
-10 508 -503 -504 0
-91 -508 503 0
-91 508 -503 0
-504 0
-1 -509 504 0
-1 509 -504 0
-2 -509 504 0
-2 509 -504 0
-3 -509 504 0
-3 509 -504 0
-4 -504 509 0
-4 -500 509 0
-4 -509 504 500 0
-5 -509 504 0
-5 509 -504 0
-6 -509 504 0
-6 509 -504 0
-7 -504 509 0
-7 -501 509 0
-7 -509 504 501 0
-8 -509 504 0
-8 509 -504 0
-9 -504 509 0
-9 -502 509 0
-9 -509 504 502 0
-10 -504 509 0
-10 -503 509 0
-10 -509 504 503 0
-91 -509 504 0
-91 509 -504 0
-11 -510 505 0
-11 -510 506 0
-11 510 -505 -506 0
-12 -510 505 0
-12 -510 507 0
-12 510 -505 -507 0
-13 -510 505 0
-13 -510 508 0
-13 510 -505 -508 0
-14 -510 505 0
-14 -510 509 0
-14 510 -505 -509 0
-15 -510 505 0
-15 510 -505 0
-16 -510 505 0
-16 510 -505 0
-17 -510 505 0
-17 510 -505 0
-18 -510 505 0
-18 510 -505 0
-19 -510 505 0
-19 510 -505 0
-20 -510 505 0
-20 510 -505 0
-92 -510 505 0
-92 510 -505 0
-11 -506 511 0
-11 -505 511 0
-11 -511 506 505 0
-12 -511 506 0
-12 511 -506 0
-13 -511 506 0
-13 511 -506 0
-14 -511 506 0
-14 511 -506 0
-15 -511 506 0
-15 -511 507 0
-15 511 -506 -507 0
-16 -511 506 0
-16 -511 508 0
-16 511 -506 -508 0
-17 -511 506 0
-17 -511 509 0
-17 511 -506 -509 0
-18 -511 506 0
-18 511 -506 0
-19 -511 506 0
-19 511 -506 0
-20 -511 506 0
-20 511 -506 0
-92 -511 506 0
-92 511 -506 0
-11 -512 507 0
-11 512 -507 0
-12 -507 512 0
-12 -505 512 0
-12 -512 507 505 0
-13 -512 507 0
-13 512 -507 0
-14 -512 507 0
-14 512 -507 0
-15 -507 512 0
-15 -506 512 0
-15 -512 507 506 0
-16 -512 507 0
-16 512 -507 0
-17 -512 507 0
-17 512 -507 0
-18 -512 507 0
-18 -512 508 0
-18 512 -507 -508 0
-19 -512 507 0
-19 -512 509 0
-19 512 -507 -509 0
-20 -512 507 0
-20 512 -507 0
-92 -512 507 0
-92 512 -507 0
-11 -513 508 0
-11 513 -508 0
-12 -513 508 0
-12 513 -508 0
-13 -508 513 0
-13 -505 513 0
-13 -513 508 505 0
-14 -513 508 0
-14 513 -508 0
-15 -513 508 0
-15 513 -508 0
-16 -508 513 0
-16 -506 513 0
-16 -513 508 506 0
-17 -513 508 0
-17 513 -508 0
-18 -508 513 0
-18 -507 513 0
-18 -513 508 507 0
-19 -513 508 0
-19 513 -508 0
-20 -513 508 0
-20 -513 509 0
-20 513 -508 -509 0
-92 -513 508 0
-92 513 -508 0
-11 -514 509 0
-11 514 -509 0
-12 -514 509 0
-12 514 -509 0
-13 -514 509 0
-13 514 -509 0
-14 -509 514 0
-14 -505 514 0
-14 -514 509 505 0
-15 -514 509 0
-15 514 -509 0
-16 -514 509 0
-16 514 -509 0
-17 -509 514 0
-17 -506 514 0
-17 -514 509 506 0
-18 -514 509 0
-18 514 -509 0
-19 -509 514 0
-19 -507 514 0
-19 -514 509 507 0
-20 -509 514 0
-20 -508 514 0
-20 -514 509 508 0
-92 -514 509 0
-92 514 -509 0
-21 -515 510 0
-21 -515 511 0
-21 515 -510 -511 0
-22 -515 510 0
-22 -515 512 0
-22 515 -510 -512 0
-23 -515 510 0
-23 -515 513 0
-23 515 -510 -513 0
-24 -515 510 0
-24 -515 514 0
-24 515 -510 -514 0
-25 -515 510 0
-25 515 -510 0
-26 -515 510 0
-26 515 -510 0
-27 -515 510 0
-27 515 -510 0
-28 -515 510 0
-28 515 -510 0
-29 -515 510 0
-29 515 -510 0
-30 -515 510 0
-30 515 -510 0
-93 -515 510 0
-93 515 -510 0
-21 -511 516 0
-21 -510 516 0
-21 -516 511 510 0
-22 -516 511 0
-22 516 -511 0
-23 -516 511 0
-23 516 -511 0
-24 -516 511 0
-24 516 -511 0
-25 -516 511 0
-25 -516 512 0
-25 516 -511 -512 0
-26 -516 511 0
-26 -516 513 0
-26 516 -511 -513 0
-27 -516 511 0
-27 -516 514 0
-27 516 -511 -514 0
-28 -516 511 0
-28 516 -511 0
-29 -516 511 0
-29 516 -511 0
-30 -516 511 0
-30 516 -511 0
-93 -516 511 0
-93 516 -511 0
-21 -517 512 0
-21 517 -512 0
-22 -512 517 0
-22 -510 517 0
-22 -517 512 510 0
-23 -517 512 0
-23 517 -512 0
-24 -517 512 0
-24 517 -512 0
-25 -512 517 0
-25 -511 517 0
-25 -517 512 511 0
-26 -517 512 0
-26 517 -512 0
-27 -517 512 0
-27 517 -512 0
-28 -517 512 0
-28 -517 513 0
-28 517 -512 -513 0
-29 -517 512 0
-29 -517 514 0
-29 517 -512 -514 0
-30 -517 512 0
-30 517 -512 0
-93 -517 512 0
-93 517 -512 0
-21 -518 513 0
-21 518 -513 0
-22 -518 513 0
-22 518 -513 0
-23 -513 518 0
-23 -510 518 0
-23 -518 513 510 0
-24 -518 513 0
-24 518 -513 0
-25 -518 513 0
-25 518 -513 0
-26 -513 518 0
-26 -511 518 0
-26 -518 513 511 0
-27 -518 513 0
-27 518 -513 0
-28 -513 518 0
-28 -512 518 0
-28 -518 513 512 0
-29 -518 513 0
-29 518 -513 0
-30 -518 513 0
-30 -518 514 0
-30 518 -513 -514 0
-93 -518 513 0
-93 518 -513 0
-21 -519 514 0
-21 519 -514 0
-22 -519 514 0
-22 519 -514 0
-23 -519 514 0
-23 519 -514 0
-24 -514 519 0
-24 -510 519 0
-24 -519 514 510 0
-25 -519 514 0
-25 519 -514 0
-26 -519 514 0
-26 519 -514 0
-27 -514 519 0
-27 -511 519 0
-27 -519 514 511 0
-28 -519 514 0
-28 519 -514 0
-29 -514 519 0
-29 -512 519 0
-29 -519 514 512 0
-30 -514 519 0
-30 -513 519 0
-30 -519 514 513 0
-93 -519 514 0
-93 519 -514 0
-31 -520 515 0
-31 -520 516 0
-31 520 -515 -516 0
-32 -520 515 0
-32 -520 517 0
-32 520 -515 -517 0
-33 -520 515 0
-33 -520 518 0
-33 520 -515 -518 0
-34 -520 515 0
-34 -520 519 0
-34 520 -515 -519 0
-35 -520 515 0
-35 520 -515 0
-36 -520 515 0
-36 520 -515 0
-37 -520 515 0
-37 520 -515 0
-38 -520 515 0
-38 520 -515 0
-39 -520 515 0
-39 520 -515 0
-40 -520 515 0
-40 520 -515 0
-94 -520 515 0
-94 520 -515 0
-31 -516 521 0
-31 -515 521 0
-31 -521 516 515 0
-32 -521 516 0
-32 521 -516 0
-33 -521 516 0
-33 521 -516 0
-34 -521 516 0
-34 521 -516 0
-35 -521 516 0
-35 -521 517 0
-35 521 -516 -517 0
-36 -521 516 0
-36 -521 518 0
-36 521 -516 -518 0
-37 -521 516 0
-37 -521 519 0
-37 521 -516 -519 0
-38 -521 516 0
-38 521 -516 0
-39 -521 516 0
-39 521 -516 0
-40 -521 516 0
-40 521 -516 0
-94 -521 516 0
-94 521 -516 0
-31 -522 517 0
-31 522 -517 0
-32 -517 522 0
-32 -515 522 0
-32 -522 517 515 0
-33 -522 517 0
-33 522 -517 0
-34 -522 517 0
-34 522 -517 0
-35 -517 522 0
-35 -516 522 0
-35 -522 517 516 0
-36 -522 517 0
-36 522 -517 0
-37 -522 517 0
-37 522 -517 0
-38 -522 517 0
-38 -522 518 0
-38 522 -517 -518 0
-39 -522 517 0
-39 -522 519 0
-39 522 -517 -519 0
-40 -522 517 0
-40 522 -517 0
-94 -522 517 0
-94 522 -517 0
-31 -523 518 0
-31 523 -518 0
-32 -523 518 0
-32 523 -518 0
-33 -518 523 0
-33 -515 523 0
-33 -523 518 515 0
-34 -523 518 0
-34 523 -518 0
-35 -523 518 0
-35 523 -518 0
-36 -518 523 0
-36 -516 523 0
-36 -523 518 516 0
-37 -523 518 0
-37 523 -518 0
-38 -518 523 0
-38 -517 523 0
-38 -523 518 517 0
-39 -523 518 0
-39 523 -518 0
-40 -523 518 0
-40 -523 519 0
-40 523 -518 -519 0
-94 -523 518 0
-94 523 -518 0
-31 -524 519 0
-31 524 -519 0
-32 -524 519 0
-32 524 -519 0
-33 -524 519 0
-33 524 -519 0
-34 -519 524 0
-34 -515 524 0
-34 -524 519 515 0
-35 -524 519 0
-35 524 -519 0
-36 -524 519 0
-36 524 -519 0
-37 -519 524 0
-37 -516 524 0
-37 -524 519 516 0
-38 -524 519 0
-38 524 -519 0
-39 -519 524 0
-39 -517 524 0
-39 -524 519 517 0
-40 -519 524 0
-40 -518 524 0
-40 -524 519 518 0
-94 -524 519 0
-94 524 -519 0
-41 -525 520 0
-41 -525 521 0
-41 525 -520 -521 0
-42 -525 520 0
-42 -525 522 0
-42 525 -520 -522 0
-43 -525 520 0
-43 -525 523 0
-43 525 -520 -523 0
-44 -525 520 0
-44 -525 524 0
-44 525 -520 -524 0
-45 -525 520 0
-45 525 -520 0
-46 -525 520 0
-46 525 -520 0
-47 -525 520 0
-47 525 -520 0
-48 -525 520 0
-48 525 -520 0
-49 -525 520 0
-49 525 -520 0
-50 -525 520 0
-50 525 -520 0
-95 -525 520 0
-95 525 -520 0
-41 -521 526 0
-41 -520 526 0
-41 -526 521 520 0
-42 -526 521 0
-42 526 -521 0
-43 -526 521 0
-43 526 -521 0
-44 -526 521 0
-44 526 -521 0
-45 -526 521 0
-45 -526 522 0
-45 526 -521 -522 0
-46 -526 521 0
-46 -526 523 0
-46 526 -521 -523 0
-47 -526 521 0
-47 -526 524 0
-47 526 -521 -524 0
-48 -526 521 0
-48 526 -521 0
-49 -526 521 0
-49 526 -521 0
-50 -526 521 0
-50 526 -521 0
-95 -526 521 0
-95 526 -521 0
-41 -527 522 0
-41 527 -522 0
-42 -522 527 0
-42 -520 527 0
-42 -527 522 520 0
-43 -527 522 0
-43 527 -522 0
-44 -527 522 0
-44 527 -522 0
-45 -522 527 0
-45 -521 527 0
-45 -527 522 521 0
-46 -527 522 0
-46 527 -522 0
-47 -527 522 0
-47 527 -522 0
-48 -527 522 0
-48 -527 523 0
-48 527 -522 -523 0
-49 -527 522 0
-49 -527 524 0
-49 527 -522 -524 0
-50 -527 522 0
-50 527 -522 0
-95 -527 522 0
-95 527 -522 0
-41 -528 523 0
-41 528 -523 0
-42 -528 523 0
-42 528 -523 0
-43 -523 528 0
-43 -520 528 0
-43 -528 523 520 0
-44 -528 523 0
-44 528 -523 0
-45 -528 523 0
-45 528 -523 0
-46 -523 528 0
-46 -521 528 0
-46 -528 523 521 0
-47 -528 523 0
-47 528 -523 0
-48 -523 528 0
-48 -522 528 0
-48 -528 523 522 0
-49 -528 523 0
-49 528 -523 0
-50 -528 523 0
-50 -528 524 0
-50 528 -523 -524 0
-95 -528 523 0
-95 528 -523 0
-41 -529 524 0
-41 529 -524 0
-42 -529 524 0
-42 529 -524 0
-43 -529 524 0
-43 529 -524 0
-44 -524 529 0
-44 -520 529 0
-44 -529 524 520 0
-45 -529 524 0
-45 529 -524 0
-46 -529 524 0
-46 529 -524 0
-47 -524 529 0
-47 -521 529 0
-47 -529 524 521 0
-48 -529 524 0
-48 529 -524 0
-49 -524 529 0
-49 -522 529 0
-49 -529 524 522 0
-50 -524 529 0
-50 -523 529 0
-50 -529 524 523 0
-95 -529 524 0
-95 529 -524 0
-51 -530 525 0
-51 -530 526 0
-51 530 -525 -526 0
-52 -530 525 0
-52 -530 527 0
-52 530 -525 -527 0
-53 -530 525 0
-53 -530 528 0
-53 530 -525 -528 0
-54 -530 525 0
-54 -530 529 0
-54 530 -525 -529 0
-55 -530 525 0
-55 530 -525 0
-56 -530 525 0
-56 530 -525 0
-57 -530 525 0
-57 530 -525 0
-58 -530 525 0
-58 530 -525 0
-59 -530 525 0
-59 530 -525 0
-60 -530 525 0
-60 530 -525 0
-96 -530 525 0
-96 530 -525 0
-51 -526 531 0
-51 -525 531 0
-51 -531 526 525 0
-52 -531 526 0
-52 531 -526 0
-53 -531 526 0
-53 531 -526 0
-54 -531 526 0
-54 531 -526 0
-55 -531 526 0
-55 -531 527 0
-55 531 -526 -527 0
-56 -531 526 0
-56 -531 528 0
-56 531 -526 -528 0
-57 -531 526 0
-57 -531 529 0
-57 531 -526 -529 0
-58 -531 526 0
-58 531 -526 0
-59 -531 526 0
-59 531 -526 0
-60 -531 526 0
-60 531 -526 0
-96 -531 526 0
-96 531 -526 0
-51 -532 527 0
-51 532 -527 0
-52 -527 532 0
-52 -525 532 0
-52 -532 527 525 0
-53 -532 527 0
-53 532 -527 0
-54 -532 527 0
-54 532 -527 0
-55 -527 532 0
-55 -526 532 0
-55 -532 527 526 0
-56 -532 527 0
-56 532 -527 0
-57 -532 527 0
-57 532 -527 0
-58 -532 527 0
-58 -532 528 0
-58 532 -527 -528 0
-59 -532 527 0
-59 -532 529 0
-59 532 -527 -529 0
-60 -532 527 0
-60 532 -527 0
-96 -532 527 0
-96 532 -527 0
-51 -533 528 0
-51 533 -528 0
-52 -533 528 0
-52 533 -528 0
-53 -528 533 0
-53 -525 533 0
-53 -533 528 525 0
-54 -533 528 0
-54 533 -528 0
-55 -533 528 0
-55 533 -528 0
-56 -528 533 0
-56 -526 533 0
-56 -533 528 526 0
-57 -533 528 0
-57 533 -528 0
-58 -528 533 0
-58 -527 533 0
-58 -533 528 527 0
-59 -533 528 0
-59 533 -528 0
-60 -533 528 0
-60 -533 529 0
-60 533 -528 -529 0
-96 -533 528 0
-96 533 -528 0
-51 -534 529 0
-51 534 -529 0
-52 -534 529 0
-52 534 -529 0
-53 -534 529 0
-53 534 -529 0
-54 -529 534 0
-54 -525 534 0
-54 -534 529 525 0
-55 -534 529 0
-55 534 -529 0
-56 -534 529 0
-56 534 -529 0
-57 -529 534 0
-57 -526 534 0
-57 -534 529 526 0
-58 -534 529 0
-58 534 -529 0
-59 -529 534 0
-59 -527 534 0
-59 -534 529 527 0
-60 -529 534 0
-60 -528 534 0
-60 -534 529 528 0
-96 -534 529 0
-96 534 -529 0
-61 -535 530 0
-61 -535 531 0
-61 535 -530 -531 0
-62 -535 530 0
-62 -535 532 0
-62 535 -530 -532 0
-63 -535 530 0
-63 -535 533 0
-63 535 -530 -533 0
-64 -535 530 0
-64 -535 534 0
-64 535 -530 -534 0
-65 -535 530 0
-65 535 -530 0
-66 -535 530 0
-66 535 -530 0
-67 -535 530 0
-67 535 -530 0
-68 -535 530 0
-68 535 -530 0
-69 -535 530 0
-69 535 -530 0
-70 -535 530 0
-70 535 -530 0
-97 -535 530 0
-97 535 -530 0
-61 -531 536 0
-61 -530 536 0
-61 -536 531 530 0
-62 -536 531 0
-62 536 -531 0
-63 -536 531 0
-63 536 -531 0
-64 -536 531 0
-64 536 -531 0
-65 -536 531 0
-65 -536 532 0
-65 536 -531 -532 0
-66 -536 531 0
-66 -536 533 0
-66 536 -531 -533 0
-67 -536 531 0
-67 -536 534 0
-67 536 -531 -534 0
-68 -536 531 0
-68 536 -531 0
-69 -536 531 0
-69 536 -531 0
-70 -536 531 0
-70 536 -531 0
-97 -536 531 0
-97 536 -531 0
-61 -537 532 0
-61 537 -532 0
-62 -532 537 0
-62 -530 537 0
-62 -537 532 530 0
-63 -537 532 0
-63 537 -532 0
-64 -537 532 0
-64 537 -532 0
-65 -532 537 0
-65 -531 537 0
-65 -537 532 531 0
-66 -537 532 0
-66 537 -532 0
-67 -537 532 0
-67 537 -532 0
-68 -537 532 0
-68 -537 533 0
-68 537 -532 -533 0
-69 -537 532 0
-69 -537 534 0
-69 537 -532 -534 0
-70 -537 532 0
-70 537 -532 0
-97 -537 532 0
-97 537 -532 0
-61 -538 533 0
-61 538 -533 0
-62 -538 533 0
-62 538 -533 0
-63 -533 538 0
-63 -530 538 0
-63 -538 533 530 0
-64 -538 533 0
-64 538 -533 0
-65 -538 533 0
-65 538 -533 0
-66 -533 538 0
-66 -531 538 0
-66 -538 533 531 0
-67 -538 533 0
-67 538 -533 0
-68 -533 538 0
-68 -532 538 0
-68 -538 533 532 0
-69 -538 533 0
-69 538 -533 0
-70 -538 533 0
-70 -538 534 0
-70 538 -533 -534 0
-97 -538 533 0
-97 538 -533 0
-61 -539 534 0
-61 539 -534 0
-62 -539 534 0
-62 539 -534 0
-63 -539 534 0
-63 539 -534 0
-64 -534 539 0
-64 -530 539 0
-64 -539 534 530 0
-65 -539 534 0
-65 539 -534 0
-66 -539 534 0
-66 539 -534 0
-67 -534 539 0
-67 -531 539 0
-67 -539 534 531 0
-68 -539 534 0
-68 539 -534 0
-69 -534 539 0
-69 -532 539 0
-69 -539 534 532 0
-70 -534 539 0
-70 -533 539 0
-70 -539 534 533 0
-97 -539 534 0
-97 539 -534 0
-71 -540 535 0
-71 -540 536 0
-71 540 -535 -536 0
-72 -540 535 0
-72 -540 537 0
-72 540 -535 -537 0
-73 -540 535 0
-73 -540 538 0
-73 540 -535 -538 0
-74 -540 535 0
-74 -540 539 0
-74 540 -535 -539 0
-75 -540 535 0
-75 540 -535 0
-76 -540 535 0
-76 540 -535 0
-77 -540 535 0
-77 540 -535 0
-78 -540 535 0
-78 540 -535 0
-79 -540 535 0
-79 540 -535 0
-80 -540 535 0
-80 540 -535 0
-98 -540 535 0
-98 540 -535 0
-71 -536 541 0
-71 -535 541 0
-71 -541 536 535 0
-72 -541 536 0
-72 541 -536 0
-73 -541 536 0
-73 541 -536 0
-74 -541 536 0
-74 541 -536 0
-75 -541 536 0
-75 -541 537 0
-75 541 -536 -537 0
-76 -541 536 0
-76 -541 538 0
-76 541 -536 -538 0
-77 -541 536 0
-77 -541 539 0
-77 541 -536 -539 0
-78 -541 536 0
-78 541 -536 0
-79 -541 536 0
-79 541 -536 0
-80 -541 536 0
-80 541 -536 0
-98 -541 536 0
-98 541 -536 0
-71 -542 537 0
-71 542 -537 0
-72 -537 542 0
-72 -535 542 0
-72 -542 537 535 0
-73 -542 537 0
-73 542 -537 0
-74 -542 537 0
-74 542 -537 0
-75 -537 542 0
-75 -536 542 0
-75 -542 537 536 0
-76 -542 537 0
-76 542 -537 0
-77 -542 537 0
-77 542 -537 0
-78 -542 537 0
-78 -542 538 0
-78 542 -537 -538 0
-79 -542 537 0
-79 -542 539 0
-79 542 -537 -539 0
-80 -542 537 0
-80 542 -537 0
-98 -542 537 0
-98 542 -537 0
-71 -543 538 0
-71 543 -538 0
-72 -543 538 0
-72 543 -538 0
-73 -538 543 0
-73 -535 543 0
-73 -543 538 535 0
-74 -543 538 0
-74 543 -538 0
-75 -543 538 0
-75 543 -538 0
-76 -538 543 0
-76 -536 543 0
-76 -543 538 536 0
-77 -543 538 0
-77 543 -538 0
-78 -538 543 0
-78 -537 543 0
-78 -543 538 537 0
-79 -543 538 0
-79 543 -538 0
-80 -543 538 0
-80 -543 539 0
-80 543 -538 -539 0
-98 -543 538 0
-98 543 -538 0
-71 -544 539 0
-71 544 -539 0
-72 -544 539 0
-72 544 -539 0
-73 -544 539 0
-73 544 -539 0
-74 -539 544 0
-74 -535 544 0
-74 -544 539 535 0
-75 -544 539 0
-75 544 -539 0
-76 -544 539 0
-76 544 -539 0
-77 -539 544 0
-77 -536 544 0
-77 -544 539 536 0
-78 -544 539 0
-78 544 -539 0
-79 -539 544 0
-79 -537 544 0
-79 -544 539 537 0
-80 -539 544 0
-80 -538 544 0
-80 -544 539 538 0
-98 -544 539 0
-98 544 -539 0
-81 -545 540 0
-81 -545 541 0
-81 545 -540 -541 0
-82 -545 540 0
-82 -545 542 0
-82 545 -540 -542 0
-83 -545 540 0
-83 -545 543 0
-83 545 -540 -543 0
-84 -545 540 0
-84 -545 544 0
-84 545 -540 -544 0
-85 -545 540 0
-85 545 -540 0
-86 -545 540 0
-86 545 -540 0
-87 -545 540 0
-87 545 -540 0
-88 -545 540 0
-88 545 -540 0
-89 -545 540 0
-89 545 -540 0
-90 -545 540 0
-90 545 -540 0
-99 -545 540 0
-99 545 -540 0
-81 -541 546 0
-81 -540 546 0
-81 -546 541 540 0
-82 -546 541 0
-82 546 -541 0
-83 -546 541 0
-83 546 -541 0
-84 -546 541 0
-84 546 -541 0
-85 -546 541 0
-85 -546 542 0
-85 546 -541 -542 0
-86 -546 541 0
-86 -546 543 0
-86 546 -541 -543 0
-87 -546 541 0
-87 -546 544 0
-87 546 -541 -544 0
-88 -546 541 0
-88 546 -541 0
-89 -546 541 0
-89 546 -541 0
-90 -546 541 0
-90 546 -541 0
-99 -546 541 0
-99 546 -541 0
-81 -547 542 0
-81 547 -542 0
-82 -542 547 0
-82 -540 547 0
-82 -547 542 540 0
-83 -547 542 0
-83 547 -542 0
-84 -547 542 0
-84 547 -542 0
-85 -542 547 0
-85 -541 547 0
-85 -547 542 541 0
-86 -547 542 0
-86 547 -542 0
-87 -547 542 0
-87 547 -542 0
-88 -547 542 0
-88 -547 543 0
-88 547 -542 -543 0
-89 -547 542 0
-89 -547 544 0
-89 547 -542 -544 0
-90 -547 542 0
-90 547 -542 0
-99 -547 542 0
-99 547 -542 0
-81 -548 543 0
-81 548 -543 0
-82 -548 543 0
-82 548 -543 0
-83 -543 548 0
-83 -540 548 0
-83 -548 543 540 0
-84 -548 543 0
-84 548 -543 0
-85 -548 543 0
-85 548 -543 0
-86 -543 548 0
-86 -541 548 0
-86 -548 543 541 0
-87 -548 543 0
-87 548 -543 0
-88 -543 548 0
-88 -542 548 0
-88 -548 543 542 0
-89 -548 543 0
-89 548 -543 0
-90 -548 543 0
-90 -548 544 0
-90 548 -543 -544 0
-99 -548 543 0
-99 548 -543 0
-81 -549 544 0
-81 549 -544 0
-82 -549 544 0
-82 549 -544 0
-83 -549 544 0
-83 549 -544 0
-84 -544 549 0
-84 -540 549 0
-84 -549 544 540 0
-85 -549 544 0
-85 549 -544 0
-86 -549 544 0
-86 549 -544 0
-87 -544 549 0
-87 -541 549 0
-87 -549 544 541 0
-88 -549 544 0
-88 549 -544 0
-89 -544 549 0
-89 -542 549 0
-89 -549 544 542 0
-90 -544 549 0
-90 -543 549 0
-90 -549 544 543 0
-99 -549 544 0
-99 549 -544 0
-550 0
-1 -555 550 0
-1 -555 551 0
-1 555 -550 -551 0
-2 -555 550 0
-2 -555 552 0
-2 555 -550 -552 0
-3 -555 550 0
-3 -555 553 0
-3 555 -550 -553 0
-4 -555 550 0
-4 -555 554 0
-4 555 -550 -554 0
-5 -555 550 0
-5 555 -550 0
-6 -555 550 0
-6 555 -550 0
-7 -555 550 0
-7 555 -550 0
-8 -555 550 0
-8 555 -550 0
-9 -555 550 0
-9 555 -550 0
-10 -555 550 0
-10 555 -550 0
-91 -555 550 0
-91 555 -550 0
551 0
-1 -551 556 0
-1 -550 556 0
-1 -556 551 550 0
-2 -556 551 0
-2 556 -551 0
-3 -556 551 0
-3 556 -551 0
-4 -556 551 0
-4 556 -551 0
-5 -556 551 0
-5 -556 552 0
-5 556 -551 -552 0
-6 -556 551 0
-6 -556 553 0
-6 556 -551 -553 0
-7 -556 551 0
-7 -556 554 0
-7 556 -551 -554 0
-8 -556 551 0
-8 556 -551 0
-9 -556 551 0
-9 556 -551 0
-10 -556 551 0
-10 556 -551 0
-91 -556 551 0
-91 556 -551 0
552 0
-1 -557 552 0
-1 557 -552 0
-2 -552 557 0
-2 -550 557 0
-2 -557 552 550 0
-3 -557 552 0
-3 557 -552 0
-4 -557 552 0
-4 557 -552 0
-5 -552 557 0
-5 -551 557 0
-5 -557 552 551 0
-6 -557 552 0
-6 557 -552 0
-7 -557 552 0
-7 557 -552 0
-8 -557 552 0
-8 -557 553 0
-8 557 -552 -553 0
-9 -557 552 0
-9 -557 554 0
-9 557 -552 -554 0
-10 -557 552 0
-10 557 -552 0
-91 -557 552 0
-91 557 -552 0
-553 0
-1 -558 553 0
-1 558 -553 0
-2 -558 553 0
-2 558 -553 0
-3 -553 558 0
-3 -550 558 0
-3 -558 553 550 0
-4 -558 553 0
-4 558 -553 0
-5 -558 553 0
-5 558 -553 0
-6 -553 558 0
-6 -551 558 0
-6 -558 553 551 0
-7 -558 553 0
-7 558 -553 0
-8 -553 558 0
-8 -552 558 0
-8 -558 553 552 0
-9 -558 553 0
-9 558 -553 0
-10 -558 553 0
-10 -558 554 0
-10 558 -553 -554 0
-91 -558 553 0
-91 558 -553 0
554 0
-1 -559 554 0
-1 559 -554 0
-2 -559 554 0
-2 559 -554 0
-3 -559 554 0
-3 559 -554 0
-4 -554 559 0
-4 -550 559 0
-4 -559 554 550 0
-5 -559 554 0
-5 559 -554 0
-6 -559 554 0
-6 559 -554 0
-7 -554 559 0
-7 -551 559 0
-7 -559 554 551 0
-8 -559 554 0
-8 559 -554 0
-9 -554 559 0
-9 -552 559 0
-9 -559 554 552 0
-10 -554 559 0
-10 -553 559 0
-10 -559 554 553 0
-91 -559 554 0
-91 559 -554 0
-11 -560 555 0
-11 -560 556 0
-11 560 -555 -556 0
-12 -560 555 0
-12 -560 557 0
-12 560 -555 -557 0
-13 -560 555 0
-13 -560 558 0
-13 560 -555 -558 0
-14 -560 555 0
-14 -560 559 0
-14 560 -555 -559 0
-15 -560 555 0
-15 560 -555 0
-16 -560 555 0
-16 560 -555 0
-17 -560 555 0
-17 560 -555 0
-18 -560 555 0
-18 560 -555 0
-19 -560 555 0
-19 560 -555 0
-20 -560 555 0
-20 560 -555 0
-92 -560 555 0
-92 560 -555 0
-11 -556 561 0
-11 -555 561 0
-11 -561 556 555 0
-12 -561 556 0
-12 561 -556 0
-13 -561 556 0
-13 561 -556 0
-14 -561 556 0
-14 561 -556 0
-15 -561 556 0
-15 -561 557 0
-15 561 -556 -557 0
-16 -561 556 0
-16 -561 558 0
-16 561 -556 -558 0
-17 -561 556 0
-17 -561 559 0
-17 561 -556 -559 0
-18 -561 556 0
-18 561 -556 0
-19 -561 556 0
-19 561 -556 0
-20 -561 556 0
-20 561 -556 0
-92 -561 556 0
-92 561 -556 0
-11 -562 557 0
-11 562 -557 0
-12 -557 562 0
-12 -555 562 0
-12 -562 557 555 0
-13 -562 557 0
-13 562 -557 0
-14 -562 557 0
-14 562 -557 0
-15 -557 562 0
-15 -556 562 0
-15 -562 557 556 0
-16 -562 557 0
-16 562 -557 0
-17 -562 557 0
-17 562 -557 0
-18 -562 557 0
-18 -562 558 0
-18 562 -557 -558 0
-19 -562 557 0
-19 -562 559 0
-19 562 -557 -559 0
-20 -562 557 0
-20 562 -557 0
-92 -562 557 0
-92 562 -557 0
-11 -563 558 0
-11 563 -558 0
-12 -563 558 0
-12 563 -558 0
-13 -558 563 0
-13 -555 563 0
-13 -563 558 555 0
-14 -563 558 0
-14 563 -558 0
-15 -563 558 0
-15 563 -558 0
-16 -558 563 0
-16 -556 563 0
-16 -563 558 556 0
-17 -563 558 0
-17 563 -558 0
-18 -558 563 0
-18 -557 563 0
-18 -563 558 557 0
-19 -563 558 0
-19 563 -558 0
-20 -563 558 0
-20 -563 559 0
-20 563 -558 -559 0
-92 -563 558 0
-92 563 -558 0
-11 -564 559 0
-11 564 -559 0
-12 -564 559 0
-12 564 -559 0
-13 -564 559 0
-13 564 -559 0
-14 -559 564 0
-14 -555 564 0
-14 -564 559 555 0
-15 -564 559 0
-15 564 -559 0
-16 -564 559 0
-16 564 -559 0
-17 -559 564 0
-17 -556 564 0
-17 -564 559 556 0
-18 -564 559 0
-18 564 -559 0
-19 -559 564 0
-19 -557 564 0
-19 -564 559 557 0
-20 -559 564 0
-20 -558 564 0
-20 -564 559 558 0
-92 -564 559 0
-92 564 -559 0
-21 -565 560 0
-21 -565 561 0
-21 565 -560 -561 0
-22 -565 560 0
-22 -565 562 0
-22 565 -560 -562 0
-23 -565 560 0
-23 -565 563 0
-23 565 -560 -563 0
-24 -565 560 0
-24 -565 564 0
-24 565 -560 -564 0
-25 -565 560 0
-25 565 -560 0
-26 -565 560 0
-26 565 -560 0
-27 -565 560 0
-27 565 -560 0
-28 -565 560 0
-28 565 -560 0
-29 -565 560 0
-29 565 -560 0
-30 -565 560 0
-30 565 -560 0
-93 -565 560 0
-93 565 -560 0
-21 -561 566 0
-21 -560 566 0
-21 -566 561 560 0
-22 -566 561 0
-22 566 -561 0
-23 -566 561 0
-23 566 -561 0
-24 -566 561 0
-24 566 -561 0
-25 -566 561 0
-25 -566 562 0
-25 566 -561 -562 0
-26 -566 561 0
-26 -566 563 0
-26 566 -561 -563 0
-27 -566 561 0
-27 -566 564 0
-27 566 -561 -564 0
-28 -566 561 0
-28 566 -561 0
-29 -566 561 0
-29 566 -561 0
-30 -566 561 0
-30 566 -561 0
-93 -566 561 0
-93 566 -561 0
-21 -567 562 0
-21 567 -562 0
-22 -562 567 0
-22 -560 567 0
-22 -567 562 560 0
-23 -567 562 0
-23 567 -562 0
-24 -567 562 0
-24 567 -562 0
-25 -562 567 0
-25 -561 567 0
-25 -567 562 561 0
-26 -567 562 0
-26 567 -562 0
-27 -567 562 0
-27 567 -562 0
-28 -567 562 0
-28 -567 563 0
-28 567 -562 -563 0
-29 -567 562 0
-29 -567 564 0
-29 567 -562 -564 0
-30 -567 562 0
-30 567 -562 0
-93 -567 562 0
-93 567 -562 0
-21 -568 563 0
-21 568 -563 0
-22 -568 563 0
-22 568 -563 0
-23 -563 568 0
-23 -560 568 0
-23 -568 563 560 0
-24 -568 563 0
-24 568 -563 0
-25 -568 563 0
-25 568 -563 0
-26 -563 568 0
-26 -561 568 0
-26 -568 563 561 0
-27 -568 563 0
-27 568 -563 0
-28 -563 568 0
-28 -562 568 0
-28 -568 563 562 0
-29 -568 563 0
-29 568 -563 0
-30 -568 563 0
-30 -568 564 0
-30 568 -563 -564 0
-93 -568 563 0
-93 568 -563 0
-21 -569 564 0
-21 569 -564 0
-22 -569 564 0
-22 569 -564 0
-23 -569 564 0
-23 569 -564 0
-24 -564 569 0
-24 -560 569 0
-24 -569 564 560 0
-25 -569 564 0
-25 569 -564 0
-26 -569 564 0
-26 569 -564 0
-27 -564 569 0
-27 -561 569 0
-27 -569 564 561 0
-28 -569 564 0
-28 569 -564 0
-29 -564 569 0
-29 -562 569 0
-29 -569 564 562 0
-30 -564 569 0
-30 -563 569 0
-30 -569 564 563 0
-93 -569 564 0
-93 569 -564 0
-31 -570 565 0
-31 -570 566 0
-31 570 -565 -566 0
-32 -570 565 0
-32 -570 567 0
-32 570 -565 -567 0
-33 -570 565 0
-33 -570 568 0
-33 570 -565 -568 0
-34 -570 565 0
-34 -570 569 0
-34 570 -565 -569 0
-35 -570 565 0
-35 570 -565 0
-36 -570 565 0
-36 570 -565 0
-37 -570 565 0
-37 570 -565 0
-38 -570 565 0
-38 570 -565 0
-39 -570 565 0
-39 570 -565 0
-40 -570 565 0
-40 570 -565 0
-94 -570 565 0
-94 570 -565 0
-31 -566 571 0
-31 -565 571 0
-31 -571 566 565 0
-32 -571 566 0
-32 571 -566 0
-33 -571 566 0
-33 571 -566 0
-34 -571 566 0
-34 571 -566 0
-35 -571 566 0
-35 -571 567 0
-35 571 -566 -567 0
-36 -571 566 0
-36 -571 568 0
-36 571 -566 -568 0
-37 -571 566 0
-37 -571 569 0
-37 571 -566 -569 0
-38 -571 566 0
-38 571 -566 0
-39 -571 566 0
-39 571 -566 0
-40 -571 566 0
-40 571 -566 0
-94 -571 566 0
-94 571 -566 0
-31 -572 567 0
-31 572 -567 0
-32 -567 572 0
-32 -565 572 0
-32 -572 567 565 0
-33 -572 567 0
-33 572 -567 0
-34 -572 567 0
-34 572 -567 0
-35 -567 572 0
-35 -566 572 0
-35 -572 567 566 0
-36 -572 567 0
-36 572 -567 0
-37 -572 567 0
-37 572 -567 0
-38 -572 567 0
-38 -572 568 0
-38 572 -567 -568 0
-39 -572 567 0
-39 -572 569 0
-39 572 -567 -569 0
-40 -572 567 0
-40 572 -567 0
-94 -572 567 0
-94 572 -567 0
-31 -573 568 0
-31 573 -568 0
-32 -573 568 0
-32 573 -568 0
-33 -568 573 0
-33 -565 573 0
-33 -573 568 565 0
-34 -573 568 0
-34 573 -568 0
-35 -573 568 0
-35 573 -568 0
-36 -568 573 0
-36 -566 573 0
-36 -573 568 566 0
-37 -573 568 0
-37 573 -568 0
-38 -568 573 0
-38 -567 573 0
-38 -573 568 567 0
-39 -573 568 0
-39 573 -568 0
-40 -573 568 0
-40 -573 569 0
-40 573 -568 -569 0
-94 -573 568 0
-94 573 -568 0
-31 -574 569 0
-31 574 -569 0
-32 -574 569 0
-32 574 -569 0
-33 -574 569 0
-33 574 -569 0
-34 -569 574 0
-34 -565 574 0
-34 -574 569 565 0
-35 -574 569 0
-35 574 -569 0
-36 -574 569 0
-36 574 -569 0
-37 -569 574 0
-37 -566 574 0
-37 -574 569 566 0
-38 -574 569 0
-38 574 -569 0
-39 -569 574 0
-39 -567 574 0
-39 -574 569 567 0
-40 -569 574 0
-40 -568 574 0
-40 -574 569 568 0
-94 -574 569 0
-94 574 -569 0
-41 -575 570 0
-41 -575 571 0
-41 575 -570 -571 0
-42 -575 570 0
-42 -575 572 0
-42 575 -570 -572 0
-43 -575 570 0
-43 -575 573 0
-43 575 -570 -573 0
-44 -575 570 0
-44 -575 574 0
-44 575 -570 -574 0
-45 -575 570 0
-45 575 -570 0
-46 -575 570 0
-46 575 -570 0
-47 -575 570 0
-47 575 -570 0
-48 -575 570 0
-48 575 -570 0
-49 -575 570 0
-49 575 -570 0
-50 -575 570 0
-50 575 -570 0
-95 -575 570 0
-95 575 -570 0
-41 -571 576 0
-41 -570 576 0
-41 -576 571 570 0
-42 -576 571 0
-42 576 -571 0
-43 -576 571 0
-43 576 -571 0
-44 -576 571 0
-44 576 -571 0
-45 -576 571 0
-45 -576 572 0
-45 576 -571 -572 0
-46 -576 571 0
-46 -576 573 0
-46 576 -571 -573 0
-47 -576 571 0
-47 -576 574 0
-47 576 -571 -574 0
-48 -576 571 0
-48 576 -571 0
-49 -576 571 0
-49 576 -571 0
-50 -576 571 0
-50 576 -571 0
-95 -576 571 0
-95 576 -571 0
-41 -577 572 0
-41 577 -572 0
-42 -572 577 0
-42 -570 577 0
-42 -577 572 570 0
-43 -577 572 0
-43 577 -572 0
-44 -577 572 0
-44 577 -572 0
-45 -572 577 0
-45 -571 577 0
-45 -577 572 571 0
-46 -577 572 0
-46 577 -572 0
-47 -577 572 0
-47 577 -572 0
-48 -577 572 0
-48 -577 573 0
-48 577 -572 -573 0
-49 -577 572 0
-49 -577 574 0
-49 577 -572 -574 0
-50 -577 572 0
-50 577 -572 0
-95 -577 572 0
-95 577 -572 0
-41 -578 573 0
-41 578 -573 0
-42 -578 573 0
-42 578 -573 0
-43 -573 578 0
-43 -570 578 0
-43 -578 573 570 0
-44 -578 573 0
-44 578 -573 0
-45 -578 573 0
-45 578 -573 0
-46 -573 578 0
-46 -571 578 0
-46 -578 573 571 0
-47 -578 573 0
-47 578 -573 0
-48 -573 578 0
-48 -572 578 0
-48 -578 573 572 0
-49 -578 573 0
-49 578 -573 0
-50 -578 573 0
-50 -578 574 0
-50 578 -573 -574 0
-95 -578 573 0
-95 578 -573 0
-41 -579 574 0
-41 579 -574 0
-42 -579 574 0
-42 579 -574 0
-43 -579 574 0
-43 579 -574 0
-44 -574 579 0
-44 -570 579 0
-44 -579 574 570 0
-45 -579 574 0
-45 579 -574 0
-46 -579 574 0
-46 579 -574 0
-47 -574 579 0
-47 -571 579 0
-47 -579 574 571 0
-48 -579 574 0
-48 579 -574 0
-49 -574 579 0
-49 -572 579 0
-49 -579 574 572 0
-50 -574 579 0
-50 -573 579 0
-50 -579 574 573 0
-95 -579 574 0
-95 579 -574 0
-51 -580 575 0
-51 -580 576 0
-51 580 -575 -576 0
-52 -580 575 0
-52 -580 577 0
-52 580 -575 -577 0
-53 -580 575 0
-53 -580 578 0
-53 580 -575 -578 0
-54 -580 575 0
-54 -580 579 0
-54 580 -575 -579 0
-55 -580 575 0
-55 580 -575 0
-56 -580 575 0
-56 580 -575 0
-57 -580 575 0
-57 580 -575 0
-58 -580 575 0
-58 580 -575 0
-59 -580 575 0
-59 580 -575 0
-60 -580 575 0
-60 580 -575 0
-96 -580 575 0
-96 580 -575 0
-51 -576 581 0
-51 -575 581 0
-51 -581 576 575 0
-52 -581 576 0
-52 581 -576 0
-53 -581 576 0
-53 581 -576 0
-54 -581 576 0
-54 581 -576 0
-55 -581 576 0
-55 -581 577 0
-55 581 -576 -577 0
-56 -581 576 0
-56 -581 578 0
-56 581 -576 -578 0
-57 -581 576 0
-57 -581 579 0
-57 581 -576 -579 0
-58 -581 576 0
-58 581 -576 0
-59 -581 576 0
-59 581 -576 0
-60 -581 576 0
-60 581 -576 0
-96 -581 576 0
-96 581 -576 0
-51 -582 577 0
-51 582 -577 0
-52 -577 582 0
-52 -575 582 0
-52 -582 577 575 0
-53 -582 577 0
-53 582 -577 0
-54 -582 577 0
-54 582 -577 0
-55 -577 582 0
-55 -576 582 0
-55 -582 577 576 0
-56 -582 577 0
-56 582 -577 0
-57 -582 577 0
-57 582 -577 0
-58 -582 577 0
-58 -582 578 0
-58 582 -577 -578 0
-59 -582 577 0
-59 -582 579 0
-59 582 -577 -579 0
-60 -582 577 0
-60 582 -577 0
-96 -582 577 0
-96 582 -577 0
-51 -583 578 0
-51 583 -578 0
-52 -583 578 0
-52 583 -578 0
-53 -578 583 0
-53 -575 583 0
-53 -583 578 575 0
-54 -583 578 0
-54 583 -578 0
-55 -583 578 0
-55 583 -578 0
-56 -578 583 0
-56 -576 583 0
-56 -583 578 576 0
-57 -583 578 0
-57 583 -578 0
-58 -578 583 0
-58 -577 583 0
-58 -583 578 577 0
-59 -583 578 0
-59 583 -578 0
-60 -583 578 0
-60 -583 579 0
-60 583 -578 -579 0
-96 -583 578 0
-96 583 -578 0
-51 -584 579 0
-51 584 -579 0
-52 -584 579 0
-52 584 -579 0
-53 -584 579 0
-53 584 -579 0
-54 -579 584 0
-54 -575 584 0
-54 -584 579 575 0
-55 -584 579 0
-55 584 -579 0
-56 -584 579 0
-56 584 -579 0
-57 -579 584 0
-57 -576 584 0
-57 -584 579 576 0
-58 -584 579 0
-58 584 -579 0
-59 -579 584 0
-59 -577 584 0
-59 -584 579 577 0
-60 -579 584 0
-60 -578 584 0
-60 -584 579 578 0
-96 -584 579 0
-96 584 -579 0
-61 -585 580 0
-61 -585 581 0
-61 585 -580 -581 0
-62 -585 580 0
-62 -585 582 0
-62 585 -580 -582 0
-63 -585 580 0
-63 -585 583 0
-63 585 -580 -583 0
-64 -585 580 0
-64 -585 584 0
-64 585 -580 -584 0
-65 -585 580 0
-65 585 -580 0
-66 -585 580 0
-66 585 -580 0
-67 -585 580 0
-67 585 -580 0
-68 -585 580 0
-68 585 -580 0
-69 -585 580 0
-69 585 -580 0
-70 -585 580 0
-70 585 -580 0
-97 -585 580 0
-97 585 -580 0
-61 -581 586 0
-61 -580 586 0
-61 -586 581 580 0
-62 -586 581 0
-62 586 -581 0
-63 -586 581 0
-63 586 -581 0
-64 -586 581 0
-64 586 -581 0
-65 -586 581 0
-65 -586 582 0
-65 586 -581 -582 0
-66 -586 581 0
-66 -586 583 0
-66 586 -581 -583 0
-67 -586 581 0
-67 -586 584 0
-67 586 -581 -584 0
-68 -586 581 0
-68 586 -581 0
-69 -586 581 0
-69 586 -581 0
-70 -586 581 0
-70 586 -581 0
-97 -586 581 0
-97 586 -581 0
-61 -587 582 0
-61 587 -582 0
-62 -582 587 0
-62 -580 587 0
-62 -587 582 580 0
-63 -587 582 0
-63 587 -582 0
-64 -587 582 0
-64 587 -582 0
-65 -582 587 0
-65 -581 587 0
-65 -587 582 581 0
-66 -587 582 0
-66 587 -582 0
-67 -587 582 0
-67 587 -582 0
-68 -587 582 0
-68 -587 583 0
-68 587 -582 -583 0
-69 -587 582 0
-69 -587 584 0
-69 587 -582 -584 0
-70 -587 582 0
-70 587 -582 0
-97 -587 582 0
-97 587 -582 0
-61 -588 583 0
-61 588 -583 0
-62 -588 583 0
-62 588 -583 0
-63 -583 588 0
-63 -580 588 0
-63 -588 583 580 0
-64 -588 583 0
-64 588 -583 0
-65 -588 583 0
-65 588 -583 0
-66 -583 588 0
-66 -581 588 0
-66 -588 583 581 0
-67 -588 583 0
-67 588 -583 0
-68 -583 588 0
-68 -582 588 0
-68 -588 583 582 0
-69 -588 583 0
-69 588 -583 0
-70 -588 583 0
-70 -588 584 0
-70 588 -583 -584 0
-97 -588 583 0
-97 588 -583 0
-61 -589 584 0
-61 589 -584 0
-62 -589 584 0
-62 589 -584 0
-63 -589 584 0
-63 589 -584 0
-64 -584 589 0
-64 -580 589 0
-64 -589 584 580 0
-65 -589 584 0
-65 589 -584 0
-66 -589 584 0
-66 589 -584 0
-67 -584 589 0
-67 -581 589 0
-67 -589 584 581 0
-68 -589 584 0
-68 589 -584 0
-69 -584 589 0
-69 -582 589 0
-69 -589 584 582 0
-70 -584 589 0
-70 -583 589 0
-70 -589 584 583 0
-97 -589 584 0
-97 589 -584 0
-71 -590 585 0
-71 -590 586 0
-71 590 -585 -586 0
-72 -590 585 0
-72 -590 587 0
-72 590 -585 -587 0
-73 -590 585 0
-73 -590 588 0
-73 590 -585 -588 0
-74 -590 585 0
-74 -590 589 0
-74 590 -585 -589 0
-75 -590 585 0
-75 590 -585 0
-76 -590 585 0
-76 590 -585 0
-77 -590 585 0
-77 590 -585 0
-78 -590 585 0
-78 590 -585 0
-79 -590 585 0
-79 590 -585 0
-80 -590 585 0
-80 590 -585 0
-98 -590 585 0
-98 590 -585 0
-71 -586 591 0
-71 -585 591 0
-71 -591 586 585 0
-72 -591 586 0
-72 591 -586 0
-73 -591 586 0
-73 591 -586 0
-74 -591 586 0
-74 591 -586 0
-75 -591 586 0
-75 -591 587 0
-75 591 -586 -587 0
-76 -591 586 0
-76 -591 588 0
-76 591 -586 -588 0
-77 -591 586 0
-77 -591 589 0
-77 591 -586 -589 0
-78 -591 586 0
-78 591 -586 0
-79 -591 586 0
-79 591 -586 0
-80 -591 586 0
-80 591 -586 0
-98 -591 586 0
-98 591 -586 0
-71 -592 587 0
-71 592 -587 0
-72 -587 592 0
-72 -585 592 0
-72 -592 587 585 0
-73 -592 587 0
-73 592 -587 0
-74 -592 587 0
-74 592 -587 0
-75 -587 592 0
-75 -586 592 0
-75 -592 587 586 0
-76 -592 587 0
-76 592 -587 0
-77 -592 587 0
-77 592 -587 0
-78 -592 587 0
-78 -592 588 0
-78 592 -587 -588 0
-79 -592 587 0
-79 -592 589 0
-79 592 -587 -589 0
-80 -592 587 0
-80 592 -587 0
-98 -592 587 0
-98 592 -587 0
-71 -593 588 0
-71 593 -588 0
-72 -593 588 0
-72 593 -588 0
-73 -588 593 0
-73 -585 593 0
-73 -593 588 585 0
-74 -593 588 0
-74 593 -588 0
-75 -593 588 0
-75 593 -588 0
-76 -588 593 0
-76 -586 593 0
-76 -593 588 586 0
-77 -593 588 0
-77 593 -588 0
-78 -588 593 0
-78 -587 593 0
-78 -593 588 587 0
-79 -593 588 0
-79 593 -588 0
-80 -593 588 0
-80 -593 589 0
-80 593 -588 -589 0
-98 -593 588 0
-98 593 -588 0
-71 -594 589 0
-71 594 -589 0
-72 -594 589 0
-72 594 -589 0
-73 -594 589 0
-73 594 -589 0
-74 -589 594 0
-74 -585 594 0
-74 -594 589 585 0
-75 -594 589 0
-75 594 -589 0
-76 -594 589 0
-76 594 -589 0
-77 -589 594 0
-77 -586 594 0
-77 -594 589 586 0
-78 -594 589 0
-78 594 -589 0
-79 -589 594 0
-79 -587 594 0
-79 -594 589 587 0
-80 -589 594 0
-80 -588 594 0
-80 -594 589 588 0
-98 -594 589 0
-98 594 -589 0
-81 -595 590 0
-81 -595 591 0
-81 595 -590 -591 0
-82 -595 590 0
-82 -595 592 0
-82 595 -590 -592 0
-83 -595 590 0
-83 -595 593 0
-83 595 -590 -593 0
-84 -595 590 0
-84 -595 594 0
-84 595 -590 -594 0
-85 -595 590 0
-85 595 -590 0
-86 -595 590 0
-86 595 -590 0
-87 -595 590 0
-87 595 -590 0
-88 -595 590 0
-88 595 -590 0
-89 -595 590 0
-89 595 -590 0
-90 -595 590 0
-90 595 -590 0
-99 -595 590 0
-99 595 -590 0
-81 -591 596 0
-81 -590 596 0
-81 -596 591 590 0
-82 -596 591 0
-82 596 -591 0
-83 -596 591 0
-83 596 -591 0
-84 -596 591 0
-84 596 -591 0
-85 -596 591 0
-85 -596 592 0
-85 596 -591 -592 0
-86 -596 591 0
-86 -596 593 0
-86 596 -591 -593 0
-87 -596 591 0
-87 -596 594 0
-87 596 -591 -594 0
-88 -596 591 0
-88 596 -591 0
-89 -596 591 0
-89 596 -591 0
-90 -596 591 0
-90 596 -591 0
-99 -596 591 0
-99 596 -591 0
-81 -597 592 0
-81 597 -592 0
-82 -592 597 0
-82 -590 597 0
-82 -597 592 590 0
-83 -597 592 0
-83 597 -592 0
-84 -597 592 0
-84 597 -592 0
-85 -592 597 0
-85 -591 597 0
-85 -597 592 591 0
-86 -597 592 0
-86 597 -592 0
-87 -597 592 0
-87 597 -592 0
-88 -597 592 0
-88 -597 593 0
-88 597 -592 -593 0
-89 -597 592 0
-89 -597 594 0
-89 597 -592 -594 0
-90 -597 592 0
-90 597 -592 0
-99 -597 592 0
-99 597 -592 0
-81 -598 593 0
-81 598 -593 0
-82 -598 593 0
-82 598 -593 0
-83 -593 598 0
-83 -590 598 0
-83 -598 593 590 0
-84 -598 593 0
-84 598 -593 0
-85 -598 593 0
-85 598 -593 0
-86 -593 598 0
-86 -591 598 0
-86 -598 593 591 0
-87 -598 593 0
-87 598 -593 0
-88 -593 598 0
-88 -592 598 0
-88 -598 593 592 0
-89 -598 593 0
-89 598 -593 0
-90 -598 593 0
-90 -598 594 0
-90 598 -593 -594 0
-99 -598 593 0
-99 598 -593 0
-81 -599 594 0
-81 599 -594 0
-82 -599 594 0
-82 599 -594 0
-83 -599 594 0
-83 599 -594 0
-84 -594 599 0
-84 -590 599 0
-84 -599 594 590 0
-85 -599 594 0
-85 599 -594 0
-86 -599 594 0
-86 599 -594 0
-87 -594 599 0
-87 -591 599 0
-87 -599 594 591 0
-88 -599 594 0
-88 599 -594 0
-89 -594 599 0
-89 -592 599 0
-89 -599 594 592 0
-90 -594 599 0
-90 -593 599 0
-90 -599 594 593 0
-99 -599 594 0
-99 599 -594 0
-600 0
-1 -605 600 0
-1 -605 601 0
-1 605 -600 -601 0
-2 -605 600 0
-2 -605 602 0
-2 605 -600 -602 0
-3 -605 600 0
-3 -605 603 0
-3 605 -600 -603 0
-4 -605 600 0
-4 -605 604 0
-4 605 -600 -604 0
-5 -605 600 0
-5 605 -600 0
-6 -605 600 0
-6 605 -600 0
-7 -605 600 0
-7 605 -600 0
-8 -605 600 0
-8 605 -600 0
-9 -605 600 0
-9 605 -600 0
-10 -605 600 0
-10 605 -600 0
-91 -605 600 0
-91 605 -600 0
601 0
-1 -601 606 0
-1 -600 606 0
-1 -606 601 600 0
-2 -606 601 0
-2 606 -601 0
-3 -606 601 0
-3 606 -601 0
-4 -606 601 0
-4 606 -601 0
-5 -606 601 0
-5 -606 602 0
-5 606 -601 -602 0
-6 -606 601 0
-6 -606 603 0
-6 606 -601 -603 0
-7 -606 601 0
-7 -606 604 0
-7 606 -601 -604 0
-8 -606 601 0
-8 606 -601 0
-9 -606 601 0
-9 606 -601 0
-10 -606 601 0
-10 606 -601 0
-91 -606 601 0
-91 606 -601 0
602 0
-1 -607 602 0
-1 607 -602 0
-2 -602 607 0
-2 -600 607 0
-2 -607 602 600 0
-3 -607 602 0
-3 607 -602 0
-4 -607 602 0
-4 607 -602 0
-5 -602 607 0
-5 -601 607 0
-5 -607 602 601 0
-6 -607 602 0
-6 607 -602 0
-7 -607 602 0
-7 607 -602 0
-8 -607 602 0
-8 -607 603 0
-8 607 -602 -603 0
-9 -607 602 0
-9 -607 604 0
-9 607 -602 -604 0
-10 -607 602 0
-10 607 -602 0
-91 -607 602 0
-91 607 -602 0
603 0
-1 -608 603 0
-1 608 -603 0
-2 -608 603 0
-2 608 -603 0
-3 -603 608 0
-3 -600 608 0
-3 -608 603 600 0
-4 -608 603 0
-4 608 -603 0
-5 -608 603 0
-5 608 -603 0
-6 -603 608 0
-6 -601 608 0
-6 -608 603 601 0
-7 -608 603 0
-7 608 -603 0
-8 -603 608 0
-8 -602 608 0
-8 -608 603 602 0
-9 -608 603 0
-9 608 -603 0
-10 -608 603 0
-10 -608 604 0
-10 608 -603 -604 0
-91 -608 603 0
-91 608 -603 0
-604 0
-1 -609 604 0
-1 609 -604 0
-2 -609 604 0
-2 609 -604 0
-3 -609 604 0
-3 609 -604 0
-4 -604 609 0
-4 -600 609 0
-4 -609 604 600 0
-5 -609 604 0
-5 609 -604 0
-6 -609 604 0
-6 609 -604 0
-7 -604 609 0
-7 -601 609 0
-7 -609 604 601 0
-8 -609 604 0
-8 609 -604 0
-9 -604 609 0
-9 -602 609 0
-9 -609 604 602 0
-10 -604 609 0
-10 -603 609 0
-10 -609 604 603 0
-91 -609 604 0
-91 609 -604 0
-11 -610 605 0
-11 -610 606 0
-11 610 -605 -606 0
-12 -610 605 0
-12 -610 607 0
-12 610 -605 -607 0
-13 -610 605 0
-13 -610 608 0
-13 610 -605 -608 0
-14 -610 605 0
-14 -610 609 0
-14 610 -605 -609 0
-15 -610 605 0
-15 610 -605 0
-16 -610 605 0
-16 610 -605 0
-17 -610 605 0
-17 610 -605 0
-18 -610 605 0
-18 610 -605 0
-19 -610 605 0
-19 610 -605 0
-20 -610 605 0
-20 610 -605 0
-92 -610 605 0
-92 610 -605 0
-11 -606 611 0
-11 -605 611 0
-11 -611 606 605 0
-12 -611 606 0
-12 611 -606 0
-13 -611 606 0
-13 611 -606 0
-14 -611 606 0
-14 611 -606 0
-15 -611 606 0
-15 -611 607 0
-15 611 -606 -607 0
-16 -611 606 0
-16 -611 608 0
-16 611 -606 -608 0
-17 -611 606 0
-17 -611 609 0
-17 611 -606 -609 0
-18 -611 606 0
-18 611 -606 0
-19 -611 606 0
-19 611 -606 0
-20 -611 606 0
-20 611 -606 0
-92 -611 606 0
-92 611 -606 0
-11 -612 607 0
-11 612 -607 0
-12 -607 612 0
-12 -605 612 0
-12 -612 607 605 0
-13 -612 607 0
-13 612 -607 0
-14 -612 607 0
-14 612 -607 0
-15 -607 612 0
-15 -606 612 0
-15 -612 607 606 0
-16 -612 607 0
-16 612 -607 0
-17 -612 607 0
-17 612 -607 0
-18 -612 607 0
-18 -612 608 0
-18 612 -607 -608 0
-19 -612 607 0
-19 -612 609 0
-19 612 -607 -609 0
-20 -612 607 0
-20 612 -607 0
-92 -612 607 0
-92 612 -607 0
-11 -613 608 0
-11 613 -608 0
-12 -613 608 0
-12 613 -608 0
-13 -608 613 0
-13 -605 613 0
-13 -613 608 605 0
-14 -613 608 0
-14 613 -608 0
-15 -613 608 0
-15 613 -608 0
-16 -608 613 0
-16 -606 613 0
-16 -613 608 606 0
-17 -613 608 0
-17 613 -608 0
-18 -608 613 0
-18 -607 613 0
-18 -613 608 607 0
-19 -613 608 0
-19 613 -608 0
-20 -613 608 0
-20 -613 609 0
-20 613 -608 -609 0
-92 -613 608 0
-92 613 -608 0
-11 -614 609 0
-11 614 -609 0
-12 -614 609 0
-12 614 -609 0
-13 -614 609 0
-13 614 -609 0
-14 -609 614 0
-14 -605 614 0
-14 -614 609 605 0
-15 -614 609 0
-15 614 -609 0
-16 -614 609 0
-16 614 -609 0
-17 -609 614 0
-17 -606 614 0
-17 -614 609 606 0
-18 -614 609 0
-18 614 -609 0
-19 -609 614 0
-19 -607 614 0
-19 -614 609 607 0
-20 -609 614 0
-20 -608 614 0
-20 -614 609 608 0
-92 -614 609 0
-92 614 -609 0
-21 -615 610 0
-21 -615 611 0
-21 615 -610 -611 0
-22 -615 610 0
-22 -615 612 0
-22 615 -610 -612 0
-23 -615 610 0
-23 -615 613 0
-23 615 -610 -613 0
-24 -615 610 0
-24 -615 614 0
-24 615 -610 -614 0
-25 -615 610 0
-25 615 -610 0
-26 -615 610 0
-26 615 -610 0
-27 -615 610 0
-27 615 -610 0
-28 -615 610 0
-28 615 -610 0
-29 -615 610 0
-29 615 -610 0
-30 -615 610 0
-30 615 -610 0
-93 -615 610 0
-93 615 -610 0
-21 -611 616 0
-21 -610 616 0
-21 -616 611 610 0
-22 -616 611 0
-22 616 -611 0
-23 -616 611 0
-23 616 -611 0
-24 -616 611 0
-24 616 -611 0
-25 -616 611 0
-25 -616 612 0
-25 616 -611 -612 0
-26 -616 611 0
-26 -616 613 0
-26 616 -611 -613 0
-27 -616 611 0
-27 -616 614 0
-27 616 -611 -614 0
-28 -616 611 0
-28 616 -611 0
-29 -616 611 0
-29 616 -611 0
-30 -616 611 0
-30 616 -611 0
-93 -616 611 0
-93 616 -611 0
-21 -617 612 0
-21 617 -612 0
-22 -612 617 0
-22 -610 617 0
-22 -617 612 610 0
-23 -617 612 0
-23 617 -612 0
-24 -617 612 0
-24 617 -612 0
-25 -612 617 0
-25 -611 617 0
-25 -617 612 611 0
-26 -617 612 0
-26 617 -612 0
-27 -617 612 0
-27 617 -612 0
-28 -617 612 0
-28 -617 613 0
-28 617 -612 -613 0
-29 -617 612 0
-29 -617 614 0
-29 617 -612 -614 0
-30 -617 612 0
-30 617 -612 0
-93 -617 612 0
-93 617 -612 0
-21 -618 613 0
-21 618 -613 0
-22 -618 613 0
-22 618 -613 0
-23 -613 618 0
-23 -610 618 0
-23 -618 613 610 0
-24 -618 613 0
-24 618 -613 0
-25 -618 613 0
-25 618 -613 0
-26 -613 618 0
-26 -611 618 0
-26 -618 613 611 0
-27 -618 613 0
-27 618 -613 0
-28 -613 618 0
-28 -612 618 0
-28 -618 613 612 0
-29 -618 613 0
-29 618 -613 0
-30 -618 613 0
-30 -618 614 0
-30 618 -613 -614 0
-93 -618 613 0
-93 618 -613 0
-21 -619 614 0
-21 619 -614 0
-22 -619 614 0
-22 619 -614 0
-23 -619 614 0
-23 619 -614 0
-24 -614 619 0
-24 -610 619 0
-24 -619 614 610 0
-25 -619 614 0
-25 619 -614 0
-26 -619 614 0
-26 619 -614 0
-27 -614 619 0
-27 -611 619 0
-27 -619 614 611 0
-28 -619 614 0
-28 619 -614 0
-29 -614 619 0
-29 -612 619 0
-29 -619 614 612 0
-30 -614 619 0
-30 -613 619 0
-30 -619 614 613 0
-93 -619 614 0
-93 619 -614 0
-31 -620 615 0
-31 -620 616 0
-31 620 -615 -616 0
-32 -620 615 0
-32 -620 617 0
-32 620 -615 -617 0
-33 -620 615 0
-33 -620 618 0
-33 620 -615 -618 0
-34 -620 615 0
-34 -620 619 0
-34 620 -615 -619 0
-35 -620 615 0
-35 620 -615 0
-36 -620 615 0
-36 620 -615 0
-37 -620 615 0
-37 620 -615 0
-38 -620 615 0
-38 620 -615 0
-39 -620 615 0
-39 620 -615 0
-40 -620 615 0
-40 620 -615 0
-94 -620 615 0
-94 620 -615 0
-31 -616 621 0
-31 -615 621 0
-31 -621 616 615 0
-32 -621 616 0
-32 621 -616 0
-33 -621 616 0
-33 621 -616 0
-34 -621 616 0
-34 621 -616 0
-35 -621 616 0
-35 -621 617 0
-35 621 -616 -617 0
-36 -621 616 0
-36 -621 618 0
-36 621 -616 -618 0
-37 -621 616 0
-37 -621 619 0
-37 621 -616 -619 0
-38 -621 616 0
-38 621 -616 0
-39 -621 616 0
-39 621 -616 0
-40 -621 616 0
-40 621 -616 0
-94 -621 616 0
-94 621 -616 0
-31 -622 617 0
-31 622 -617 0
-32 -617 622 0
-32 -615 622 0
-32 -622 617 615 0
-33 -622 617 0
-33 622 -617 0
-34 -622 617 0
-34 622 -617 0
-35 -617 622 0
-35 -616 622 0
-35 -622 617 616 0
-36 -622 617 0
-36 622 -617 0
-37 -622 617 0
-37 622 -617 0
-38 -622 617 0
-38 -622 618 0
-38 622 -617 -618 0
-39 -622 617 0
-39 -622 619 0
-39 622 -617 -619 0
-40 -622 617 0
-40 622 -617 0
-94 -622 617 0
-94 622 -617 0
-31 -623 618 0
-31 623 -618 0
-32 -623 618 0
-32 623 -618 0
-33 -618 623 0
-33 -615 623 0
-33 -623 618 615 0
-34 -623 618 0
-34 623 -618 0
-35 -623 618 0
-35 623 -618 0
-36 -618 623 0
-36 -616 623 0
-36 -623 618 616 0
-37 -623 618 0
-37 623 -618 0
-38 -618 623 0
-38 -617 623 0
-38 -623 618 617 0
-39 -623 618 0
-39 623 -618 0
-40 -623 618 0
-40 -623 619 0
-40 623 -618 -619 0
-94 -623 618 0
-94 623 -618 0
-31 -624 619 0
-31 624 -619 0
-32 -624 619 0
-32 624 -619 0
-33 -624 619 0
-33 624 -619 0
-34 -619 624 0
-34 -615 624 0
-34 -624 619 615 0
-35 -624 619 0
-35 624 -619 0
-36 -624 619 0
-36 624 -619 0
-37 -619 624 0
-37 -616 624 0
-37 -624 619 616 0
-38 -624 619 0
-38 624 -619 0
-39 -619 624 0
-39 -617 624 0
-39 -624 619 617 0
-40 -619 624 0
-40 -618 624 0
-40 -624 619 618 0
-94 -624 619 0
-94 624 -619 0
-41 -625 620 0
-41 -625 621 0
-41 625 -620 -621 0
-42 -625 620 0
-42 -625 622 0
-42 625 -620 -622 0
-43 -625 620 0
-43 -625 623 0
-43 625 -620 -623 0
-44 -625 620 0
-44 -625 624 0
-44 625 -620 -624 0
-45 -625 620 0
-45 625 -620 0
-46 -625 620 0
-46 625 -620 0
-47 -625 620 0
-47 625 -620 0
-48 -625 620 0
-48 625 -620 0
-49 -625 620 0
-49 625 -620 0
-50 -625 620 0
-50 625 -620 0
-95 -625 620 0
-95 625 -620 0
-41 -621 626 0
-41 -620 626 0
-41 -626 621 620 0
-42 -626 621 0
-42 626 -621 0
-43 -626 621 0
-43 626 -621 0
-44 -626 621 0
-44 626 -621 0
-45 -626 621 0
-45 -626 622 0
-45 626 -621 -622 0
-46 -626 621 0
-46 -626 623 0
-46 626 -621 -623 0
-47 -626 621 0
-47 -626 624 0
-47 626 -621 -624 0
-48 -626 621 0
-48 626 -621 0
-49 -626 621 0
-49 626 -621 0
-50 -626 621 0
-50 626 -621 0
-95 -626 621 0
-95 626 -621 0
-41 -627 622 0
-41 627 -622 0
-42 -622 627 0
-42 -620 627 0
-42 -627 622 620 0
-43 -627 622 0
-43 627 -622 0
-44 -627 622 0
-44 627 -622 0
-45 -622 627 0
-45 -621 627 0
-45 -627 622 621 0
-46 -627 622 0
-46 627 -622 0
-47 -627 622 0
-47 627 -622 0
-48 -627 622 0
-48 -627 623 0
-48 627 -622 -623 0
-49 -627 622 0
-49 -627 624 0
-49 627 -622 -624 0
-50 -627 622 0
-50 627 -622 0
-95 -627 622 0
-95 627 -622 0
-41 -628 623 0
-41 628 -623 0
-42 -628 623 0
-42 628 -623 0
-43 -623 628 0
-43 -620 628 0
-43 -628 623 620 0
-44 -628 623 0
-44 628 -623 0
-45 -628 623 0
-45 628 -623 0
-46 -623 628 0
-46 -621 628 0
-46 -628 623 621 0
-47 -628 623 0
-47 628 -623 0
-48 -623 628 0
-48 -622 628 0
-48 -628 623 622 0
-49 -628 623 0
-49 628 -623 0
-50 -628 623 0
-50 -628 624 0
-50 628 -623 -624 0
-95 -628 623 0
-95 628 -623 0
-41 -629 624 0
-41 629 -624 0
-42 -629 624 0
-42 629 -624 0
-43 -629 624 0
-43 629 -624 0
-44 -624 629 0
-44 -620 629 0
-44 -629 624 620 0
-45 -629 624 0
-45 629 -624 0
-46 -629 624 0
-46 629 -624 0
-47 -624 629 0
-47 -621 629 0
-47 -629 624 621 0
-48 -629 624 0
-48 629 -624 0
-49 -624 629 0
-49 -622 629 0
-49 -629 624 622 0
-50 -624 629 0
-50 -623 629 0
-50 -629 624 623 0
-95 -629 624 0
-95 629 -624 0
-51 -630 625 0
-51 -630 626 0
-51 630 -625 -626 0
-52 -630 625 0
-52 -630 627 0
-52 630 -625 -627 0
-53 -630 625 0
-53 -630 628 0
-53 630 -625 -628 0
-54 -630 625 0
-54 -630 629 0
-54 630 -625 -629 0
-55 -630 625 0
-55 630 -625 0
-56 -630 625 0
-56 630 -625 0
-57 -630 625 0
-57 630 -625 0
-58 -630 625 0
-58 630 -625 0
-59 -630 625 0
-59 630 -625 0
-60 -630 625 0
-60 630 -625 0
-96 -630 625 0
-96 630 -625 0
-51 -626 631 0
-51 -625 631 0
-51 -631 626 625 0
-52 -631 626 0
-52 631 -626 0
-53 -631 626 0
-53 631 -626 0
-54 -631 626 0
-54 631 -626 0
-55 -631 626 0
-55 -631 627 0
-55 631 -626 -627 0
-56 -631 626 0
-56 -631 628 0
-56 631 -626 -628 0
-57 -631 626 0
-57 -631 629 0
-57 631 -626 -629 0
-58 -631 626 0
-58 631 -626 0
-59 -631 626 0
-59 631 -626 0
-60 -631 626 0
-60 631 -626 0
-96 -631 626 0
-96 631 -626 0
-51 -632 627 0
-51 632 -627 0
-52 -627 632 0
-52 -625 632 0
-52 -632 627 625 0
-53 -632 627 0
-53 632 -627 0
-54 -632 627 0
-54 632 -627 0
-55 -627 632 0
-55 -626 632 0
-55 -632 627 626 0
-56 -632 627 0
-56 632 -627 0
-57 -632 627 0
-57 632 -627 0
-58 -632 627 0
-58 -632 628 0
-58 632 -627 -628 0
-59 -632 627 0
-59 -632 629 0
-59 632 -627 -629 0
-60 -632 627 0
-60 632 -627 0
-96 -632 627 0
-96 632 -627 0
-51 -633 628 0
-51 633 -628 0
-52 -633 628 0
-52 633 -628 0
-53 -628 633 0
-53 -625 633 0
-53 -633 628 625 0
-54 -633 628 0
-54 633 -628 0
-55 -633 628 0
-55 633 -628 0
-56 -628 633 0
-56 -626 633 0
-56 -633 628 626 0
-57 -633 628 0
-57 633 -628 0
-58 -628 633 0
-58 -627 633 0
-58 -633 628 627 0
-59 -633 628 0
-59 633 -628 0
-60 -633 628 0
-60 -633 629 0
-60 633 -628 -629 0
-96 -633 628 0
-96 633 -628 0
-51 -634 629 0
-51 634 -629 0
-52 -634 629 0
-52 634 -629 0
-53 -634 629 0
-53 634 -629 0
-54 -629 634 0
-54 -625 634 0
-54 -634 629 625 0
-55 -634 629 0
-55 634 -629 0
-56 -634 629 0
-56 634 -629 0
-57 -629 634 0
-57 -626 634 0
-57 -634 629 626 0
-58 -634 629 0
-58 634 -629 0
-59 -629 634 0
-59 -627 634 0
-59 -634 629 627 0
-60 -629 634 0
-60 -628 634 0
-60 -634 629 628 0
-96 -634 629 0
-96 634 -629 0
-61 -635 630 0
-61 -635 631 0
-61 635 -630 -631 0
-62 -635 630 0
-62 -635 632 0
-62 635 -630 -632 0
-63 -635 630 0
-63 -635 633 0
-63 635 -630 -633 0
-64 -635 630 0
-64 -635 634 0
-64 635 -630 -634 0
-65 -635 630 0
-65 635 -630 0
-66 -635 630 0
-66 635 -630 0
-67 -635 630 0
-67 635 -630 0
-68 -635 630 0
-68 635 -630 0
-69 -635 630 0
-69 635 -630 0
-70 -635 630 0
-70 635 -630 0
-97 -635 630 0
-97 635 -630 0
-61 -631 636 0
-61 -630 636 0
-61 -636 631 630 0
-62 -636 631 0
-62 636 -631 0
-63 -636 631 0
-63 636 -631 0
-64 -636 631 0
-64 636 -631 0
-65 -636 631 0
-65 -636 632 0
-65 636 -631 -632 0
-66 -636 631 0
-66 -636 633 0
-66 636 -631 -633 0
-67 -636 631 0
-67 -636 634 0
-67 636 -631 -634 0
-68 -636 631 0
-68 636 -631 0
-69 -636 631 0
-69 636 -631 0
-70 -636 631 0
-70 636 -631 0
-97 -636 631 0
-97 636 -631 0
-61 -637 632 0
-61 637 -632 0
-62 -632 637 0
-62 -630 637 0
-62 -637 632 630 0
-63 -637 632 0
-63 637 -632 0
-64 -637 632 0
-64 637 -632 0
-65 -632 637 0
-65 -631 637 0
-65 -637 632 631 0
-66 -637 632 0
-66 637 -632 0
-67 -637 632 0
-67 637 -632 0
-68 -637 632 0
-68 -637 633 0
-68 637 -632 -633 0
-69 -637 632 0
-69 -637 634 0
-69 637 -632 -634 0
-70 -637 632 0
-70 637 -632 0
-97 -637 632 0
-97 637 -632 0
-61 -638 633 0
-61 638 -633 0
-62 -638 633 0
-62 638 -633 0
-63 -633 638 0
-63 -630 638 0
-63 -638 633 630 0
-64 -638 633 0
-64 638 -633 0
-65 -638 633 0
-65 638 -633 0
-66 -633 638 0
-66 -631 638 0
-66 -638 633 631 0
-67 -638 633 0
-67 638 -633 0
-68 -633 638 0
-68 -632 638 0
-68 -638 633 632 0
-69 -638 633 0
-69 638 -633 0
-70 -638 633 0
-70 -638 634 0
-70 638 -633 -634 0
-97 -638 633 0
-97 638 -633 0
-61 -639 634 0
-61 639 -634 0
-62 -639 634 0
-62 639 -634 0
-63 -639 634 0
-63 639 -634 0
-64 -634 639 0
-64 -630 639 0
-64 -639 634 630 0
-65 -639 634 0
-65 639 -634 0
-66 -639 634 0
-66 639 -634 0
-67 -634 639 0
-67 -631 639 0
-67 -639 634 631 0
-68 -639 634 0
-68 639 -634 0
-69 -634 639 0
-69 -632 639 0
-69 -639 634 632 0
-70 -634 639 0
-70 -633 639 0
-70 -639 634 633 0
-97 -639 634 0
-97 639 -634 0
-71 -640 635 0
-71 -640 636 0
-71 640 -635 -636 0
-72 -640 635 0
-72 -640 637 0
-72 640 -635 -637 0
-73 -640 635 0
-73 -640 638 0
-73 640 -635 -638 0
-74 -640 635 0
-74 -640 639 0
-74 640 -635 -639 0
-75 -640 635 0
-75 640 -635 0
-76 -640 635 0
-76 640 -635 0
-77 -640 635 0
-77 640 -635 0
-78 -640 635 0
-78 640 -635 0
-79 -640 635 0
-79 640 -635 0
-80 -640 635 0
-80 640 -635 0
-98 -640 635 0
-98 640 -635 0
-71 -636 641 0
-71 -635 641 0
-71 -641 636 635 0
-72 -641 636 0
-72 641 -636 0
-73 -641 636 0
-73 641 -636 0
-74 -641 636 0
-74 641 -636 0
-75 -641 636 0
-75 -641 637 0
-75 641 -636 -637 0
-76 -641 636 0
-76 -641 638 0
-76 641 -636 -638 0
-77 -641 636 0
-77 -641 639 0
-77 641 -636 -639 0
-78 -641 636 0
-78 641 -636 0
-79 -641 636 0
-79 641 -636 0
-80 -641 636 0
-80 641 -636 0
-98 -641 636 0
-98 641 -636 0
-71 -642 637 0
-71 642 -637 0
-72 -637 642 0
-72 -635 642 0
-72 -642 637 635 0
-73 -642 637 0
-73 642 -637 0
-74 -642 637 0
-74 642 -637 0
-75 -637 642 0
-75 -636 642 0
-75 -642 637 636 0
-76 -642 637 0
-76 642 -637 0
-77 -642 637 0
-77 642 -637 0
-78 -642 637 0
-78 -642 638 0
-78 642 -637 -638 0
-79 -642 637 0
-79 -642 639 0
-79 642 -637 -639 0
-80 -642 637 0
-80 642 -637 0
-98 -642 637 0
-98 642 -637 0
-71 -643 638 0
-71 643 -638 0
-72 -643 638 0
-72 643 -638 0
-73 -638 643 0
-73 -635 643 0
-73 -643 638 635 0
-74 -643 638 0
-74 643 -638 0
-75 -643 638 0
-75 643 -638 0
-76 -638 643 0
-76 -636 643 0
-76 -643 638 636 0
-77 -643 638 0
-77 643 -638 0
-78 -638 643 0
-78 -637 643 0
-78 -643 638 637 0
-79 -643 638 0
-79 643 -638 0
-80 -643 638 0
-80 -643 639 0
-80 643 -638 -639 0
-98 -643 638 0
-98 643 -638 0
-71 -644 639 0
-71 644 -639 0
-72 -644 639 0
-72 644 -639 0
-73 -644 639 0
-73 644 -639 0
-74 -639 644 0
-74 -635 644 0
-74 -644 639 635 0
-75 -644 639 0
-75 644 -639 0
-76 -644 639 0
-76 644 -639 0
-77 -639 644 0
-77 -636 644 0
-77 -644 639 636 0
-78 -644 639 0
-78 644 -639 0
-79 -639 644 0
-79 -637 644 0
-79 -644 639 637 0
-80 -639 644 0
-80 -638 644 0
-80 -644 639 638 0
-98 -644 639 0
-98 644 -639 0
-81 -645 640 0
-81 -645 641 0
-81 645 -640 -641 0
-82 -645 640 0
-82 -645 642 0
-82 645 -640 -642 0
-83 -645 640 0
-83 -645 643 0
-83 645 -640 -643 0
-84 -645 640 0
-84 -645 644 0
-84 645 -640 -644 0
-85 -645 640 0
-85 645 -640 0
-86 -645 640 0
-86 645 -640 0
-87 -645 640 0
-87 645 -640 0
-88 -645 640 0
-88 645 -640 0
-89 -645 640 0
-89 645 -640 0
-90 -645 640 0
-90 645 -640 0
-99 -645 640 0
-99 645 -640 0
-81 -641 646 0
-81 -640 646 0
-81 -646 641 640 0
-82 -646 641 0
-82 646 -641 0
-83 -646 641 0
-83 646 -641 0
-84 -646 641 0
-84 646 -641 0
-85 -646 641 0
-85 -646 642 0
-85 646 -641 -642 0
-86 -646 641 0
-86 -646 643 0
-86 646 -641 -643 0
-87 -646 641 0
-87 -646 644 0
-87 646 -641 -644 0
-88 -646 641 0
-88 646 -641 0
-89 -646 641 0
-89 646 -641 0
-90 -646 641 0
-90 646 -641 0
-99 -646 641 0
-99 646 -641 0
-81 -647 642 0
-81 647 -642 0
-82 -642 647 0
-82 -640 647 0
-82 -647 642 640 0
-83 -647 642 0
-83 647 -642 0
-84 -647 642 0
-84 647 -642 0
-85 -642 647 0
-85 -641 647 0
-85 -647 642 641 0
-86 -647 642 0
-86 647 -642 0
-87 -647 642 0
-87 647 -642 0
-88 -647 642 0
-88 -647 643 0
-88 647 -642 -643 0
-89 -647 642 0
-89 -647 644 0
-89 647 -642 -644 0
-90 -647 642 0
-90 647 -642 0
-99 -647 642 0
-99 647 -642 0
-81 -648 643 0
-81 648 -643 0
-82 -648 643 0
-82 648 -643 0
-83 -643 648 0
-83 -640 648 0
-83 -648 643 640 0
-84 -648 643 0
-84 648 -643 0
-85 -648 643 0
-85 648 -643 0
-86 -643 648 0
-86 -641 648 0
-86 -648 643 641 0
-87 -648 643 0
-87 648 -643 0
-88 -643 648 0
-88 -642 648 0
-88 -648 643 642 0
-89 -648 643 0
-89 648 -643 0
-90 -648 643 0
-90 -648 644 0
-90 648 -643 -644 0
-99 -648 643 0
-99 648 -643 0
-81 -649 644 0
-81 649 -644 0
-82 -649 644 0
-82 649 -644 0
-83 -649 644 0
-83 649 -644 0
-84 -644 649 0
-84 -640 649 0
-84 -649 644 640 0
-85 -649 644 0
-85 649 -644 0
-86 -649 644 0
-86 649 -644 0
-87 -644 649 0
-87 -641 649 0
-87 -649 644 641 0
-88 -649 644 0
-88 649 -644 0
-89 -644 649 0
-89 -642 649 0
-89 -649 644 642 0
-90 -644 649 0
-90 -643 649 0
-90 -649 644 643 0
-99 -649 644 0
-99 649 -644 0
650 0
-1 -655 650 0
-1 -655 651 0
-1 655 -650 -651 0
-2 -655 650 0
-2 -655 652 0
-2 655 -650 -652 0
-3 -655 650 0
-3 -655 653 0
-3 655 -650 -653 0
-4 -655 650 0
-4 -655 654 0
-4 655 -650 -654 0
-5 -655 650 0
-5 655 -650 0
-6 -655 650 0
-6 655 -650 0
-7 -655 650 0
-7 655 -650 0
-8 -655 650 0
-8 655 -650 0
-9 -655 650 0
-9 655 -650 0
-10 -655 650 0
-10 655 -650 0
-91 -655 650 0
-91 655 -650 0
-651 0
-1 -651 656 0
-1 -650 656 0
-1 -656 651 650 0
-2 -656 651 0
-2 656 -651 0
-3 -656 651 0
-3 656 -651 0
-4 -656 651 0
-4 656 -651 0
-5 -656 651 0
-5 -656 652 0
-5 656 -651 -652 0
-6 -656 651 0
-6 -656 653 0
-6 656 -651 -653 0
-7 -656 651 0
-7 -656 654 0
-7 656 -651 -654 0
-8 -656 651 0
-8 656 -651 0
-9 -656 651 0
-9 656 -651 0
-10 -656 651 0
-10 656 -651 0
-91 -656 651 0
-91 656 -651 0
-652 0
-1 -657 652 0
-1 657 -652 0
-2 -652 657 0
-2 -650 657 0
-2 -657 652 650 0
-3 -657 652 0
-3 657 -652 0
-4 -657 652 0
-4 657 -652 0
-5 -652 657 0
-5 -651 657 0
-5 -657 652 651 0
-6 -657 652 0
-6 657 -652 0
-7 -657 652 0
-7 657 -652 0
-8 -657 652 0
-8 -657 653 0
-8 657 -652 -653 0
-9 -657 652 0
-9 -657 654 0
-9 657 -652 -654 0
-10 -657 652 0
-10 657 -652 0
-91 -657 652 0
-91 657 -652 0
-653 0
-1 -658 653 0
-1 658 -653 0
-2 -658 653 0
-2 658 -653 0
-3 -653 658 0
-3 -650 658 0
-3 -658 653 650 0
-4 -658 653 0
-4 658 -653 0
-5 -658 653 0
-5 658 -653 0
-6 -653 658 0
-6 -651 658 0
-6 -658 653 651 0
-7 -658 653 0
-7 658 -653 0
-8 -653 658 0
-8 -652 658 0
-8 -658 653 652 0
-9 -658 653 0
-9 658 -653 0
-10 -658 653 0
-10 -658 654 0
-10 658 -653 -654 0
-91 -658 653 0
-91 658 -653 0
-654 0
-1 -659 654 0
-1 659 -654 0
-2 -659 654 0
-2 659 -654 0
-3 -659 654 0
-3 659 -654 0
-4 -654 659 0
-4 -650 659 0
-4 -659 654 650 0
-5 -659 654 0
-5 659 -654 0
-6 -659 654 0
-6 659 -654 0
-7 -654 659 0
-7 -651 659 0
-7 -659 654 651 0
-8 -659 654 0
-8 659 -654 0
-9 -654 659 0
-9 -652 659 0
-9 -659 654 652 0
-10 -654 659 0
-10 -653 659 0
-10 -659 654 653 0
-91 -659 654 0
-91 659 -654 0
-11 -660 655 0
-11 -660 656 0
-11 660 -655 -656 0
-12 -660 655 0
-12 -660 657 0
-12 660 -655 -657 0
-13 -660 655 0
-13 -660 658 0
-13 660 -655 -658 0
-14 -660 655 0
-14 -660 659 0
-14 660 -655 -659 0
-15 -660 655 0
-15 660 -655 0
-16 -660 655 0
-16 660 -655 0
-17 -660 655 0
-17 660 -655 0
-18 -660 655 0
-18 660 -655 0
-19 -660 655 0
-19 660 -655 0
-20 -660 655 0
-20 660 -655 0
-92 -660 655 0
-92 660 -655 0
-11 -656 661 0
-11 -655 661 0
-11 -661 656 655 0
-12 -661 656 0
-12 661 -656 0
-13 -661 656 0
-13 661 -656 0
-14 -661 656 0
-14 661 -656 0
-15 -661 656 0
-15 -661 657 0
-15 661 -656 -657 0
-16 -661 656 0
-16 -661 658 0
-16 661 -656 -658 0
-17 -661 656 0
-17 -661 659 0
-17 661 -656 -659 0
-18 -661 656 0
-18 661 -656 0
-19 -661 656 0
-19 661 -656 0
-20 -661 656 0
-20 661 -656 0
-92 -661 656 0
-92 661 -656 0
-11 -662 657 0
-11 662 -657 0
-12 -657 662 0
-12 -655 662 0
-12 -662 657 655 0
-13 -662 657 0
-13 662 -657 0
-14 -662 657 0
-14 662 -657 0
-15 -657 662 0
-15 -656 662 0
-15 -662 657 656 0
-16 -662 657 0
-16 662 -657 0
-17 -662 657 0
-17 662 -657 0
-18 -662 657 0
-18 -662 658 0
-18 662 -657 -658 0
-19 -662 657 0
-19 -662 659 0
-19 662 -657 -659 0
-20 -662 657 0
-20 662 -657 0
-92 -662 657 0
-92 662 -657 0
-11 -663 658 0
-11 663 -658 0
-12 -663 658 0
-12 663 -658 0
-13 -658 663 0
-13 -655 663 0
-13 -663 658 655 0
-14 -663 658 0
-14 663 -658 0
-15 -663 658 0
-15 663 -658 0
-16 -658 663 0
-16 -656 663 0
-16 -663 658 656 0
-17 -663 658 0
-17 663 -658 0
-18 -658 663 0
-18 -657 663 0
-18 -663 658 657 0
-19 -663 658 0
-19 663 -658 0
-20 -663 658 0
-20 -663 659 0
-20 663 -658 -659 0
-92 -663 658 0
-92 663 -658 0
-11 -664 659 0
-11 664 -659 0
-12 -664 659 0
-12 664 -659 0
-13 -664 659 0
-13 664 -659 0
-14 -659 664 0
-14 -655 664 0
-14 -664 659 655 0
-15 -664 659 0
-15 664 -659 0
-16 -664 659 0
-16 664 -659 0
-17 -659 664 0
-17 -656 664 0
-17 -664 659 656 0
-18 -664 659 0
-18 664 -659 0
-19 -659 664 0
-19 -657 664 0
-19 -664 659 657 0
-20 -659 664 0
-20 -658 664 0
-20 -664 659 658 0
-92 -664 659 0
-92 664 -659 0
-21 -665 660 0
-21 -665 661 0
-21 665 -660 -661 0
-22 -665 660 0
-22 -665 662 0
-22 665 -660 -662 0
-23 -665 660 0
-23 -665 663 0
-23 665 -660 -663 0
-24 -665 660 0
-24 -665 664 0
-24 665 -660 -664 0
-25 -665 660 0
-25 665 -660 0
-26 -665 660 0
-26 665 -660 0
-27 -665 660 0
-27 665 -660 0
-28 -665 660 0
-28 665 -660 0
-29 -665 660 0
-29 665 -660 0
-30 -665 660 0
-30 665 -660 0
-93 -665 660 0
-93 665 -660 0
-21 -661 666 0
-21 -660 666 0
-21 -666 661 660 0
-22 -666 661 0
-22 666 -661 0
-23 -666 661 0
-23 666 -661 0
-24 -666 661 0
-24 666 -661 0
-25 -666 661 0
-25 -666 662 0
-25 666 -661 -662 0
-26 -666 661 0
-26 -666 663 0
-26 666 -661 -663 0
-27 -666 661 0
-27 -666 664 0
-27 666 -661 -664 0
-28 -666 661 0
-28 666 -661 0
-29 -666 661 0
-29 666 -661 0
-30 -666 661 0
-30 666 -661 0
-93 -666 661 0
-93 666 -661 0
-21 -667 662 0
-21 667 -662 0
-22 -662 667 0
-22 -660 667 0
-22 -667 662 660 0
-23 -667 662 0
-23 667 -662 0
-24 -667 662 0
-24 667 -662 0
-25 -662 667 0
-25 -661 667 0
-25 -667 662 661 0
-26 -667 662 0
-26 667 -662 0
-27 -667 662 0
-27 667 -662 0
-28 -667 662 0
-28 -667 663 0
-28 667 -662 -663 0
-29 -667 662 0
-29 -667 664 0
-29 667 -662 -664 0
-30 -667 662 0
-30 667 -662 0
-93 -667 662 0
-93 667 -662 0
-21 -668 663 0
-21 668 -663 0
-22 -668 663 0
-22 668 -663 0
-23 -663 668 0
-23 -660 668 0
-23 -668 663 660 0
-24 -668 663 0
-24 668 -663 0
-25 -668 663 0
-25 668 -663 0
-26 -663 668 0
-26 -661 668 0
-26 -668 663 661 0
-27 -668 663 0
-27 668 -663 0
-28 -663 668 0
-28 -662 668 0
-28 -668 663 662 0
-29 -668 663 0
-29 668 -663 0
-30 -668 663 0
-30 -668 664 0
-30 668 -663 -664 0
-93 -668 663 0
-93 668 -663 0
-21 -669 664 0
-21 669 -664 0
-22 -669 664 0
-22 669 -664 0
-23 -669 664 0
-23 669 -664 0
-24 -664 669 0
-24 -660 669 0
-24 -669 664 660 0
-25 -669 664 0
-25 669 -664 0
-26 -669 664 0
-26 669 -664 0
-27 -664 669 0
-27 -661 669 0
-27 -669 664 661 0
-28 -669 664 0
-28 669 -664 0
-29 -664 669 0
-29 -662 669 0
-29 -669 664 662 0
-30 -664 669 0
-30 -663 669 0
-30 -669 664 663 0
-93 -669 664 0
-93 669 -664 0
-31 -670 665 0
-31 -670 666 0
-31 670 -665 -666 0
-32 -670 665 0
-32 -670 667 0
-32 670 -665 -667 0
-33 -670 665 0
-33 -670 668 0
-33 670 -665 -668 0
-34 -670 665 0
-34 -670 669 0
-34 670 -665 -669 0
-35 -670 665 0
-35 670 -665 0
-36 -670 665 0
-36 670 -665 0
-37 -670 665 0
-37 670 -665 0
-38 -670 665 0
-38 670 -665 0
-39 -670 665 0
-39 670 -665 0
-40 -670 665 0
-40 670 -665 0
-94 -670 665 0
-94 670 -665 0
-31 -666 671 0
-31 -665 671 0
-31 -671 666 665 0
-32 -671 666 0
-32 671 -666 0
-33 -671 666 0
-33 671 -666 0
-34 -671 666 0
-34 671 -666 0
-35 -671 666 0
-35 -671 667 0
-35 671 -666 -667 0
-36 -671 666 0
-36 -671 668 0
-36 671 -666 -668 0
-37 -671 666 0
-37 -671 669 0
-37 671 -666 -669 0
-38 -671 666 0
-38 671 -666 0
-39 -671 666 0
-39 671 -666 0
-40 -671 666 0
-40 671 -666 0
-94 -671 666 0
-94 671 -666 0
-31 -672 667 0
-31 672 -667 0
-32 -667 672 0
-32 -665 672 0
-32 -672 667 665 0
-33 -672 667 0
-33 672 -667 0
-34 -672 667 0
-34 672 -667 0
-35 -667 672 0
-35 -666 672 0
-35 -672 667 666 0
-36 -672 667 0
-36 672 -667 0
-37 -672 667 0
-37 672 -667 0
-38 -672 667 0
-38 -672 668 0
-38 672 -667 -668 0
-39 -672 667 0
-39 -672 669 0
-39 672 -667 -669 0
-40 -672 667 0
-40 672 -667 0
-94 -672 667 0
-94 672 -667 0
-31 -673 668 0
-31 673 -668 0
-32 -673 668 0
-32 673 -668 0
-33 -668 673 0
-33 -665 673 0
-33 -673 668 665 0
-34 -673 668 0
-34 673 -668 0
-35 -673 668 0
-35 673 -668 0
-36 -668 673 0
-36 -666 673 0
-36 -673 668 666 0
-37 -673 668 0
-37 673 -668 0
-38 -668 673 0
-38 -667 673 0
-38 -673 668 667 0
-39 -673 668 0
-39 673 -668 0
-40 -673 668 0
-40 -673 669 0
-40 673 -668 -669 0
-94 -673 668 0
-94 673 -668 0
-31 -674 669 0
-31 674 -669 0
-32 -674 669 0
-32 674 -669 0
-33 -674 669 0
-33 674 -669 0
-34 -669 674 0
-34 -665 674 0
-34 -674 669 665 0
-35 -674 669 0
-35 674 -669 0
-36 -674 669 0
-36 674 -669 0
-37 -669 674 0
-37 -666 674 0
-37 -674 669 666 0
-38 -674 669 0
-38 674 -669 0
-39 -669 674 0
-39 -667 674 0
-39 -674 669 667 0
-40 -669 674 0
-40 -668 674 0
-40 -674 669 668 0
-94 -674 669 0
-94 674 -669 0
-41 -675 670 0
-41 -675 671 0
-41 675 -670 -671 0
-42 -675 670 0
-42 -675 672 0
-42 675 -670 -672 0
-43 -675 670 0
-43 -675 673 0
-43 675 -670 -673 0
-44 -675 670 0
-44 -675 674 0
-44 675 -670 -674 0
-45 -675 670 0
-45 675 -670 0
-46 -675 670 0
-46 675 -670 0
-47 -675 670 0
-47 675 -670 0
-48 -675 670 0
-48 675 -670 0
-49 -675 670 0
-49 675 -670 0
-50 -675 670 0
-50 675 -670 0
-95 -675 670 0
-95 675 -670 0
-41 -671 676 0
-41 -670 676 0
-41 -676 671 670 0
-42 -676 671 0
-42 676 -671 0
-43 -676 671 0
-43 676 -671 0
-44 -676 671 0
-44 676 -671 0
-45 -676 671 0
-45 -676 672 0
-45 676 -671 -672 0
-46 -676 671 0
-46 -676 673 0
-46 676 -671 -673 0
-47 -676 671 0
-47 -676 674 0
-47 676 -671 -674 0
-48 -676 671 0
-48 676 -671 0
-49 -676 671 0
-49 676 -671 0
-50 -676 671 0
-50 676 -671 0
-95 -676 671 0
-95 676 -671 0
-41 -677 672 0
-41 677 -672 0
-42 -672 677 0
-42 -670 677 0
-42 -677 672 670 0
-43 -677 672 0
-43 677 -672 0
-44 -677 672 0
-44 677 -672 0
-45 -672 677 0
-45 -671 677 0
-45 -677 672 671 0
-46 -677 672 0
-46 677 -672 0
-47 -677 672 0
-47 677 -672 0
-48 -677 672 0
-48 -677 673 0
-48 677 -672 -673 0
-49 -677 672 0
-49 -677 674 0
-49 677 -672 -674 0
-50 -677 672 0
-50 677 -672 0
-95 -677 672 0
-95 677 -672 0
-41 -678 673 0
-41 678 -673 0
-42 -678 673 0
-42 678 -673 0
-43 -673 678 0
-43 -670 678 0
-43 -678 673 670 0
-44 -678 673 0
-44 678 -673 0
-45 -678 673 0
-45 678 -673 0
-46 -673 678 0
-46 -671 678 0
-46 -678 673 671 0
-47 -678 673 0
-47 678 -673 0
-48 -673 678 0
-48 -672 678 0
-48 -678 673 672 0
-49 -678 673 0
-49 678 -673 0
-50 -678 673 0
-50 -678 674 0
-50 678 -673 -674 0
-95 -678 673 0
-95 678 -673 0
-41 -679 674 0
-41 679 -674 0
-42 -679 674 0
-42 679 -674 0
-43 -679 674 0
-43 679 -674 0
-44 -674 679 0
-44 -670 679 0
-44 -679 674 670 0
-45 -679 674 0
-45 679 -674 0
-46 -679 674 0
-46 679 -674 0
-47 -674 679 0
-47 -671 679 0
-47 -679 674 671 0
-48 -679 674 0
-48 679 -674 0
-49 -674 679 0
-49 -672 679 0
-49 -679 674 672 0
-50 -674 679 0
-50 -673 679 0
-50 -679 674 673 0
-95 -679 674 0
-95 679 -674 0
-51 -680 675 0
-51 -680 676 0
-51 680 -675 -676 0
-52 -680 675 0
-52 -680 677 0
-52 680 -675 -677 0
-53 -680 675 0
-53 -680 678 0
-53 680 -675 -678 0
-54 -680 675 0
-54 -680 679 0
-54 680 -675 -679 0
-55 -680 675 0
-55 680 -675 0
-56 -680 675 0
-56 680 -675 0
-57 -680 675 0
-57 680 -675 0
-58 -680 675 0
-58 680 -675 0
-59 -680 675 0
-59 680 -675 0
-60 -680 675 0
-60 680 -675 0
-96 -680 675 0
-96 680 -675 0
-51 -676 681 0
-51 -675 681 0
-51 -681 676 675 0
-52 -681 676 0
-52 681 -676 0
-53 -681 676 0
-53 681 -676 0
-54 -681 676 0
-54 681 -676 0
-55 -681 676 0
-55 -681 677 0
-55 681 -676 -677 0
-56 -681 676 0
-56 -681 678 0
-56 681 -676 -678 0
-57 -681 676 0
-57 -681 679 0
-57 681 -676 -679 0
-58 -681 676 0
-58 681 -676 0
-59 -681 676 0
-59 681 -676 0
-60 -681 676 0
-60 681 -676 0
-96 -681 676 0
-96 681 -676 0
-51 -682 677 0
-51 682 -677 0
-52 -677 682 0
-52 -675 682 0
-52 -682 677 675 0
-53 -682 677 0
-53 682 -677 0
-54 -682 677 0
-54 682 -677 0
-55 -677 682 0
-55 -676 682 0
-55 -682 677 676 0
-56 -682 677 0
-56 682 -677 0
-57 -682 677 0
-57 682 -677 0
-58 -682 677 0
-58 -682 678 0
-58 682 -677 -678 0
-59 -682 677 0
-59 -682 679 0
-59 682 -677 -679 0
-60 -682 677 0
-60 682 -677 0
-96 -682 677 0
-96 682 -677 0
-51 -683 678 0
-51 683 -678 0
-52 -683 678 0
-52 683 -678 0
-53 -678 683 0
-53 -675 683 0
-53 -683 678 675 0
-54 -683 678 0
-54 683 -678 0
-55 -683 678 0
-55 683 -678 0
-56 -678 683 0
-56 -676 683 0
-56 -683 678 676 0
-57 -683 678 0
-57 683 -678 0
-58 -678 683 0
-58 -677 683 0
-58 -683 678 677 0
-59 -683 678 0
-59 683 -678 0
-60 -683 678 0
-60 -683 679 0
-60 683 -678 -679 0
-96 -683 678 0
-96 683 -678 0
-51 -684 679 0
-51 684 -679 0
-52 -684 679 0
-52 684 -679 0
-53 -684 679 0
-53 684 -679 0
-54 -679 684 0
-54 -675 684 0
-54 -684 679 675 0
-55 -684 679 0
-55 684 -679 0
-56 -684 679 0
-56 684 -679 0
-57 -679 684 0
-57 -676 684 0
-57 -684 679 676 0
-58 -684 679 0
-58 684 -679 0
-59 -679 684 0
-59 -677 684 0
-59 -684 679 677 0
-60 -679 684 0
-60 -678 684 0
-60 -684 679 678 0
-96 -684 679 0
-96 684 -679 0
-61 -685 680 0
-61 -685 681 0
-61 685 -680 -681 0
-62 -685 680 0
-62 -685 682 0
-62 685 -680 -682 0
-63 -685 680 0
-63 -685 683 0
-63 685 -680 -683 0
-64 -685 680 0
-64 -685 684 0
-64 685 -680 -684 0
-65 -685 680 0
-65 685 -680 0
-66 -685 680 0
-66 685 -680 0
-67 -685 680 0
-67 685 -680 0
-68 -685 680 0
-68 685 -680 0
-69 -685 680 0
-69 685 -680 0
-70 -685 680 0
-70 685 -680 0
-97 -685 680 0
-97 685 -680 0
-61 -681 686 0
-61 -680 686 0
-61 -686 681 680 0
-62 -686 681 0
-62 686 -681 0
-63 -686 681 0
-63 686 -681 0
-64 -686 681 0
-64 686 -681 0
-65 -686 681 0
-65 -686 682 0
-65 686 -681 -682 0
-66 -686 681 0
-66 -686 683 0
-66 686 -681 -683 0
-67 -686 681 0
-67 -686 684 0
-67 686 -681 -684 0
-68 -686 681 0
-68 686 -681 0
-69 -686 681 0
-69 686 -681 0
-70 -686 681 0
-70 686 -681 0
-97 -686 681 0
-97 686 -681 0
-61 -687 682 0
-61 687 -682 0
-62 -682 687 0
-62 -680 687 0
-62 -687 682 680 0
-63 -687 682 0
-63 687 -682 0
-64 -687 682 0
-64 687 -682 0
-65 -682 687 0
-65 -681 687 0
-65 -687 682 681 0
-66 -687 682 0
-66 687 -682 0
-67 -687 682 0
-67 687 -682 0
-68 -687 682 0
-68 -687 683 0
-68 687 -682 -683 0
-69 -687 682 0
-69 -687 684 0
-69 687 -682 -684 0
-70 -687 682 0
-70 687 -682 0
-97 -687 682 0
-97 687 -682 0
-61 -688 683 0
-61 688 -683 0
-62 -688 683 0
-62 688 -683 0
-63 -683 688 0
-63 -680 688 0
-63 -688 683 680 0
-64 -688 683 0
-64 688 -683 0
-65 -688 683 0
-65 688 -683 0
-66 -683 688 0
-66 -681 688 0
-66 -688 683 681 0
-67 -688 683 0
-67 688 -683 0
-68 -683 688 0
-68 -682 688 0
-68 -688 683 682 0
-69 -688 683 0
-69 688 -683 0
-70 -688 683 0
-70 -688 684 0
-70 688 -683 -684 0
-97 -688 683 0
-97 688 -683 0
-61 -689 684 0
-61 689 -684 0
-62 -689 684 0
-62 689 -684 0
-63 -689 684 0
-63 689 -684 0
-64 -684 689 0
-64 -680 689 0
-64 -689 684 680 0
-65 -689 684 0
-65 689 -684 0
-66 -689 684 0
-66 689 -684 0
-67 -684 689 0
-67 -681 689 0
-67 -689 684 681 0
-68 -689 684 0
-68 689 -684 0
-69 -684 689 0
-69 -682 689 0
-69 -689 684 682 0
-70 -684 689 0
-70 -683 689 0
-70 -689 684 683 0
-97 -689 684 0
-97 689 -684 0
-71 -690 685 0
-71 -690 686 0
-71 690 -685 -686 0
-72 -690 685 0
-72 -690 687 0
-72 690 -685 -687 0
-73 -690 685 0
-73 -690 688 0
-73 690 -685 -688 0
-74 -690 685 0
-74 -690 689 0
-74 690 -685 -689 0
-75 -690 685 0
-75 690 -685 0
-76 -690 685 0
-76 690 -685 0
-77 -690 685 0
-77 690 -685 0
-78 -690 685 0
-78 690 -685 0
-79 -690 685 0
-79 690 -685 0
-80 -690 685 0
-80 690 -685 0
-98 -690 685 0
-98 690 -685 0
-71 -686 691 0
-71 -685 691 0
-71 -691 686 685 0
-72 -691 686 0
-72 691 -686 0
-73 -691 686 0
-73 691 -686 0
-74 -691 686 0
-74 691 -686 0
-75 -691 686 0
-75 -691 687 0
-75 691 -686 -687 0
-76 -691 686 0
-76 -691 688 0
-76 691 -686 -688 0
-77 -691 686 0
-77 -691 689 0
-77 691 -686 -689 0
-78 -691 686 0
-78 691 -686 0
-79 -691 686 0
-79 691 -686 0
-80 -691 686 0
-80 691 -686 0
-98 -691 686 0
-98 691 -686 0
-71 -692 687 0
-71 692 -687 0
-72 -687 692 0
-72 -685 692 0
-72 -692 687 685 0
-73 -692 687 0
-73 692 -687 0
-74 -692 687 0
-74 692 -687 0
-75 -687 692 0
-75 -686 692 0
-75 -692 687 686 0
-76 -692 687 0
-76 692 -687 0
-77 -692 687 0
-77 692 -687 0
-78 -692 687 0
-78 -692 688 0
-78 692 -687 -688 0
-79 -692 687 0
-79 -692 689 0
-79 692 -687 -689 0
-80 -692 687 0
-80 692 -687 0
-98 -692 687 0
-98 692 -687 0
-71 -693 688 0
-71 693 -688 0
-72 -693 688 0
-72 693 -688 0
-73 -688 693 0
-73 -685 693 0
-73 -693 688 685 0
-74 -693 688 0
-74 693 -688 0
-75 -693 688 0
-75 693 -688 0
-76 -688 693 0
-76 -686 693 0
-76 -693 688 686 0
-77 -693 688 0
-77 693 -688 0
-78 -688 693 0
-78 -687 693 0
-78 -693 688 687 0
-79 -693 688 0
-79 693 -688 0
-80 -693 688 0
-80 -693 689 0
-80 693 -688 -689 0
-98 -693 688 0
-98 693 -688 0
-71 -694 689 0
-71 694 -689 0
-72 -694 689 0
-72 694 -689 0
-73 -694 689 0
-73 694 -689 0
-74 -689 694 0
-74 -685 694 0
-74 -694 689 685 0
-75 -694 689 0
-75 694 -689 0
-76 -694 689 0
-76 694 -689 0
-77 -689 694 0
-77 -686 694 0
-77 -694 689 686 0
-78 -694 689 0
-78 694 -689 0
-79 -689 694 0
-79 -687 694 0
-79 -694 689 687 0
-80 -689 694 0
-80 -688 694 0
-80 -694 689 688 0
-98 -694 689 0
-98 694 -689 0
-81 -695 690 0
-81 -695 691 0
-81 695 -690 -691 0
-82 -695 690 0
-82 -695 692 0
-82 695 -690 -692 0
-83 -695 690 0
-83 -695 693 0
-83 695 -690 -693 0
-84 -695 690 0
-84 -695 694 0
-84 695 -690 -694 0
-85 -695 690 0
-85 695 -690 0
-86 -695 690 0
-86 695 -690 0
-87 -695 690 0
-87 695 -690 0
-88 -695 690 0
-88 695 -690 0
-89 -695 690 0
-89 695 -690 0
-90 -695 690 0
-90 695 -690 0
-99 -695 690 0
-99 695 -690 0
-81 -691 696 0
-81 -690 696 0
-81 -696 691 690 0
-82 -696 691 0
-82 696 -691 0
-83 -696 691 0
-83 696 -691 0
-84 -696 691 0
-84 696 -691 0
-85 -696 691 0
-85 -696 692 0
-85 696 -691 -692 0
-86 -696 691 0
-86 -696 693 0
-86 696 -691 -693 0
-87 -696 691 0
-87 -696 694 0
-87 696 -691 -694 0
-88 -696 691 0
-88 696 -691 0
-89 -696 691 0
-89 696 -691 0
-90 -696 691 0
-90 696 -691 0
-99 -696 691 0
-99 696 -691 0
-81 -697 692 0
-81 697 -692 0
-82 -692 697 0
-82 -690 697 0
-82 -697 692 690 0
-83 -697 692 0
-83 697 -692 0
-84 -697 692 0
-84 697 -692 0
-85 -692 697 0
-85 -691 697 0
-85 -697 692 691 0
-86 -697 692 0
-86 697 -692 0
-87 -697 692 0
-87 697 -692 0
-88 -697 692 0
-88 -697 693 0
-88 697 -692 -693 0
-89 -697 692 0
-89 -697 694 0
-89 697 -692 -694 0
-90 -697 692 0
-90 697 -692 0
-99 -697 692 0
-99 697 -692 0
-81 -698 693 0
-81 698 -693 0
-82 -698 693 0
-82 698 -693 0
-83 -693 698 0
-83 -690 698 0
-83 -698 693 690 0
-84 -698 693 0
-84 698 -693 0
-85 -698 693 0
-85 698 -693 0
-86 -693 698 0
-86 -691 698 0
-86 -698 693 691 0
-87 -698 693 0
-87 698 -693 0
-88 -693 698 0
-88 -692 698 0
-88 -698 693 692 0
-89 -698 693 0
-89 698 -693 0
-90 -698 693 0
-90 -698 694 0
-90 698 -693 -694 0
-99 -698 693 0
-99 698 -693 0
-81 -699 694 0
-81 699 -694 0
-82 -699 694 0
-82 699 -694 0
-83 -699 694 0
-83 699 -694 0
-84 -694 699 0
-84 -690 699 0
-84 -699 694 690 0
-85 -699 694 0
-85 699 -694 0
-86 -699 694 0
-86 699 -694 0
-87 -694 699 0
-87 -691 699 0
-87 -699 694 691 0
-88 -699 694 0
-88 699 -694 0
-89 -694 699 0
-89 -692 699 0
-89 -699 694 692 0
-90 -694 699 0
-90 -693 699 0
-90 -699 694 693 0
-99 -699 694 0
-99 699 -694 0
700 0
-1 -705 700 0
-1 -705 701 0
-1 705 -700 -701 0
-2 -705 700 0
-2 -705 702 0
-2 705 -700 -702 0
-3 -705 700 0
-3 -705 703 0
-3 705 -700 -703 0
-4 -705 700 0
-4 -705 704 0
-4 705 -700 -704 0
-5 -705 700 0
-5 705 -700 0
-6 -705 700 0
-6 705 -700 0
-7 -705 700 0
-7 705 -700 0
-8 -705 700 0
-8 705 -700 0
-9 -705 700 0
-9 705 -700 0
-10 -705 700 0
-10 705 -700 0
-91 -705 700 0
-91 705 -700 0
-701 0
-1 -701 706 0
-1 -700 706 0
-1 -706 701 700 0
-2 -706 701 0
-2 706 -701 0
-3 -706 701 0
-3 706 -701 0
-4 -706 701 0
-4 706 -701 0
-5 -706 701 0
-5 -706 702 0
-5 706 -701 -702 0
-6 -706 701 0
-6 -706 703 0
-6 706 -701 -703 0
-7 -706 701 0
-7 -706 704 0
-7 706 -701 -704 0
-8 -706 701 0
-8 706 -701 0
-9 -706 701 0
-9 706 -701 0
-10 -706 701 0
-10 706 -701 0
-91 -706 701 0
-91 706 -701 0
-702 0
-1 -707 702 0
-1 707 -702 0
-2 -702 707 0
-2 -700 707 0
-2 -707 702 700 0
-3 -707 702 0
-3 707 -702 0
-4 -707 702 0
-4 707 -702 0
-5 -702 707 0
-5 -701 707 0
-5 -707 702 701 0
-6 -707 702 0
-6 707 -702 0
-7 -707 702 0
-7 707 -702 0
-8 -707 702 0
-8 -707 703 0
-8 707 -702 -703 0
-9 -707 702 0
-9 -707 704 0
-9 707 -702 -704 0
-10 -707 702 0
-10 707 -702 0
-91 -707 702 0
-91 707 -702 0
-703 0
-1 -708 703 0
-1 708 -703 0
-2 -708 703 0
-2 708 -703 0
-3 -703 708 0
-3 -700 708 0
-3 -708 703 700 0
-4 -708 703 0
-4 708 -703 0
-5 -708 703 0
-5 708 -703 0
-6 -703 708 0
-6 -701 708 0
-6 -708 703 701 0
-7 -708 703 0
-7 708 -703 0
-8 -703 708 0
-8 -702 708 0
-8 -708 703 702 0
-9 -708 703 0
-9 708 -703 0
-10 -708 703 0
-10 -708 704 0
-10 708 -703 -704 0
-91 -708 703 0
-91 708 -703 0
704 0
-1 -709 704 0
-1 709 -704 0
-2 -709 704 0
-2 709 -704 0
-3 -709 704 0
-3 709 -704 0
-4 -704 709 0
-4 -700 709 0
-4 -709 704 700 0
-5 -709 704 0
-5 709 -704 0
-6 -709 704 0
-6 709 -704 0
-7 -704 709 0
-7 -701 709 0
-7 -709 704 701 0
-8 -709 704 0
-8 709 -704 0
-9 -704 709 0
-9 -702 709 0
-9 -709 704 702 0
-10 -704 709 0
-10 -703 709 0
-10 -709 704 703 0
-91 -709 704 0
-91 709 -704 0
-11 -710 705 0
-11 -710 706 0
-11 710 -705 -706 0
-12 -710 705 0
-12 -710 707 0
-12 710 -705 -707 0
-13 -710 705 0
-13 -710 708 0
-13 710 -705 -708 0
-14 -710 705 0
-14 -710 709 0
-14 710 -705 -709 0
-15 -710 705 0
-15 710 -705 0
-16 -710 705 0
-16 710 -705 0
-17 -710 705 0
-17 710 -705 0
-18 -710 705 0
-18 710 -705 0
-19 -710 705 0
-19 710 -705 0
-20 -710 705 0
-20 710 -705 0
-92 -710 705 0
-92 710 -705 0
-11 -706 711 0
-11 -705 711 0
-11 -711 706 705 0
-12 -711 706 0
-12 711 -706 0
-13 -711 706 0
-13 711 -706 0
-14 -711 706 0
-14 711 -706 0
-15 -711 706 0
-15 -711 707 0
-15 711 -706 -707 0
-16 -711 706 0
-16 -711 708 0
-16 711 -706 -708 0
-17 -711 706 0
-17 -711 709 0
-17 711 -706 -709 0
-18 -711 706 0
-18 711 -706 0
-19 -711 706 0
-19 711 -706 0
-20 -711 706 0
-20 711 -706 0
-92 -711 706 0
-92 711 -706 0
-11 -712 707 0
-11 712 -707 0
-12 -707 712 0
-12 -705 712 0
-12 -712 707 705 0
-13 -712 707 0
-13 712 -707 0
-14 -712 707 0
-14 712 -707 0
-15 -707 712 0
-15 -706 712 0
-15 -712 707 706 0
-16 -712 707 0
-16 712 -707 0
-17 -712 707 0
-17 712 -707 0
-18 -712 707 0
-18 -712 708 0
-18 712 -707 -708 0
-19 -712 707 0
-19 -712 709 0
-19 712 -707 -709 0
-20 -712 707 0
-20 712 -707 0
-92 -712 707 0
-92 712 -707 0
-11 -713 708 0
-11 713 -708 0
-12 -713 708 0
-12 713 -708 0
-13 -708 713 0
-13 -705 713 0
-13 -713 708 705 0
-14 -713 708 0
-14 713 -708 0
-15 -713 708 0
-15 713 -708 0
-16 -708 713 0
-16 -706 713 0
-16 -713 708 706 0
-17 -713 708 0
-17 713 -708 0
-18 -708 713 0
-18 -707 713 0
-18 -713 708 707 0
-19 -713 708 0
-19 713 -708 0
-20 -713 708 0
-20 -713 709 0
-20 713 -708 -709 0
-92 -713 708 0
-92 713 -708 0
-11 -714 709 0
-11 714 -709 0
-12 -714 709 0
-12 714 -709 0
-13 -714 709 0
-13 714 -709 0
-14 -709 714 0
-14 -705 714 0
-14 -714 709 705 0
-15 -714 709 0
-15 714 -709 0
-16 -714 709 0
-16 714 -709 0
-17 -709 714 0
-17 -706 714 0
-17 -714 709 706 0
-18 -714 709 0
-18 714 -709 0
-19 -709 714 0
-19 -707 714 0
-19 -714 709 707 0
-20 -709 714 0
-20 -708 714 0
-20 -714 709 708 0
-92 -714 709 0
-92 714 -709 0
-21 -715 710 0
-21 -715 711 0
-21 715 -710 -711 0
-22 -715 710 0
-22 -715 712 0
-22 715 -710 -712 0
-23 -715 710 0
-23 -715 713 0
-23 715 -710 -713 0
-24 -715 710 0
-24 -715 714 0
-24 715 -710 -714 0
-25 -715 710 0
-25 715 -710 0
-26 -715 710 0
-26 715 -710 0
-27 -715 710 0
-27 715 -710 0
-28 -715 710 0
-28 715 -710 0
-29 -715 710 0
-29 715 -710 0
-30 -715 710 0
-30 715 -710 0
-93 -715 710 0
-93 715 -710 0
-21 -711 716 0
-21 -710 716 0
-21 -716 711 710 0
-22 -716 711 0
-22 716 -711 0
-23 -716 711 0
-23 716 -711 0
-24 -716 711 0
-24 716 -711 0
-25 -716 711 0
-25 -716 712 0
-25 716 -711 -712 0
-26 -716 711 0
-26 -716 713 0
-26 716 -711 -713 0
-27 -716 711 0
-27 -716 714 0
-27 716 -711 -714 0
-28 -716 711 0
-28 716 -711 0
-29 -716 711 0
-29 716 -711 0
-30 -716 711 0
-30 716 -711 0
-93 -716 711 0
-93 716 -711 0
-21 -717 712 0
-21 717 -712 0
-22 -712 717 0
-22 -710 717 0
-22 -717 712 710 0
-23 -717 712 0
-23 717 -712 0
-24 -717 712 0
-24 717 -712 0
-25 -712 717 0
-25 -711 717 0
-25 -717 712 711 0
-26 -717 712 0
-26 717 -712 0
-27 -717 712 0
-27 717 -712 0
-28 -717 712 0
-28 -717 713 0
-28 717 -712 -713 0
-29 -717 712 0
-29 -717 714 0
-29 717 -712 -714 0
-30 -717 712 0
-30 717 -712 0
-93 -717 712 0
-93 717 -712 0
-21 -718 713 0
-21 718 -713 0
-22 -718 713 0
-22 718 -713 0
-23 -713 718 0
-23 -710 718 0
-23 -718 713 710 0
-24 -718 713 0
-24 718 -713 0
-25 -718 713 0
-25 718 -713 0
-26 -713 718 0
-26 -711 718 0
-26 -718 713 711 0
-27 -718 713 0
-27 718 -713 0
-28 -713 718 0
-28 -712 718 0
-28 -718 713 712 0
-29 -718 713 0
-29 718 -713 0
-30 -718 713 0
-30 -718 714 0
-30 718 -713 -714 0
-93 -718 713 0
-93 718 -713 0
-21 -719 714 0
-21 719 -714 0
-22 -719 714 0
-22 719 -714 0
-23 -719 714 0
-23 719 -714 0
-24 -714 719 0
-24 -710 719 0
-24 -719 714 710 0
-25 -719 714 0
-25 719 -714 0
-26 -719 714 0
-26 719 -714 0
-27 -714 719 0
-27 -711 719 0
-27 -719 714 711 0
-28 -719 714 0
-28 719 -714 0
-29 -714 719 0
-29 -712 719 0
-29 -719 714 712 0
-30 -714 719 0
-30 -713 719 0
-30 -719 714 713 0
-93 -719 714 0
-93 719 -714 0
-31 -720 715 0
-31 -720 716 0
-31 720 -715 -716 0
-32 -720 715 0
-32 -720 717 0
-32 720 -715 -717 0
-33 -720 715 0
-33 -720 718 0
-33 720 -715 -718 0
-34 -720 715 0
-34 -720 719 0
-34 720 -715 -719 0
-35 -720 715 0
-35 720 -715 0
-36 -720 715 0
-36 720 -715 0
-37 -720 715 0
-37 720 -715 0
-38 -720 715 0
-38 720 -715 0
-39 -720 715 0
-39 720 -715 0
-40 -720 715 0
-40 720 -715 0
-94 -720 715 0
-94 720 -715 0
-31 -716 721 0
-31 -715 721 0
-31 -721 716 715 0
-32 -721 716 0
-32 721 -716 0
-33 -721 716 0
-33 721 -716 0
-34 -721 716 0
-34 721 -716 0
-35 -721 716 0
-35 -721 717 0
-35 721 -716 -717 0
-36 -721 716 0
-36 -721 718 0
-36 721 -716 -718 0
-37 -721 716 0
-37 -721 719 0
-37 721 -716 -719 0
-38 -721 716 0
-38 721 -716 0
-39 -721 716 0
-39 721 -716 0
-40 -721 716 0
-40 721 -716 0
-94 -721 716 0
-94 721 -716 0
-31 -722 717 0
-31 722 -717 0
-32 -717 722 0
-32 -715 722 0
-32 -722 717 715 0
-33 -722 717 0
-33 722 -717 0
-34 -722 717 0
-34 722 -717 0
-35 -717 722 0
-35 -716 722 0
-35 -722 717 716 0
-36 -722 717 0
-36 722 -717 0
-37 -722 717 0
-37 722 -717 0
-38 -722 717 0
-38 -722 718 0
-38 722 -717 -718 0
-39 -722 717 0
-39 -722 719 0
-39 722 -717 -719 0
-40 -722 717 0
-40 722 -717 0
-94 -722 717 0
-94 722 -717 0
-31 -723 718 0
-31 723 -718 0
-32 -723 718 0
-32 723 -718 0
-33 -718 723 0
-33 -715 723 0
-33 -723 718 715 0
-34 -723 718 0
-34 723 -718 0
-35 -723 718 0
-35 723 -718 0
-36 -718 723 0
-36 -716 723 0
-36 -723 718 716 0
-37 -723 718 0
-37 723 -718 0
-38 -718 723 0
-38 -717 723 0
-38 -723 718 717 0
-39 -723 718 0
-39 723 -718 0
-40 -723 718 0
-40 -723 719 0
-40 723 -718 -719 0
-94 -723 718 0
-94 723 -718 0
-31 -724 719 0
-31 724 -719 0
-32 -724 719 0
-32 724 -719 0
-33 -724 719 0
-33 724 -719 0
-34 -719 724 0
-34 -715 724 0
-34 -724 719 715 0
-35 -724 719 0
-35 724 -719 0
-36 -724 719 0
-36 724 -719 0
-37 -719 724 0
-37 -716 724 0
-37 -724 719 716 0
-38 -724 719 0
-38 724 -719 0
-39 -719 724 0
-39 -717 724 0
-39 -724 719 717 0
-40 -719 724 0
-40 -718 724 0
-40 -724 719 718 0
-94 -724 719 0
-94 724 -719 0
-41 -725 720 0
-41 -725 721 0
-41 725 -720 -721 0
-42 -725 720 0
-42 -725 722 0
-42 725 -720 -722 0
-43 -725 720 0
-43 -725 723 0
-43 725 -720 -723 0
-44 -725 720 0
-44 -725 724 0
-44 725 -720 -724 0
-45 -725 720 0
-45 725 -720 0
-46 -725 720 0
-46 725 -720 0
-47 -725 720 0
-47 725 -720 0
-48 -725 720 0
-48 725 -720 0
-49 -725 720 0
-49 725 -720 0
-50 -725 720 0
-50 725 -720 0
-95 -725 720 0
-95 725 -720 0
-41 -721 726 0
-41 -720 726 0
-41 -726 721 720 0
-42 -726 721 0
-42 726 -721 0
-43 -726 721 0
-43 726 -721 0
-44 -726 721 0
-44 726 -721 0
-45 -726 721 0
-45 -726 722 0
-45 726 -721 -722 0
-46 -726 721 0
-46 -726 723 0
-46 726 -721 -723 0
-47 -726 721 0
-47 -726 724 0
-47 726 -721 -724 0
-48 -726 721 0
-48 726 -721 0
-49 -726 721 0
-49 726 -721 0
-50 -726 721 0
-50 726 -721 0
-95 -726 721 0
-95 726 -721 0
-41 -727 722 0
-41 727 -722 0
-42 -722 727 0
-42 -720 727 0
-42 -727 722 720 0
-43 -727 722 0
-43 727 -722 0
-44 -727 722 0
-44 727 -722 0
-45 -722 727 0
-45 -721 727 0
-45 -727 722 721 0
-46 -727 722 0
-46 727 -722 0
-47 -727 722 0
-47 727 -722 0
-48 -727 722 0
-48 -727 723 0
-48 727 -722 -723 0
-49 -727 722 0
-49 -727 724 0
-49 727 -722 -724 0
-50 -727 722 0
-50 727 -722 0
-95 -727 722 0
-95 727 -722 0
-41 -728 723 0
-41 728 -723 0
-42 -728 723 0
-42 728 -723 0
-43 -723 728 0
-43 -720 728 0
-43 -728 723 720 0
-44 -728 723 0
-44 728 -723 0
-45 -728 723 0
-45 728 -723 0
-46 -723 728 0
-46 -721 728 0
-46 -728 723 721 0
-47 -728 723 0
-47 728 -723 0
-48 -723 728 0
-48 -722 728 0
-48 -728 723 722 0
-49 -728 723 0
-49 728 -723 0
-50 -728 723 0
-50 -728 724 0
-50 728 -723 -724 0
-95 -728 723 0
-95 728 -723 0
-41 -729 724 0
-41 729 -724 0
-42 -729 724 0
-42 729 -724 0
-43 -729 724 0
-43 729 -724 0
-44 -724 729 0
-44 -720 729 0
-44 -729 724 720 0
-45 -729 724 0
-45 729 -724 0
-46 -729 724 0
-46 729 -724 0
-47 -724 729 0
-47 -721 729 0
-47 -729 724 721 0
-48 -729 724 0
-48 729 -724 0
-49 -724 729 0
-49 -722 729 0
-49 -729 724 722 0
-50 -724 729 0
-50 -723 729 0
-50 -729 724 723 0
-95 -729 724 0
-95 729 -724 0
-51 -730 725 0
-51 -730 726 0
-51 730 -725 -726 0
-52 -730 725 0
-52 -730 727 0
-52 730 -725 -727 0
-53 -730 725 0
-53 -730 728 0
-53 730 -725 -728 0
-54 -730 725 0
-54 -730 729 0
-54 730 -725 -729 0
-55 -730 725 0
-55 730 -725 0
-56 -730 725 0
-56 730 -725 0
-57 -730 725 0
-57 730 -725 0
-58 -730 725 0
-58 730 -725 0
-59 -730 725 0
-59 730 -725 0
-60 -730 725 0
-60 730 -725 0
-96 -730 725 0
-96 730 -725 0
-51 -726 731 0
-51 -725 731 0
-51 -731 726 725 0
-52 -731 726 0
-52 731 -726 0
-53 -731 726 0
-53 731 -726 0
-54 -731 726 0
-54 731 -726 0
-55 -731 726 0
-55 -731 727 0
-55 731 -726 -727 0
-56 -731 726 0
-56 -731 728 0
-56 731 -726 -728 0
-57 -731 726 0
-57 -731 729 0
-57 731 -726 -729 0
-58 -731 726 0
-58 731 -726 0
-59 -731 726 0
-59 731 -726 0
-60 -731 726 0
-60 731 -726 0
-96 -731 726 0
-96 731 -726 0
-51 -732 727 0
-51 732 -727 0
-52 -727 732 0
-52 -725 732 0
-52 -732 727 725 0
-53 -732 727 0
-53 732 -727 0
-54 -732 727 0
-54 732 -727 0
-55 -727 732 0
-55 -726 732 0
-55 -732 727 726 0
-56 -732 727 0
-56 732 -727 0
-57 -732 727 0
-57 732 -727 0
-58 -732 727 0
-58 -732 728 0
-58 732 -727 -728 0
-59 -732 727 0
-59 -732 729 0
-59 732 -727 -729 0
-60 -732 727 0
-60 732 -727 0
-96 -732 727 0
-96 732 -727 0
-51 -733 728 0
-51 733 -728 0
-52 -733 728 0
-52 733 -728 0
-53 -728 733 0
-53 -725 733 0
-53 -733 728 725 0
-54 -733 728 0
-54 733 -728 0
-55 -733 728 0
-55 733 -728 0
-56 -728 733 0
-56 -726 733 0
-56 -733 728 726 0
-57 -733 728 0
-57 733 -728 0
-58 -728 733 0
-58 -727 733 0
-58 -733 728 727 0
-59 -733 728 0
-59 733 -728 0
-60 -733 728 0
-60 -733 729 0
-60 733 -728 -729 0
-96 -733 728 0
-96 733 -728 0
-51 -734 729 0
-51 734 -729 0
-52 -734 729 0
-52 734 -729 0
-53 -734 729 0
-53 734 -729 0
-54 -729 734 0
-54 -725 734 0
-54 -734 729 725 0
-55 -734 729 0
-55 734 -729 0
-56 -734 729 0
-56 734 -729 0
-57 -729 734 0
-57 -726 734 0
-57 -734 729 726 0
-58 -734 729 0
-58 734 -729 0
-59 -729 734 0
-59 -727 734 0
-59 -734 729 727 0
-60 -729 734 0
-60 -728 734 0
-60 -734 729 728 0
-96 -734 729 0
-96 734 -729 0
-61 -735 730 0
-61 -735 731 0
-61 735 -730 -731 0
-62 -735 730 0
-62 -735 732 0
-62 735 -730 -732 0
-63 -735 730 0
-63 -735 733 0
-63 735 -730 -733 0
-64 -735 730 0
-64 -735 734 0
-64 735 -730 -734 0
-65 -735 730 0
-65 735 -730 0
-66 -735 730 0
-66 735 -730 0
-67 -735 730 0
-67 735 -730 0
-68 -735 730 0
-68 735 -730 0
-69 -735 730 0
-69 735 -730 0
-70 -735 730 0
-70 735 -730 0
-97 -735 730 0
-97 735 -730 0
-61 -731 736 0
-61 -730 736 0
-61 -736 731 730 0
-62 -736 731 0
-62 736 -731 0
-63 -736 731 0
-63 736 -731 0
-64 -736 731 0
-64 736 -731 0
-65 -736 731 0
-65 -736 732 0
-65 736 -731 -732 0
-66 -736 731 0
-66 -736 733 0
-66 736 -731 -733 0
-67 -736 731 0
-67 -736 734 0
-67 736 -731 -734 0
-68 -736 731 0
-68 736 -731 0
-69 -736 731 0
-69 736 -731 0
-70 -736 731 0
-70 736 -731 0
-97 -736 731 0
-97 736 -731 0
-61 -737 732 0
-61 737 -732 0
-62 -732 737 0
-62 -730 737 0
-62 -737 732 730 0
-63 -737 732 0
-63 737 -732 0
-64 -737 732 0
-64 737 -732 0
-65 -732 737 0
-65 -731 737 0
-65 -737 732 731 0
-66 -737 732 0
-66 737 -732 0
-67 -737 732 0
-67 737 -732 0
-68 -737 732 0
-68 -737 733 0
-68 737 -732 -733 0
-69 -737 732 0
-69 -737 734 0
-69 737 -732 -734 0
-70 -737 732 0
-70 737 -732 0
-97 -737 732 0
-97 737 -732 0
-61 -738 733 0
-61 738 -733 0
-62 -738 733 0
-62 738 -733 0
-63 -733 738 0
-63 -730 738 0
-63 -738 733 730 0
-64 -738 733 0
-64 738 -733 0
-65 -738 733 0
-65 738 -733 0
-66 -733 738 0
-66 -731 738 0
-66 -738 733 731 0
-67 -738 733 0
-67 738 -733 0
-68 -733 738 0
-68 -732 738 0
-68 -738 733 732 0
-69 -738 733 0
-69 738 -733 0
-70 -738 733 0
-70 -738 734 0
-70 738 -733 -734 0
-97 -738 733 0
-97 738 -733 0
-61 -739 734 0
-61 739 -734 0
-62 -739 734 0
-62 739 -734 0
-63 -739 734 0
-63 739 -734 0
-64 -734 739 0
-64 -730 739 0
-64 -739 734 730 0
-65 -739 734 0
-65 739 -734 0
-66 -739 734 0
-66 739 -734 0
-67 -734 739 0
-67 -731 739 0
-67 -739 734 731 0
-68 -739 734 0
-68 739 -734 0
-69 -734 739 0
-69 -732 739 0
-69 -739 734 732 0
-70 -734 739 0
-70 -733 739 0
-70 -739 734 733 0
-97 -739 734 0
-97 739 -734 0
-71 -740 735 0
-71 -740 736 0
-71 740 -735 -736 0
-72 -740 735 0
-72 -740 737 0
-72 740 -735 -737 0
-73 -740 735 0
-73 -740 738 0
-73 740 -735 -738 0
-74 -740 735 0
-74 -740 739 0
-74 740 -735 -739 0
-75 -740 735 0
-75 740 -735 0
-76 -740 735 0
-76 740 -735 0
-77 -740 735 0
-77 740 -735 0
-78 -740 735 0
-78 740 -735 0
-79 -740 735 0
-79 740 -735 0
-80 -740 735 0
-80 740 -735 0
-98 -740 735 0
-98 740 -735 0
-71 -736 741 0
-71 -735 741 0
-71 -741 736 735 0
-72 -741 736 0
-72 741 -736 0
-73 -741 736 0
-73 741 -736 0
-74 -741 736 0
-74 741 -736 0
-75 -741 736 0
-75 -741 737 0
-75 741 -736 -737 0
-76 -741 736 0
-76 -741 738 0
-76 741 -736 -738 0
-77 -741 736 0
-77 -741 739 0
-77 741 -736 -739 0
-78 -741 736 0
-78 741 -736 0
-79 -741 736 0
-79 741 -736 0
-80 -741 736 0
-80 741 -736 0
-98 -741 736 0
-98 741 -736 0
-71 -742 737 0
-71 742 -737 0
-72 -737 742 0
-72 -735 742 0
-72 -742 737 735 0
-73 -742 737 0
-73 742 -737 0
-74 -742 737 0
-74 742 -737 0
-75 -737 742 0
-75 -736 742 0
-75 -742 737 736 0
-76 -742 737 0
-76 742 -737 0
-77 -742 737 0
-77 742 -737 0
-78 -742 737 0
-78 -742 738 0
-78 742 -737 -738 0
-79 -742 737 0
-79 -742 739 0
-79 742 -737 -739 0
-80 -742 737 0
-80 742 -737 0
-98 -742 737 0
-98 742 -737 0
-71 -743 738 0
-71 743 -738 0
-72 -743 738 0
-72 743 -738 0
-73 -738 743 0
-73 -735 743 0
-73 -743 738 735 0
-74 -743 738 0
-74 743 -738 0
-75 -743 738 0
-75 743 -738 0
-76 -738 743 0
-76 -736 743 0
-76 -743 738 736 0
-77 -743 738 0
-77 743 -738 0
-78 -738 743 0
-78 -737 743 0
-78 -743 738 737 0
-79 -743 738 0
-79 743 -738 0
-80 -743 738 0
-80 -743 739 0
-80 743 -738 -739 0
-98 -743 738 0
-98 743 -738 0
-71 -744 739 0
-71 744 -739 0
-72 -744 739 0
-72 744 -739 0
-73 -744 739 0
-73 744 -739 0
-74 -739 744 0
-74 -735 744 0
-74 -744 739 735 0
-75 -744 739 0
-75 744 -739 0
-76 -744 739 0
-76 744 -739 0
-77 -739 744 0
-77 -736 744 0
-77 -744 739 736 0
-78 -744 739 0
-78 744 -739 0
-79 -739 744 0
-79 -737 744 0
-79 -744 739 737 0
-80 -739 744 0
-80 -738 744 0
-80 -744 739 738 0
-98 -744 739 0
-98 744 -739 0
-81 -745 740 0
-81 -745 741 0
-81 745 -740 -741 0
-82 -745 740 0
-82 -745 742 0
-82 745 -740 -742 0
-83 -745 740 0
-83 -745 743 0
-83 745 -740 -743 0
-84 -745 740 0
-84 -745 744 0
-84 745 -740 -744 0
-85 -745 740 0
-85 745 -740 0
-86 -745 740 0
-86 745 -740 0
-87 -745 740 0
-87 745 -740 0
-88 -745 740 0
-88 745 -740 0
-89 -745 740 0
-89 745 -740 0
-90 -745 740 0
-90 745 -740 0
-99 -745 740 0
-99 745 -740 0
-81 -741 746 0
-81 -740 746 0
-81 -746 741 740 0
-82 -746 741 0
-82 746 -741 0
-83 -746 741 0
-83 746 -741 0
-84 -746 741 0
-84 746 -741 0
-85 -746 741 0
-85 -746 742 0
-85 746 -741 -742 0
-86 -746 741 0
-86 -746 743 0
-86 746 -741 -743 0
-87 -746 741 0
-87 -746 744 0
-87 746 -741 -744 0
-88 -746 741 0
-88 746 -741 0
-89 -746 741 0
-89 746 -741 0
-90 -746 741 0
-90 746 -741 0
-99 -746 741 0
-99 746 -741 0
-81 -747 742 0
-81 747 -742 0
-82 -742 747 0
-82 -740 747 0
-82 -747 742 740 0
-83 -747 742 0
-83 747 -742 0
-84 -747 742 0
-84 747 -742 0
-85 -742 747 0
-85 -741 747 0
-85 -747 742 741 0
-86 -747 742 0
-86 747 -742 0
-87 -747 742 0
-87 747 -742 0
-88 -747 742 0
-88 -747 743 0
-88 747 -742 -743 0
-89 -747 742 0
-89 -747 744 0
-89 747 -742 -744 0
-90 -747 742 0
-90 747 -742 0
-99 -747 742 0
-99 747 -742 0
-81 -748 743 0
-81 748 -743 0
-82 -748 743 0
-82 748 -743 0
-83 -743 748 0
-83 -740 748 0
-83 -748 743 740 0
-84 -748 743 0
-84 748 -743 0
-85 -748 743 0
-85 748 -743 0
-86 -743 748 0
-86 -741 748 0
-86 -748 743 741 0
-87 -748 743 0
-87 748 -743 0
-88 -743 748 0
-88 -742 748 0
-88 -748 743 742 0
-89 -748 743 0
-89 748 -743 0
-90 -748 743 0
-90 -748 744 0
-90 748 -743 -744 0
-99 -748 743 0
-99 748 -743 0
-81 -749 744 0
-81 749 -744 0
-82 -749 744 0
-82 749 -744 0
-83 -749 744 0
-83 749 -744 0
-84 -744 749 0
-84 -740 749 0
-84 -749 744 740 0
-85 -749 744 0
-85 749 -744 0
-86 -749 744 0
-86 749 -744 0
-87 -744 749 0
-87 -741 749 0
-87 -749 744 741 0
-88 -749 744 0
-88 749 -744 0
-89 -744 749 0
-89 -742 749 0
-89 -749 744 742 0
-90 -744 749 0
-90 -743 749 0
-90 -749 744 743 0
-99 -749 744 0
-99 749 -744 0
750 0
-1 -755 750 0
-1 -755 751 0
-1 755 -750 -751 0
-2 -755 750 0
-2 -755 752 0
-2 755 -750 -752 0
-3 -755 750 0
-3 -755 753 0
-3 755 -750 -753 0
-4 -755 750 0
-4 -755 754 0
-4 755 -750 -754 0
-5 -755 750 0
-5 755 -750 0
-6 -755 750 0
-6 755 -750 0
-7 -755 750 0
-7 755 -750 0
-8 -755 750 0
-8 755 -750 0
-9 -755 750 0
-9 755 -750 0
-10 -755 750 0
-10 755 -750 0
-91 -755 750 0
-91 755 -750 0
-751 0
-1 -751 756 0
-1 -750 756 0
-1 -756 751 750 0
-2 -756 751 0
-2 756 -751 0
-3 -756 751 0
-3 756 -751 0
-4 -756 751 0
-4 756 -751 0
-5 -756 751 0
-5 -756 752 0
-5 756 -751 -752 0
-6 -756 751 0
-6 -756 753 0
-6 756 -751 -753 0
-7 -756 751 0
-7 -756 754 0
-7 756 -751 -754 0
-8 -756 751 0
-8 756 -751 0
-9 -756 751 0
-9 756 -751 0
-10 -756 751 0
-10 756 -751 0
-91 -756 751 0
-91 756 -751 0
-752 0
-1 -757 752 0
-1 757 -752 0
-2 -752 757 0
-2 -750 757 0
-2 -757 752 750 0
-3 -757 752 0
-3 757 -752 0
-4 -757 752 0
-4 757 -752 0
-5 -752 757 0
-5 -751 757 0
-5 -757 752 751 0
-6 -757 752 0
-6 757 -752 0
-7 -757 752 0
-7 757 -752 0
-8 -757 752 0
-8 -757 753 0
-8 757 -752 -753 0
-9 -757 752 0
-9 -757 754 0
-9 757 -752 -754 0
-10 -757 752 0
-10 757 -752 0
-91 -757 752 0
-91 757 -752 0
753 0
-1 -758 753 0
-1 758 -753 0
-2 -758 753 0
-2 758 -753 0
-3 -753 758 0
-3 -750 758 0
-3 -758 753 750 0
-4 -758 753 0
-4 758 -753 0
-5 -758 753 0
-5 758 -753 0
-6 -753 758 0
-6 -751 758 0
-6 -758 753 751 0
-7 -758 753 0
-7 758 -753 0
-8 -753 758 0
-8 -752 758 0
-8 -758 753 752 0
-9 -758 753 0
-9 758 -753 0
-10 -758 753 0
-10 -758 754 0
-10 758 -753 -754 0
-91 -758 753 0
-91 758 -753 0
-754 0
-1 -759 754 0
-1 759 -754 0
-2 -759 754 0
-2 759 -754 0
-3 -759 754 0
-3 759 -754 0
-4 -754 759 0
-4 -750 759 0
-4 -759 754 750 0
-5 -759 754 0
-5 759 -754 0
-6 -759 754 0
-6 759 -754 0
-7 -754 759 0
-7 -751 759 0
-7 -759 754 751 0
-8 -759 754 0
-8 759 -754 0
-9 -754 759 0
-9 -752 759 0
-9 -759 754 752 0
-10 -754 759 0
-10 -753 759 0
-10 -759 754 753 0
-91 -759 754 0
-91 759 -754 0
-11 -760 755 0
-11 -760 756 0
-11 760 -755 -756 0
-12 -760 755 0
-12 -760 757 0
-12 760 -755 -757 0
-13 -760 755 0
-13 -760 758 0
-13 760 -755 -758 0
-14 -760 755 0
-14 -760 759 0
-14 760 -755 -759 0
-15 -760 755 0
-15 760 -755 0
-16 -760 755 0
-16 760 -755 0
-17 -760 755 0
-17 760 -755 0
-18 -760 755 0
-18 760 -755 0
-19 -760 755 0
-19 760 -755 0
-20 -760 755 0
-20 760 -755 0
-92 -760 755 0
-92 760 -755 0
-11 -756 761 0
-11 -755 761 0
-11 -761 756 755 0
-12 -761 756 0
-12 761 -756 0
-13 -761 756 0
-13 761 -756 0
-14 -761 756 0
-14 761 -756 0
-15 -761 756 0
-15 -761 757 0
-15 761 -756 -757 0
-16 -761 756 0
-16 -761 758 0
-16 761 -756 -758 0
-17 -761 756 0
-17 -761 759 0
-17 761 -756 -759 0
-18 -761 756 0
-18 761 -756 0
-19 -761 756 0
-19 761 -756 0
-20 -761 756 0
-20 761 -756 0
-92 -761 756 0
-92 761 -756 0
-11 -762 757 0
-11 762 -757 0
-12 -757 762 0
-12 -755 762 0
-12 -762 757 755 0
-13 -762 757 0
-13 762 -757 0
-14 -762 757 0
-14 762 -757 0
-15 -757 762 0
-15 -756 762 0
-15 -762 757 756 0
-16 -762 757 0
-16 762 -757 0
-17 -762 757 0
-17 762 -757 0
-18 -762 757 0
-18 -762 758 0
-18 762 -757 -758 0
-19 -762 757 0
-19 -762 759 0
-19 762 -757 -759 0
-20 -762 757 0
-20 762 -757 0
-92 -762 757 0
-92 762 -757 0
-11 -763 758 0
-11 763 -758 0
-12 -763 758 0
-12 763 -758 0
-13 -758 763 0
-13 -755 763 0
-13 -763 758 755 0
-14 -763 758 0
-14 763 -758 0
-15 -763 758 0
-15 763 -758 0
-16 -758 763 0
-16 -756 763 0
-16 -763 758 756 0
-17 -763 758 0
-17 763 -758 0
-18 -758 763 0
-18 -757 763 0
-18 -763 758 757 0
-19 -763 758 0
-19 763 -758 0
-20 -763 758 0
-20 -763 759 0
-20 763 -758 -759 0
-92 -763 758 0
-92 763 -758 0
-11 -764 759 0
-11 764 -759 0
-12 -764 759 0
-12 764 -759 0
-13 -764 759 0
-13 764 -759 0
-14 -759 764 0
-14 -755 764 0
-14 -764 759 755 0
-15 -764 759 0
-15 764 -759 0
-16 -764 759 0
-16 764 -759 0
-17 -759 764 0
-17 -756 764 0
-17 -764 759 756 0
-18 -764 759 0
-18 764 -759 0
-19 -759 764 0
-19 -757 764 0
-19 -764 759 757 0
-20 -759 764 0
-20 -758 764 0
-20 -764 759 758 0
-92 -764 759 0
-92 764 -759 0
-21 -765 760 0
-21 -765 761 0
-21 765 -760 -761 0
-22 -765 760 0
-22 -765 762 0
-22 765 -760 -762 0
-23 -765 760 0
-23 -765 763 0
-23 765 -760 -763 0
-24 -765 760 0
-24 -765 764 0
-24 765 -760 -764 0
-25 -765 760 0
-25 765 -760 0
-26 -765 760 0
-26 765 -760 0
-27 -765 760 0
-27 765 -760 0
-28 -765 760 0
-28 765 -760 0
-29 -765 760 0
-29 765 -760 0
-30 -765 760 0
-30 765 -760 0
-93 -765 760 0
-93 765 -760 0
-21 -761 766 0
-21 -760 766 0
-21 -766 761 760 0
-22 -766 761 0
-22 766 -761 0
-23 -766 761 0
-23 766 -761 0
-24 -766 761 0
-24 766 -761 0
-25 -766 761 0
-25 -766 762 0
-25 766 -761 -762 0
-26 -766 761 0
-26 -766 763 0
-26 766 -761 -763 0
-27 -766 761 0
-27 -766 764 0
-27 766 -761 -764 0
-28 -766 761 0
-28 766 -761 0
-29 -766 761 0
-29 766 -761 0
-30 -766 761 0
-30 766 -761 0
-93 -766 761 0
-93 766 -761 0
-21 -767 762 0
-21 767 -762 0
-22 -762 767 0
-22 -760 767 0
-22 -767 762 760 0
-23 -767 762 0
-23 767 -762 0
-24 -767 762 0
-24 767 -762 0
-25 -762 767 0
-25 -761 767 0
-25 -767 762 761 0
-26 -767 762 0
-26 767 -762 0
-27 -767 762 0
-27 767 -762 0
-28 -767 762 0
-28 -767 763 0
-28 767 -762 -763 0
-29 -767 762 0
-29 -767 764 0
-29 767 -762 -764 0
-30 -767 762 0
-30 767 -762 0
-93 -767 762 0
-93 767 -762 0
-21 -768 763 0
-21 768 -763 0
-22 -768 763 0
-22 768 -763 0
-23 -763 768 0
-23 -760 768 0
-23 -768 763 760 0
-24 -768 763 0
-24 768 -763 0
-25 -768 763 0
-25 768 -763 0
-26 -763 768 0
-26 -761 768 0
-26 -768 763 761 0
-27 -768 763 0
-27 768 -763 0
-28 -763 768 0
-28 -762 768 0
-28 -768 763 762 0
-29 -768 763 0
-29 768 -763 0
-30 -768 763 0
-30 -768 764 0
-30 768 -763 -764 0
-93 -768 763 0
-93 768 -763 0
-21 -769 764 0
-21 769 -764 0
-22 -769 764 0
-22 769 -764 0
-23 -769 764 0
-23 769 -764 0
-24 -764 769 0
-24 -760 769 0
-24 -769 764 760 0
-25 -769 764 0
-25 769 -764 0
-26 -769 764 0
-26 769 -764 0
-27 -764 769 0
-27 -761 769 0
-27 -769 764 761 0
-28 -769 764 0
-28 769 -764 0
-29 -764 769 0
-29 -762 769 0
-29 -769 764 762 0
-30 -764 769 0
-30 -763 769 0
-30 -769 764 763 0
-93 -769 764 0
-93 769 -764 0
-31 -770 765 0
-31 -770 766 0
-31 770 -765 -766 0
-32 -770 765 0
-32 -770 767 0
-32 770 -765 -767 0
-33 -770 765 0
-33 -770 768 0
-33 770 -765 -768 0
-34 -770 765 0
-34 -770 769 0
-34 770 -765 -769 0
-35 -770 765 0
-35 770 -765 0
-36 -770 765 0
-36 770 -765 0
-37 -770 765 0
-37 770 -765 0
-38 -770 765 0
-38 770 -765 0
-39 -770 765 0
-39 770 -765 0
-40 -770 765 0
-40 770 -765 0
-94 -770 765 0
-94 770 -765 0
-31 -766 771 0
-31 -765 771 0
-31 -771 766 765 0
-32 -771 766 0
-32 771 -766 0
-33 -771 766 0
-33 771 -766 0
-34 -771 766 0
-34 771 -766 0
-35 -771 766 0
-35 -771 767 0
-35 771 -766 -767 0
-36 -771 766 0
-36 -771 768 0
-36 771 -766 -768 0
-37 -771 766 0
-37 -771 769 0
-37 771 -766 -769 0
-38 -771 766 0
-38 771 -766 0
-39 -771 766 0
-39 771 -766 0
-40 -771 766 0
-40 771 -766 0
-94 -771 766 0
-94 771 -766 0
-31 -772 767 0
-31 772 -767 0
-32 -767 772 0
-32 -765 772 0
-32 -772 767 765 0
-33 -772 767 0
-33 772 -767 0
-34 -772 767 0
-34 772 -767 0
-35 -767 772 0
-35 -766 772 0
-35 -772 767 766 0
-36 -772 767 0
-36 772 -767 0
-37 -772 767 0
-37 772 -767 0
-38 -772 767 0
-38 -772 768 0
-38 772 -767 -768 0
-39 -772 767 0
-39 -772 769 0
-39 772 -767 -769 0
-40 -772 767 0
-40 772 -767 0
-94 -772 767 0
-94 772 -767 0
-31 -773 768 0
-31 773 -768 0
-32 -773 768 0
-32 773 -768 0
-33 -768 773 0
-33 -765 773 0
-33 -773 768 765 0
-34 -773 768 0
-34 773 -768 0
-35 -773 768 0
-35 773 -768 0
-36 -768 773 0
-36 -766 773 0
-36 -773 768 766 0
-37 -773 768 0
-37 773 -768 0
-38 -768 773 0
-38 -767 773 0
-38 -773 768 767 0
-39 -773 768 0
-39 773 -768 0
-40 -773 768 0
-40 -773 769 0
-40 773 -768 -769 0
-94 -773 768 0
-94 773 -768 0
-31 -774 769 0
-31 774 -769 0
-32 -774 769 0
-32 774 -769 0
-33 -774 769 0
-33 774 -769 0
-34 -769 774 0
-34 -765 774 0
-34 -774 769 765 0
-35 -774 769 0
-35 774 -769 0
-36 -774 769 0
-36 774 -769 0
-37 -769 774 0
-37 -766 774 0
-37 -774 769 766 0
-38 -774 769 0
-38 774 -769 0
-39 -769 774 0
-39 -767 774 0
-39 -774 769 767 0
-40 -769 774 0
-40 -768 774 0
-40 -774 769 768 0
-94 -774 769 0
-94 774 -769 0
-41 -775 770 0
-41 -775 771 0
-41 775 -770 -771 0
-42 -775 770 0
-42 -775 772 0
-42 775 -770 -772 0
-43 -775 770 0
-43 -775 773 0
-43 775 -770 -773 0
-44 -775 770 0
-44 -775 774 0
-44 775 -770 -774 0
-45 -775 770 0
-45 775 -770 0
-46 -775 770 0
-46 775 -770 0
-47 -775 770 0
-47 775 -770 0
-48 -775 770 0
-48 775 -770 0
-49 -775 770 0
-49 775 -770 0
-50 -775 770 0
-50 775 -770 0
-95 -775 770 0
-95 775 -770 0
-41 -771 776 0
-41 -770 776 0
-41 -776 771 770 0
-42 -776 771 0
-42 776 -771 0
-43 -776 771 0
-43 776 -771 0
-44 -776 771 0
-44 776 -771 0
-45 -776 771 0
-45 -776 772 0
-45 776 -771 -772 0
-46 -776 771 0
-46 -776 773 0
-46 776 -771 -773 0
-47 -776 771 0
-47 -776 774 0
-47 776 -771 -774 0
-48 -776 771 0
-48 776 -771 0
-49 -776 771 0
-49 776 -771 0
-50 -776 771 0
-50 776 -771 0
-95 -776 771 0
-95 776 -771 0
-41 -777 772 0
-41 777 -772 0
-42 -772 777 0
-42 -770 777 0
-42 -777 772 770 0
-43 -777 772 0
-43 777 -772 0
-44 -777 772 0
-44 777 -772 0
-45 -772 777 0
-45 -771 777 0
-45 -777 772 771 0
-46 -777 772 0
-46 777 -772 0
-47 -777 772 0
-47 777 -772 0
-48 -777 772 0
-48 -777 773 0
-48 777 -772 -773 0
-49 -777 772 0
-49 -777 774 0
-49 777 -772 -774 0
-50 -777 772 0
-50 777 -772 0
-95 -777 772 0
-95 777 -772 0
-41 -778 773 0
-41 778 -773 0
-42 -778 773 0
-42 778 -773 0
-43 -773 778 0
-43 -770 778 0
-43 -778 773 770 0
-44 -778 773 0
-44 778 -773 0
-45 -778 773 0
-45 778 -773 0
-46 -773 778 0
-46 -771 778 0
-46 -778 773 771 0
-47 -778 773 0
-47 778 -773 0
-48 -773 778 0
-48 -772 778 0
-48 -778 773 772 0
-49 -778 773 0
-49 778 -773 0
-50 -778 773 0
-50 -778 774 0
-50 778 -773 -774 0
-95 -778 773 0
-95 778 -773 0
-41 -779 774 0
-41 779 -774 0
-42 -779 774 0
-42 779 -774 0
-43 -779 774 0
-43 779 -774 0
-44 -774 779 0
-44 -770 779 0
-44 -779 774 770 0
-45 -779 774 0
-45 779 -774 0
-46 -779 774 0
-46 779 -774 0
-47 -774 779 0
-47 -771 779 0
-47 -779 774 771 0
-48 -779 774 0
-48 779 -774 0
-49 -774 779 0
-49 -772 779 0
-49 -779 774 772 0
-50 -774 779 0
-50 -773 779 0
-50 -779 774 773 0
-95 -779 774 0
-95 779 -774 0
-51 -780 775 0
-51 -780 776 0
-51 780 -775 -776 0
-52 -780 775 0
-52 -780 777 0
-52 780 -775 -777 0
-53 -780 775 0
-53 -780 778 0
-53 780 -775 -778 0
-54 -780 775 0
-54 -780 779 0
-54 780 -775 -779 0
-55 -780 775 0
-55 780 -775 0
-56 -780 775 0
-56 780 -775 0
-57 -780 775 0
-57 780 -775 0
-58 -780 775 0
-58 780 -775 0
-59 -780 775 0
-59 780 -775 0
-60 -780 775 0
-60 780 -775 0
-96 -780 775 0
-96 780 -775 0
-51 -776 781 0
-51 -775 781 0
-51 -781 776 775 0
-52 -781 776 0
-52 781 -776 0
-53 -781 776 0
-53 781 -776 0
-54 -781 776 0
-54 781 -776 0
-55 -781 776 0
-55 -781 777 0
-55 781 -776 -777 0
-56 -781 776 0
-56 -781 778 0
-56 781 -776 -778 0
-57 -781 776 0
-57 -781 779 0
-57 781 -776 -779 0
-58 -781 776 0
-58 781 -776 0
-59 -781 776 0
-59 781 -776 0
-60 -781 776 0
-60 781 -776 0
-96 -781 776 0
-96 781 -776 0
-51 -782 777 0
-51 782 -777 0
-52 -777 782 0
-52 -775 782 0
-52 -782 777 775 0
-53 -782 777 0
-53 782 -777 0
-54 -782 777 0
-54 782 -777 0
-55 -777 782 0
-55 -776 782 0
-55 -782 777 776 0
-56 -782 777 0
-56 782 -777 0
-57 -782 777 0
-57 782 -777 0
-58 -782 777 0
-58 -782 778 0
-58 782 -777 -778 0
-59 -782 777 0
-59 -782 779 0
-59 782 -777 -779 0
-60 -782 777 0
-60 782 -777 0
-96 -782 777 0
-96 782 -777 0
-51 -783 778 0
-51 783 -778 0
-52 -783 778 0
-52 783 -778 0
-53 -778 783 0
-53 -775 783 0
-53 -783 778 775 0
-54 -783 778 0
-54 783 -778 0
-55 -783 778 0
-55 783 -778 0
-56 -778 783 0
-56 -776 783 0
-56 -783 778 776 0
-57 -783 778 0
-57 783 -778 0
-58 -778 783 0
-58 -777 783 0
-58 -783 778 777 0
-59 -783 778 0
-59 783 -778 0
-60 -783 778 0
-60 -783 779 0
-60 783 -778 -779 0
-96 -783 778 0
-96 783 -778 0
-51 -784 779 0
-51 784 -779 0
-52 -784 779 0
-52 784 -779 0
-53 -784 779 0
-53 784 -779 0
-54 -779 784 0
-54 -775 784 0
-54 -784 779 775 0
-55 -784 779 0
-55 784 -779 0
-56 -784 779 0
-56 784 -779 0
-57 -779 784 0
-57 -776 784 0
-57 -784 779 776 0
-58 -784 779 0
-58 784 -779 0
-59 -779 784 0
-59 -777 784 0
-59 -784 779 777 0
-60 -779 784 0
-60 -778 784 0
-60 -784 779 778 0
-96 -784 779 0
-96 784 -779 0
-61 -785 780 0
-61 -785 781 0
-61 785 -780 -781 0
-62 -785 780 0
-62 -785 782 0
-62 785 -780 -782 0
-63 -785 780 0
-63 -785 783 0
-63 785 -780 -783 0
-64 -785 780 0
-64 -785 784 0
-64 785 -780 -784 0
-65 -785 780 0
-65 785 -780 0
-66 -785 780 0
-66 785 -780 0
-67 -785 780 0
-67 785 -780 0
-68 -785 780 0
-68 785 -780 0
-69 -785 780 0
-69 785 -780 0
-70 -785 780 0
-70 785 -780 0
-97 -785 780 0
-97 785 -780 0
-61 -781 786 0
-61 -780 786 0
-61 -786 781 780 0
-62 -786 781 0
-62 786 -781 0
-63 -786 781 0
-63 786 -781 0
-64 -786 781 0
-64 786 -781 0
-65 -786 781 0
-65 -786 782 0
-65 786 -781 -782 0
-66 -786 781 0
-66 -786 783 0
-66 786 -781 -783 0
-67 -786 781 0
-67 -786 784 0
-67 786 -781 -784 0
-68 -786 781 0
-68 786 -781 0
-69 -786 781 0
-69 786 -781 0
-70 -786 781 0
-70 786 -781 0
-97 -786 781 0
-97 786 -781 0
-61 -787 782 0
-61 787 -782 0
-62 -782 787 0
-62 -780 787 0
-62 -787 782 780 0
-63 -787 782 0
-63 787 -782 0
-64 -787 782 0
-64 787 -782 0
-65 -782 787 0
-65 -781 787 0
-65 -787 782 781 0
-66 -787 782 0
-66 787 -782 0
-67 -787 782 0
-67 787 -782 0
-68 -787 782 0
-68 -787 783 0
-68 787 -782 -783 0
-69 -787 782 0
-69 -787 784 0
-69 787 -782 -784 0
-70 -787 782 0
-70 787 -782 0
-97 -787 782 0
-97 787 -782 0
-61 -788 783 0
-61 788 -783 0
-62 -788 783 0
-62 788 -783 0
-63 -783 788 0
-63 -780 788 0
-63 -788 783 780 0
-64 -788 783 0
-64 788 -783 0
-65 -788 783 0
-65 788 -783 0
-66 -783 788 0
-66 -781 788 0
-66 -788 783 781 0
-67 -788 783 0
-67 788 -783 0
-68 -783 788 0
-68 -782 788 0
-68 -788 783 782 0
-69 -788 783 0
-69 788 -783 0
-70 -788 783 0
-70 -788 784 0
-70 788 -783 -784 0
-97 -788 783 0
-97 788 -783 0
-61 -789 784 0
-61 789 -784 0
-62 -789 784 0
-62 789 -784 0
-63 -789 784 0
-63 789 -784 0
-64 -784 789 0
-64 -780 789 0
-64 -789 784 780 0
-65 -789 784 0
-65 789 -784 0
-66 -789 784 0
-66 789 -784 0
-67 -784 789 0
-67 -781 789 0
-67 -789 784 781 0
-68 -789 784 0
-68 789 -784 0
-69 -784 789 0
-69 -782 789 0
-69 -789 784 782 0
-70 -784 789 0
-70 -783 789 0
-70 -789 784 783 0
-97 -789 784 0
-97 789 -784 0
-71 -790 785 0
-71 -790 786 0
-71 790 -785 -786 0
-72 -790 785 0
-72 -790 787 0
-72 790 -785 -787 0
-73 -790 785 0
-73 -790 788 0
-73 790 -785 -788 0
-74 -790 785 0
-74 -790 789 0
-74 790 -785 -789 0
-75 -790 785 0
-75 790 -785 0
-76 -790 785 0
-76 790 -785 0
-77 -790 785 0
-77 790 -785 0
-78 -790 785 0
-78 790 -785 0
-79 -790 785 0
-79 790 -785 0
-80 -790 785 0
-80 790 -785 0
-98 -790 785 0
-98 790 -785 0
-71 -786 791 0
-71 -785 791 0
-71 -791 786 785 0
-72 -791 786 0
-72 791 -786 0
-73 -791 786 0
-73 791 -786 0
-74 -791 786 0
-74 791 -786 0
-75 -791 786 0
-75 -791 787 0
-75 791 -786 -787 0
-76 -791 786 0
-76 -791 788 0
-76 791 -786 -788 0
-77 -791 786 0
-77 -791 789 0
-77 791 -786 -789 0
-78 -791 786 0
-78 791 -786 0
-79 -791 786 0
-79 791 -786 0
-80 -791 786 0
-80 791 -786 0
-98 -791 786 0
-98 791 -786 0
-71 -792 787 0
-71 792 -787 0
-72 -787 792 0
-72 -785 792 0
-72 -792 787 785 0
-73 -792 787 0
-73 792 -787 0
-74 -792 787 0
-74 792 -787 0
-75 -787 792 0
-75 -786 792 0
-75 -792 787 786 0
-76 -792 787 0
-76 792 -787 0
-77 -792 787 0
-77 792 -787 0
-78 -792 787 0
-78 -792 788 0
-78 792 -787 -788 0
-79 -792 787 0
-79 -792 789 0
-79 792 -787 -789 0
-80 -792 787 0
-80 792 -787 0
-98 -792 787 0
-98 792 -787 0
-71 -793 788 0
-71 793 -788 0
-72 -793 788 0
-72 793 -788 0
-73 -788 793 0
-73 -785 793 0
-73 -793 788 785 0
-74 -793 788 0
-74 793 -788 0
-75 -793 788 0
-75 793 -788 0
-76 -788 793 0
-76 -786 793 0
-76 -793 788 786 0
-77 -793 788 0
-77 793 -788 0
-78 -788 793 0
-78 -787 793 0
-78 -793 788 787 0
-79 -793 788 0
-79 793 -788 0
-80 -793 788 0
-80 -793 789 0
-80 793 -788 -789 0
-98 -793 788 0
-98 793 -788 0
-71 -794 789 0
-71 794 -789 0
-72 -794 789 0
-72 794 -789 0
-73 -794 789 0
-73 794 -789 0
-74 -789 794 0
-74 -785 794 0
-74 -794 789 785 0
-75 -794 789 0
-75 794 -789 0
-76 -794 789 0
-76 794 -789 0
-77 -789 794 0
-77 -786 794 0
-77 -794 789 786 0
-78 -794 789 0
-78 794 -789 0
-79 -789 794 0
-79 -787 794 0
-79 -794 789 787 0
-80 -789 794 0
-80 -788 794 0
-80 -794 789 788 0
-98 -794 789 0
-98 794 -789 0
-81 -795 790 0
-81 -795 791 0
-81 795 -790 -791 0
-82 -795 790 0
-82 -795 792 0
-82 795 -790 -792 0
-83 -795 790 0
-83 -795 793 0
-83 795 -790 -793 0
-84 -795 790 0
-84 -795 794 0
-84 795 -790 -794 0
-85 -795 790 0
-85 795 -790 0
-86 -795 790 0
-86 795 -790 0
-87 -795 790 0
-87 795 -790 0
-88 -795 790 0
-88 795 -790 0
-89 -795 790 0
-89 795 -790 0
-90 -795 790 0
-90 795 -790 0
-99 -795 790 0
-99 795 -790 0
-81 -791 796 0
-81 -790 796 0
-81 -796 791 790 0
-82 -796 791 0
-82 796 -791 0
-83 -796 791 0
-83 796 -791 0
-84 -796 791 0
-84 796 -791 0
-85 -796 791 0
-85 -796 792 0
-85 796 -791 -792 0
-86 -796 791 0
-86 -796 793 0
-86 796 -791 -793 0
-87 -796 791 0
-87 -796 794 0
-87 796 -791 -794 0
-88 -796 791 0
-88 796 -791 0
-89 -796 791 0
-89 796 -791 0
-90 -796 791 0
-90 796 -791 0
-99 -796 791 0
-99 796 -791 0
-81 -797 792 0
-81 797 -792 0
-82 -792 797 0
-82 -790 797 0
-82 -797 792 790 0
-83 -797 792 0
-83 797 -792 0
-84 -797 792 0
-84 797 -792 0
-85 -792 797 0
-85 -791 797 0
-85 -797 792 791 0
-86 -797 792 0
-86 797 -792 0
-87 -797 792 0
-87 797 -792 0
-88 -797 792 0
-88 -797 793 0
-88 797 -792 -793 0
-89 -797 792 0
-89 -797 794 0
-89 797 -792 -794 0
-90 -797 792 0
-90 797 -792 0
-99 -797 792 0
-99 797 -792 0
-81 -798 793 0
-81 798 -793 0
-82 -798 793 0
-82 798 -793 0
-83 -793 798 0
-83 -790 798 0
-83 -798 793 790 0
-84 -798 793 0
-84 798 -793 0
-85 -798 793 0
-85 798 -793 0
-86 -793 798 0
-86 -791 798 0
-86 -798 793 791 0
-87 -798 793 0
-87 798 -793 0
-88 -793 798 0
-88 -792 798 0
-88 -798 793 792 0
-89 -798 793 0
-89 798 -793 0
-90 -798 793 0
-90 -798 794 0
-90 798 -793 -794 0
-99 -798 793 0
-99 798 -793 0
-81 -799 794 0
-81 799 -794 0
-82 -799 794 0
-82 799 -794 0
-83 -799 794 0
-83 799 -794 0
-84 -794 799 0
-84 -790 799 0
-84 -799 794 790 0
-85 -799 794 0
-85 799 -794 0
-86 -799 794 0
-86 799 -794 0
-87 -794 799 0
-87 -791 799 0
-87 -799 794 791 0
-88 -799 794 0
-88 799 -794 0
-89 -794 799 0
-89 -792 799 0
-89 -799 794 792 0
-90 -794 799 0
-90 -793 799 0
-90 -799 794 793 0
-99 -799 794 0
-99 799 -794 0
800 0
-1 -805 800 0
-1 -805 801 0
-1 805 -800 -801 0
-2 -805 800 0
-2 -805 802 0
-2 805 -800 -802 0
-3 -805 800 0
-3 -805 803 0
-3 805 -800 -803 0
-4 -805 800 0
-4 -805 804 0
-4 805 -800 -804 0
-5 -805 800 0
-5 805 -800 0
-6 -805 800 0
-6 805 -800 0
-7 -805 800 0
-7 805 -800 0
-8 -805 800 0
-8 805 -800 0
-9 -805 800 0
-9 805 -800 0
-10 -805 800 0
-10 805 -800 0
-91 -805 800 0
-91 805 -800 0
-801 0
-1 -801 806 0
-1 -800 806 0
-1 -806 801 800 0
-2 -806 801 0
-2 806 -801 0
-3 -806 801 0
-3 806 -801 0
-4 -806 801 0
-4 806 -801 0
-5 -806 801 0
-5 -806 802 0
-5 806 -801 -802 0
-6 -806 801 0
-6 -806 803 0
-6 806 -801 -803 0
-7 -806 801 0
-7 -806 804 0
-7 806 -801 -804 0
-8 -806 801 0
-8 806 -801 0
-9 -806 801 0
-9 806 -801 0
-10 -806 801 0
-10 806 -801 0
-91 -806 801 0
-91 806 -801 0
-802 0
-1 -807 802 0
-1 807 -802 0
-2 -802 807 0
-2 -800 807 0
-2 -807 802 800 0
-3 -807 802 0
-3 807 -802 0
-4 -807 802 0
-4 807 -802 0
-5 -802 807 0
-5 -801 807 0
-5 -807 802 801 0
-6 -807 802 0
-6 807 -802 0
-7 -807 802 0
-7 807 -802 0
-8 -807 802 0
-8 -807 803 0
-8 807 -802 -803 0
-9 -807 802 0
-9 -807 804 0
-9 807 -802 -804 0
-10 -807 802 0
-10 807 -802 0
-91 -807 802 0
-91 807 -802 0
803 0
-1 -808 803 0
-1 808 -803 0
-2 -808 803 0
-2 808 -803 0
-3 -803 808 0
-3 -800 808 0
-3 -808 803 800 0
-4 -808 803 0
-4 808 -803 0
-5 -808 803 0
-5 808 -803 0
-6 -803 808 0
-6 -801 808 0
-6 -808 803 801 0
-7 -808 803 0
-7 808 -803 0
-8 -803 808 0
-8 -802 808 0
-8 -808 803 802 0
-9 -808 803 0
-9 808 -803 0
-10 -808 803 0
-10 -808 804 0
-10 808 -803 -804 0
-91 -808 803 0
-91 808 -803 0
804 0
-1 -809 804 0
-1 809 -804 0
-2 -809 804 0
-2 809 -804 0
-3 -809 804 0
-3 809 -804 0
-4 -804 809 0
-4 -800 809 0
-4 -809 804 800 0
-5 -809 804 0
-5 809 -804 0
-6 -809 804 0
-6 809 -804 0
-7 -804 809 0
-7 -801 809 0
-7 -809 804 801 0
-8 -809 804 0
-8 809 -804 0
-9 -804 809 0
-9 -802 809 0
-9 -809 804 802 0
-10 -804 809 0
-10 -803 809 0
-10 -809 804 803 0
-91 -809 804 0
-91 809 -804 0
-11 -810 805 0
-11 -810 806 0
-11 810 -805 -806 0
-12 -810 805 0
-12 -810 807 0
-12 810 -805 -807 0
-13 -810 805 0
-13 -810 808 0
-13 810 -805 -808 0
-14 -810 805 0
-14 -810 809 0
-14 810 -805 -809 0
-15 -810 805 0
-15 810 -805 0
-16 -810 805 0
-16 810 -805 0
-17 -810 805 0
-17 810 -805 0
-18 -810 805 0
-18 810 -805 0
-19 -810 805 0
-19 810 -805 0
-20 -810 805 0
-20 810 -805 0
-92 -810 805 0
-92 810 -805 0
-11 -806 811 0
-11 -805 811 0
-11 -811 806 805 0
-12 -811 806 0
-12 811 -806 0
-13 -811 806 0
-13 811 -806 0
-14 -811 806 0
-14 811 -806 0
-15 -811 806 0
-15 -811 807 0
-15 811 -806 -807 0
-16 -811 806 0
-16 -811 808 0
-16 811 -806 -808 0
-17 -811 806 0
-17 -811 809 0
-17 811 -806 -809 0
-18 -811 806 0
-18 811 -806 0
-19 -811 806 0
-19 811 -806 0
-20 -811 806 0
-20 811 -806 0
-92 -811 806 0
-92 811 -806 0
-11 -812 807 0
-11 812 -807 0
-12 -807 812 0
-12 -805 812 0
-12 -812 807 805 0
-13 -812 807 0
-13 812 -807 0
-14 -812 807 0
-14 812 -807 0
-15 -807 812 0
-15 -806 812 0
-15 -812 807 806 0
-16 -812 807 0
-16 812 -807 0
-17 -812 807 0
-17 812 -807 0
-18 -812 807 0
-18 -812 808 0
-18 812 -807 -808 0
-19 -812 807 0
-19 -812 809 0
-19 812 -807 -809 0
-20 -812 807 0
-20 812 -807 0
-92 -812 807 0
-92 812 -807 0
-11 -813 808 0
-11 813 -808 0
-12 -813 808 0
-12 813 -808 0
-13 -808 813 0
-13 -805 813 0
-13 -813 808 805 0
-14 -813 808 0
-14 813 -808 0
-15 -813 808 0
-15 813 -808 0
-16 -808 813 0
-16 -806 813 0
-16 -813 808 806 0
-17 -813 808 0
-17 813 -808 0
-18 -808 813 0
-18 -807 813 0
-18 -813 808 807 0
-19 -813 808 0
-19 813 -808 0
-20 -813 808 0
-20 -813 809 0
-20 813 -808 -809 0
-92 -813 808 0
-92 813 -808 0
-11 -814 809 0
-11 814 -809 0
-12 -814 809 0
-12 814 -809 0
-13 -814 809 0
-13 814 -809 0
-14 -809 814 0
-14 -805 814 0
-14 -814 809 805 0
-15 -814 809 0
-15 814 -809 0
-16 -814 809 0
-16 814 -809 0
-17 -809 814 0
-17 -806 814 0
-17 -814 809 806 0
-18 -814 809 0
-18 814 -809 0
-19 -809 814 0
-19 -807 814 0
-19 -814 809 807 0
-20 -809 814 0
-20 -808 814 0
-20 -814 809 808 0
-92 -814 809 0
-92 814 -809 0
-21 -815 810 0
-21 -815 811 0
-21 815 -810 -811 0
-22 -815 810 0
-22 -815 812 0
-22 815 -810 -812 0
-23 -815 810 0
-23 -815 813 0
-23 815 -810 -813 0
-24 -815 810 0
-24 -815 814 0
-24 815 -810 -814 0
-25 -815 810 0
-25 815 -810 0
-26 -815 810 0
-26 815 -810 0
-27 -815 810 0
-27 815 -810 0
-28 -815 810 0
-28 815 -810 0
-29 -815 810 0
-29 815 -810 0
-30 -815 810 0
-30 815 -810 0
-93 -815 810 0
-93 815 -810 0
-21 -811 816 0
-21 -810 816 0
-21 -816 811 810 0
-22 -816 811 0
-22 816 -811 0
-23 -816 811 0
-23 816 -811 0
-24 -816 811 0
-24 816 -811 0
-25 -816 811 0
-25 -816 812 0
-25 816 -811 -812 0
-26 -816 811 0
-26 -816 813 0
-26 816 -811 -813 0
-27 -816 811 0
-27 -816 814 0
-27 816 -811 -814 0
-28 -816 811 0
-28 816 -811 0
-29 -816 811 0
-29 816 -811 0
-30 -816 811 0
-30 816 -811 0
-93 -816 811 0
-93 816 -811 0
-21 -817 812 0
-21 817 -812 0
-22 -812 817 0
-22 -810 817 0
-22 -817 812 810 0
-23 -817 812 0
-23 817 -812 0
-24 -817 812 0
-24 817 -812 0
-25 -812 817 0
-25 -811 817 0
-25 -817 812 811 0
-26 -817 812 0
-26 817 -812 0
-27 -817 812 0
-27 817 -812 0
-28 -817 812 0
-28 -817 813 0
-28 817 -812 -813 0
-29 -817 812 0
-29 -817 814 0
-29 817 -812 -814 0
-30 -817 812 0
-30 817 -812 0
-93 -817 812 0
-93 817 -812 0
-21 -818 813 0
-21 818 -813 0
-22 -818 813 0
-22 818 -813 0
-23 -813 818 0
-23 -810 818 0
-23 -818 813 810 0
-24 -818 813 0
-24 818 -813 0
-25 -818 813 0
-25 818 -813 0
-26 -813 818 0
-26 -811 818 0
-26 -818 813 811 0
-27 -818 813 0
-27 818 -813 0
-28 -813 818 0
-28 -812 818 0
-28 -818 813 812 0
-29 -818 813 0
-29 818 -813 0
-30 -818 813 0
-30 -818 814 0
-30 818 -813 -814 0
-93 -818 813 0
-93 818 -813 0
-21 -819 814 0
-21 819 -814 0
-22 -819 814 0
-22 819 -814 0
-23 -819 814 0
-23 819 -814 0
-24 -814 819 0
-24 -810 819 0
-24 -819 814 810 0
-25 -819 814 0
-25 819 -814 0
-26 -819 814 0
-26 819 -814 0
-27 -814 819 0
-27 -811 819 0
-27 -819 814 811 0
-28 -819 814 0
-28 819 -814 0
-29 -814 819 0
-29 -812 819 0
-29 -819 814 812 0
-30 -814 819 0
-30 -813 819 0
-30 -819 814 813 0
-93 -819 814 0
-93 819 -814 0
-31 -820 815 0
-31 -820 816 0
-31 820 -815 -816 0
-32 -820 815 0
-32 -820 817 0
-32 820 -815 -817 0
-33 -820 815 0
-33 -820 818 0
-33 820 -815 -818 0
-34 -820 815 0
-34 -820 819 0
-34 820 -815 -819 0
-35 -820 815 0
-35 820 -815 0
-36 -820 815 0
-36 820 -815 0
-37 -820 815 0
-37 820 -815 0
-38 -820 815 0
-38 820 -815 0
-39 -820 815 0
-39 820 -815 0
-40 -820 815 0
-40 820 -815 0
-94 -820 815 0
-94 820 -815 0
-31 -816 821 0
-31 -815 821 0
-31 -821 816 815 0
-32 -821 816 0
-32 821 -816 0
-33 -821 816 0
-33 821 -816 0
-34 -821 816 0
-34 821 -816 0
-35 -821 816 0
-35 -821 817 0
-35 821 -816 -817 0
-36 -821 816 0
-36 -821 818 0
-36 821 -816 -818 0
-37 -821 816 0
-37 -821 819 0
-37 821 -816 -819 0
-38 -821 816 0
-38 821 -816 0
-39 -821 816 0
-39 821 -816 0
-40 -821 816 0
-40 821 -816 0
-94 -821 816 0
-94 821 -816 0
-31 -822 817 0
-31 822 -817 0
-32 -817 822 0
-32 -815 822 0
-32 -822 817 815 0
-33 -822 817 0
-33 822 -817 0
-34 -822 817 0
-34 822 -817 0
-35 -817 822 0
-35 -816 822 0
-35 -822 817 816 0
-36 -822 817 0
-36 822 -817 0
-37 -822 817 0
-37 822 -817 0
-38 -822 817 0
-38 -822 818 0
-38 822 -817 -818 0
-39 -822 817 0
-39 -822 819 0
-39 822 -817 -819 0
-40 -822 817 0
-40 822 -817 0
-94 -822 817 0
-94 822 -817 0
-31 -823 818 0
-31 823 -818 0
-32 -823 818 0
-32 823 -818 0
-33 -818 823 0
-33 -815 823 0
-33 -823 818 815 0
-34 -823 818 0
-34 823 -818 0
-35 -823 818 0
-35 823 -818 0
-36 -818 823 0
-36 -816 823 0
-36 -823 818 816 0
-37 -823 818 0
-37 823 -818 0
-38 -818 823 0
-38 -817 823 0
-38 -823 818 817 0
-39 -823 818 0
-39 823 -818 0
-40 -823 818 0
-40 -823 819 0
-40 823 -818 -819 0
-94 -823 818 0
-94 823 -818 0
-31 -824 819 0
-31 824 -819 0
-32 -824 819 0
-32 824 -819 0
-33 -824 819 0
-33 824 -819 0
-34 -819 824 0
-34 -815 824 0
-34 -824 819 815 0
-35 -824 819 0
-35 824 -819 0
-36 -824 819 0
-36 824 -819 0
-37 -819 824 0
-37 -816 824 0
-37 -824 819 816 0
-38 -824 819 0
-38 824 -819 0
-39 -819 824 0
-39 -817 824 0
-39 -824 819 817 0
-40 -819 824 0
-40 -818 824 0
-40 -824 819 818 0
-94 -824 819 0
-94 824 -819 0
-41 -825 820 0
-41 -825 821 0
-41 825 -820 -821 0
-42 -825 820 0
-42 -825 822 0
-42 825 -820 -822 0
-43 -825 820 0
-43 -825 823 0
-43 825 -820 -823 0
-44 -825 820 0
-44 -825 824 0
-44 825 -820 -824 0
-45 -825 820 0
-45 825 -820 0
-46 -825 820 0
-46 825 -820 0
-47 -825 820 0
-47 825 -820 0
-48 -825 820 0
-48 825 -820 0
-49 -825 820 0
-49 825 -820 0
-50 -825 820 0
-50 825 -820 0
-95 -825 820 0
-95 825 -820 0
-41 -821 826 0
-41 -820 826 0
-41 -826 821 820 0
-42 -826 821 0
-42 826 -821 0
-43 -826 821 0
-43 826 -821 0
-44 -826 821 0
-44 826 -821 0
-45 -826 821 0
-45 -826 822 0
-45 826 -821 -822 0
-46 -826 821 0
-46 -826 823 0
-46 826 -821 -823 0
-47 -826 821 0
-47 -826 824 0
-47 826 -821 -824 0
-48 -826 821 0
-48 826 -821 0
-49 -826 821 0
-49 826 -821 0
-50 -826 821 0
-50 826 -821 0
-95 -826 821 0
-95 826 -821 0
-41 -827 822 0
-41 827 -822 0
-42 -822 827 0
-42 -820 827 0
-42 -827 822 820 0
-43 -827 822 0
-43 827 -822 0
-44 -827 822 0
-44 827 -822 0
-45 -822 827 0
-45 -821 827 0
-45 -827 822 821 0
-46 -827 822 0
-46 827 -822 0
-47 -827 822 0
-47 827 -822 0
-48 -827 822 0
-48 -827 823 0
-48 827 -822 -823 0
-49 -827 822 0
-49 -827 824 0
-49 827 -822 -824 0
-50 -827 822 0
-50 827 -822 0
-95 -827 822 0
-95 827 -822 0
-41 -828 823 0
-41 828 -823 0
-42 -828 823 0
-42 828 -823 0
-43 -823 828 0
-43 -820 828 0
-43 -828 823 820 0
-44 -828 823 0
-44 828 -823 0
-45 -828 823 0
-45 828 -823 0
-46 -823 828 0
-46 -821 828 0
-46 -828 823 821 0
-47 -828 823 0
-47 828 -823 0
-48 -823 828 0
-48 -822 828 0
-48 -828 823 822 0
-49 -828 823 0
-49 828 -823 0
-50 -828 823 0
-50 -828 824 0
-50 828 -823 -824 0
-95 -828 823 0
-95 828 -823 0
-41 -829 824 0
-41 829 -824 0
-42 -829 824 0
-42 829 -824 0
-43 -829 824 0
-43 829 -824 0
-44 -824 829 0
-44 -820 829 0
-44 -829 824 820 0
-45 -829 824 0
-45 829 -824 0
-46 -829 824 0
-46 829 -824 0
-47 -824 829 0
-47 -821 829 0
-47 -829 824 821 0
-48 -829 824 0
-48 829 -824 0
-49 -824 829 0
-49 -822 829 0
-49 -829 824 822 0
-50 -824 829 0
-50 -823 829 0
-50 -829 824 823 0
-95 -829 824 0
-95 829 -824 0
-51 -830 825 0
-51 -830 826 0
-51 830 -825 -826 0
-52 -830 825 0
-52 -830 827 0
-52 830 -825 -827 0
-53 -830 825 0
-53 -830 828 0
-53 830 -825 -828 0
-54 -830 825 0
-54 -830 829 0
-54 830 -825 -829 0
-55 -830 825 0
-55 830 -825 0
-56 -830 825 0
-56 830 -825 0
-57 -830 825 0
-57 830 -825 0
-58 -830 825 0
-58 830 -825 0
-59 -830 825 0
-59 830 -825 0
-60 -830 825 0
-60 830 -825 0
-96 -830 825 0
-96 830 -825 0
-51 -826 831 0
-51 -825 831 0
-51 -831 826 825 0
-52 -831 826 0
-52 831 -826 0
-53 -831 826 0
-53 831 -826 0
-54 -831 826 0
-54 831 -826 0
-55 -831 826 0
-55 -831 827 0
-55 831 -826 -827 0
-56 -831 826 0
-56 -831 828 0
-56 831 -826 -828 0
-57 -831 826 0
-57 -831 829 0
-57 831 -826 -829 0
-58 -831 826 0
-58 831 -826 0
-59 -831 826 0
-59 831 -826 0
-60 -831 826 0
-60 831 -826 0
-96 -831 826 0
-96 831 -826 0
-51 -832 827 0
-51 832 -827 0
-52 -827 832 0
-52 -825 832 0
-52 -832 827 825 0
-53 -832 827 0
-53 832 -827 0
-54 -832 827 0
-54 832 -827 0
-55 -827 832 0
-55 -826 832 0
-55 -832 827 826 0
-56 -832 827 0
-56 832 -827 0
-57 -832 827 0
-57 832 -827 0
-58 -832 827 0
-58 -832 828 0
-58 832 -827 -828 0
-59 -832 827 0
-59 -832 829 0
-59 832 -827 -829 0
-60 -832 827 0
-60 832 -827 0
-96 -832 827 0
-96 832 -827 0
-51 -833 828 0
-51 833 -828 0
-52 -833 828 0
-52 833 -828 0
-53 -828 833 0
-53 -825 833 0
-53 -833 828 825 0
-54 -833 828 0
-54 833 -828 0
-55 -833 828 0
-55 833 -828 0
-56 -828 833 0
-56 -826 833 0
-56 -833 828 826 0
-57 -833 828 0
-57 833 -828 0
-58 -828 833 0
-58 -827 833 0
-58 -833 828 827 0
-59 -833 828 0
-59 833 -828 0
-60 -833 828 0
-60 -833 829 0
-60 833 -828 -829 0
-96 -833 828 0
-96 833 -828 0
-51 -834 829 0
-51 834 -829 0
-52 -834 829 0
-52 834 -829 0
-53 -834 829 0
-53 834 -829 0
-54 -829 834 0
-54 -825 834 0
-54 -834 829 825 0
-55 -834 829 0
-55 834 -829 0
-56 -834 829 0
-56 834 -829 0
-57 -829 834 0
-57 -826 834 0
-57 -834 829 826 0
-58 -834 829 0
-58 834 -829 0
-59 -829 834 0
-59 -827 834 0
-59 -834 829 827 0
-60 -829 834 0
-60 -828 834 0
-60 -834 829 828 0
-96 -834 829 0
-96 834 -829 0
-61 -835 830 0
-61 -835 831 0
-61 835 -830 -831 0
-62 -835 830 0
-62 -835 832 0
-62 835 -830 -832 0
-63 -835 830 0
-63 -835 833 0
-63 835 -830 -833 0
-64 -835 830 0
-64 -835 834 0
-64 835 -830 -834 0
-65 -835 830 0
-65 835 -830 0
-66 -835 830 0
-66 835 -830 0
-67 -835 830 0
-67 835 -830 0
-68 -835 830 0
-68 835 -830 0
-69 -835 830 0
-69 835 -830 0
-70 -835 830 0
-70 835 -830 0
-97 -835 830 0
-97 835 -830 0
-61 -831 836 0
-61 -830 836 0
-61 -836 831 830 0
-62 -836 831 0
-62 836 -831 0
-63 -836 831 0
-63 836 -831 0
-64 -836 831 0
-64 836 -831 0
-65 -836 831 0
-65 -836 832 0
-65 836 -831 -832 0
-66 -836 831 0
-66 -836 833 0
-66 836 -831 -833 0
-67 -836 831 0
-67 -836 834 0
-67 836 -831 -834 0
-68 -836 831 0
-68 836 -831 0
-69 -836 831 0
-69 836 -831 0
-70 -836 831 0
-70 836 -831 0
-97 -836 831 0
-97 836 -831 0
-61 -837 832 0
-61 837 -832 0
-62 -832 837 0
-62 -830 837 0
-62 -837 832 830 0
-63 -837 832 0
-63 837 -832 0
-64 -837 832 0
-64 837 -832 0
-65 -832 837 0
-65 -831 837 0
-65 -837 832 831 0
-66 -837 832 0
-66 837 -832 0
-67 -837 832 0
-67 837 -832 0
-68 -837 832 0
-68 -837 833 0
-68 837 -832 -833 0
-69 -837 832 0
-69 -837 834 0
-69 837 -832 -834 0
-70 -837 832 0
-70 837 -832 0
-97 -837 832 0
-97 837 -832 0
-61 -838 833 0
-61 838 -833 0
-62 -838 833 0
-62 838 -833 0
-63 -833 838 0
-63 -830 838 0
-63 -838 833 830 0
-64 -838 833 0
-64 838 -833 0
-65 -838 833 0
-65 838 -833 0
-66 -833 838 0
-66 -831 838 0
-66 -838 833 831 0
-67 -838 833 0
-67 838 -833 0
-68 -833 838 0
-68 -832 838 0
-68 -838 833 832 0
-69 -838 833 0
-69 838 -833 0
-70 -838 833 0
-70 -838 834 0
-70 838 -833 -834 0
-97 -838 833 0
-97 838 -833 0
-61 -839 834 0
-61 839 -834 0
-62 -839 834 0
-62 839 -834 0
-63 -839 834 0
-63 839 -834 0
-64 -834 839 0
-64 -830 839 0
-64 -839 834 830 0
-65 -839 834 0
-65 839 -834 0
-66 -839 834 0
-66 839 -834 0
-67 -834 839 0
-67 -831 839 0
-67 -839 834 831 0
-68 -839 834 0
-68 839 -834 0
-69 -834 839 0
-69 -832 839 0
-69 -839 834 832 0
-70 -834 839 0
-70 -833 839 0
-70 -839 834 833 0
-97 -839 834 0
-97 839 -834 0
-71 -840 835 0
-71 -840 836 0
-71 840 -835 -836 0
-72 -840 835 0
-72 -840 837 0
-72 840 -835 -837 0
-73 -840 835 0
-73 -840 838 0
-73 840 -835 -838 0
-74 -840 835 0
-74 -840 839 0
-74 840 -835 -839 0
-75 -840 835 0
-75 840 -835 0
-76 -840 835 0
-76 840 -835 0
-77 -840 835 0
-77 840 -835 0
-78 -840 835 0
-78 840 -835 0
-79 -840 835 0
-79 840 -835 0
-80 -840 835 0
-80 840 -835 0
-98 -840 835 0
-98 840 -835 0
-71 -836 841 0
-71 -835 841 0
-71 -841 836 835 0
-72 -841 836 0
-72 841 -836 0
-73 -841 836 0
-73 841 -836 0
-74 -841 836 0
-74 841 -836 0
-75 -841 836 0
-75 -841 837 0
-75 841 -836 -837 0
-76 -841 836 0
-76 -841 838 0
-76 841 -836 -838 0
-77 -841 836 0
-77 -841 839 0
-77 841 -836 -839 0
-78 -841 836 0
-78 841 -836 0
-79 -841 836 0
-79 841 -836 0
-80 -841 836 0
-80 841 -836 0
-98 -841 836 0
-98 841 -836 0
-71 -842 837 0
-71 842 -837 0
-72 -837 842 0
-72 -835 842 0
-72 -842 837 835 0
-73 -842 837 0
-73 842 -837 0
-74 -842 837 0
-74 842 -837 0
-75 -837 842 0
-75 -836 842 0
-75 -842 837 836 0
-76 -842 837 0
-76 842 -837 0
-77 -842 837 0
-77 842 -837 0
-78 -842 837 0
-78 -842 838 0
-78 842 -837 -838 0
-79 -842 837 0
-79 -842 839 0
-79 842 -837 -839 0
-80 -842 837 0
-80 842 -837 0
-98 -842 837 0
-98 842 -837 0
-71 -843 838 0
-71 843 -838 0
-72 -843 838 0
-72 843 -838 0
-73 -838 843 0
-73 -835 843 0
-73 -843 838 835 0
-74 -843 838 0
-74 843 -838 0
-75 -843 838 0
-75 843 -838 0
-76 -838 843 0
-76 -836 843 0
-76 -843 838 836 0
-77 -843 838 0
-77 843 -838 0
-78 -838 843 0
-78 -837 843 0
-78 -843 838 837 0
-79 -843 838 0
-79 843 -838 0
-80 -843 838 0
-80 -843 839 0
-80 843 -838 -839 0
-98 -843 838 0
-98 843 -838 0
-71 -844 839 0
-71 844 -839 0
-72 -844 839 0
-72 844 -839 0
-73 -844 839 0
-73 844 -839 0
-74 -839 844 0
-74 -835 844 0
-74 -844 839 835 0
-75 -844 839 0
-75 844 -839 0
-76 -844 839 0
-76 844 -839 0
-77 -839 844 0
-77 -836 844 0
-77 -844 839 836 0
-78 -844 839 0
-78 844 -839 0
-79 -839 844 0
-79 -837 844 0
-79 -844 839 837 0
-80 -839 844 0
-80 -838 844 0
-80 -844 839 838 0
-98 -844 839 0
-98 844 -839 0
-81 -845 840 0
-81 -845 841 0
-81 845 -840 -841 0
-82 -845 840 0
-82 -845 842 0
-82 845 -840 -842 0
-83 -845 840 0
-83 -845 843 0
-83 845 -840 -843 0
-84 -845 840 0
-84 -845 844 0
-84 845 -840 -844 0
-85 -845 840 0
-85 845 -840 0
-86 -845 840 0
-86 845 -840 0
-87 -845 840 0
-87 845 -840 0
-88 -845 840 0
-88 845 -840 0
-89 -845 840 0
-89 845 -840 0
-90 -845 840 0
-90 845 -840 0
-99 -845 840 0
-99 845 -840 0
-81 -841 846 0
-81 -840 846 0
-81 -846 841 840 0
-82 -846 841 0
-82 846 -841 0
-83 -846 841 0
-83 846 -841 0
-84 -846 841 0
-84 846 -841 0
-85 -846 841 0
-85 -846 842 0
-85 846 -841 -842 0
-86 -846 841 0
-86 -846 843 0
-86 846 -841 -843 0
-87 -846 841 0
-87 -846 844 0
-87 846 -841 -844 0
-88 -846 841 0
-88 846 -841 0
-89 -846 841 0
-89 846 -841 0
-90 -846 841 0
-90 846 -841 0
-99 -846 841 0
-99 846 -841 0
-81 -847 842 0
-81 847 -842 0
-82 -842 847 0
-82 -840 847 0
-82 -847 842 840 0
-83 -847 842 0
-83 847 -842 0
-84 -847 842 0
-84 847 -842 0
-85 -842 847 0
-85 -841 847 0
-85 -847 842 841 0
-86 -847 842 0
-86 847 -842 0
-87 -847 842 0
-87 847 -842 0
-88 -847 842 0
-88 -847 843 0
-88 847 -842 -843 0
-89 -847 842 0
-89 -847 844 0
-89 847 -842 -844 0
-90 -847 842 0
-90 847 -842 0
-99 -847 842 0
-99 847 -842 0
-81 -848 843 0
-81 848 -843 0
-82 -848 843 0
-82 848 -843 0
-83 -843 848 0
-83 -840 848 0
-83 -848 843 840 0
-84 -848 843 0
-84 848 -843 0
-85 -848 843 0
-85 848 -843 0
-86 -843 848 0
-86 -841 848 0
-86 -848 843 841 0
-87 -848 843 0
-87 848 -843 0
-88 -843 848 0
-88 -842 848 0
-88 -848 843 842 0
-89 -848 843 0
-89 848 -843 0
-90 -848 843 0
-90 -848 844 0
-90 848 -843 -844 0
-99 -848 843 0
-99 848 -843 0
-81 -849 844 0
-81 849 -844 0
-82 -849 844 0
-82 849 -844 0
-83 -849 844 0
-83 849 -844 0
-84 -844 849 0
-84 -840 849 0
-84 -849 844 840 0
-85 -849 844 0
-85 849 -844 0
-86 -849 844 0
-86 849 -844 0
-87 -844 849 0
-87 -841 849 0
-87 -849 844 841 0
-88 -849 844 0
-88 849 -844 0
-89 -844 849 0
-89 -842 849 0
-89 -849 844 842 0
-90 -844 849 0
-90 -843 849 0
-90 -849 844 843 0
-99 -849 844 0
-99 849 -844 0
850 0
-1 -855 850 0
-1 -855 851 0
-1 855 -850 -851 0
-2 -855 850 0
-2 -855 852 0
-2 855 -850 -852 0
-3 -855 850 0
-3 -855 853 0
-3 855 -850 -853 0
-4 -855 850 0
-4 -855 854 0
-4 855 -850 -854 0
-5 -855 850 0
-5 855 -850 0
-6 -855 850 0
-6 855 -850 0
-7 -855 850 0
-7 855 -850 0
-8 -855 850 0
-8 855 -850 0
-9 -855 850 0
-9 855 -850 0
-10 -855 850 0
-10 855 -850 0
-91 -855 850 0
-91 855 -850 0
-851 0
-1 -851 856 0
-1 -850 856 0
-1 -856 851 850 0
-2 -856 851 0
-2 856 -851 0
-3 -856 851 0
-3 856 -851 0
-4 -856 851 0
-4 856 -851 0
-5 -856 851 0
-5 -856 852 0
-5 856 -851 -852 0
-6 -856 851 0
-6 -856 853 0
-6 856 -851 -853 0
-7 -856 851 0
-7 -856 854 0
-7 856 -851 -854 0
-8 -856 851 0
-8 856 -851 0
-9 -856 851 0
-9 856 -851 0
-10 -856 851 0
-10 856 -851 0
-91 -856 851 0
-91 856 -851 0
852 0
-1 -857 852 0
-1 857 -852 0
-2 -852 857 0
-2 -850 857 0
-2 -857 852 850 0
-3 -857 852 0
-3 857 -852 0
-4 -857 852 0
-4 857 -852 0
-5 -852 857 0
-5 -851 857 0
-5 -857 852 851 0
-6 -857 852 0
-6 857 -852 0
-7 -857 852 0
-7 857 -852 0
-8 -857 852 0
-8 -857 853 0
-8 857 -852 -853 0
-9 -857 852 0
-9 -857 854 0
-9 857 -852 -854 0
-10 -857 852 0
-10 857 -852 0
-91 -857 852 0
-91 857 -852 0
-853 0
-1 -858 853 0
-1 858 -853 0
-2 -858 853 0
-2 858 -853 0
-3 -853 858 0
-3 -850 858 0
-3 -858 853 850 0
-4 -858 853 0
-4 858 -853 0
-5 -858 853 0
-5 858 -853 0
-6 -853 858 0
-6 -851 858 0
-6 -858 853 851 0
-7 -858 853 0
-7 858 -853 0
-8 -853 858 0
-8 -852 858 0
-8 -858 853 852 0
-9 -858 853 0
-9 858 -853 0
-10 -858 853 0
-10 -858 854 0
-10 858 -853 -854 0
-91 -858 853 0
-91 858 -853 0
-854 0
-1 -859 854 0
-1 859 -854 0
-2 -859 854 0
-2 859 -854 0
-3 -859 854 0
-3 859 -854 0
-4 -854 859 0
-4 -850 859 0
-4 -859 854 850 0
-5 -859 854 0
-5 859 -854 0
-6 -859 854 0
-6 859 -854 0
-7 -854 859 0
-7 -851 859 0
-7 -859 854 851 0
-8 -859 854 0
-8 859 -854 0
-9 -854 859 0
-9 -852 859 0
-9 -859 854 852 0
-10 -854 859 0
-10 -853 859 0
-10 -859 854 853 0
-91 -859 854 0
-91 859 -854 0
-11 -860 855 0
-11 -860 856 0
-11 860 -855 -856 0
-12 -860 855 0
-12 -860 857 0
-12 860 -855 -857 0
-13 -860 855 0
-13 -860 858 0
-13 860 -855 -858 0
-14 -860 855 0
-14 -860 859 0
-14 860 -855 -859 0
-15 -860 855 0
-15 860 -855 0
-16 -860 855 0
-16 860 -855 0
-17 -860 855 0
-17 860 -855 0
-18 -860 855 0
-18 860 -855 0
-19 -860 855 0
-19 860 -855 0
-20 -860 855 0
-20 860 -855 0
-92 -860 855 0
-92 860 -855 0
-11 -856 861 0
-11 -855 861 0
-11 -861 856 855 0
-12 -861 856 0
-12 861 -856 0
-13 -861 856 0
-13 861 -856 0
-14 -861 856 0
-14 861 -856 0
-15 -861 856 0
-15 -861 857 0
-15 861 -856 -857 0
-16 -861 856 0
-16 -861 858 0
-16 861 -856 -858 0
-17 -861 856 0
-17 -861 859 0
-17 861 -856 -859 0
-18 -861 856 0
-18 861 -856 0
-19 -861 856 0
-19 861 -856 0
-20 -861 856 0
-20 861 -856 0
-92 -861 856 0
-92 861 -856 0
-11 -862 857 0
-11 862 -857 0
-12 -857 862 0
-12 -855 862 0
-12 -862 857 855 0
-13 -862 857 0
-13 862 -857 0
-14 -862 857 0
-14 862 -857 0
-15 -857 862 0
-15 -856 862 0
-15 -862 857 856 0
-16 -862 857 0
-16 862 -857 0
-17 -862 857 0
-17 862 -857 0
-18 -862 857 0
-18 -862 858 0
-18 862 -857 -858 0
-19 -862 857 0
-19 -862 859 0
-19 862 -857 -859 0
-20 -862 857 0
-20 862 -857 0
-92 -862 857 0
-92 862 -857 0
-11 -863 858 0
-11 863 -858 0
-12 -863 858 0
-12 863 -858 0
-13 -858 863 0
-13 -855 863 0
-13 -863 858 855 0
-14 -863 858 0
-14 863 -858 0
-15 -863 858 0
-15 863 -858 0
-16 -858 863 0
-16 -856 863 0
-16 -863 858 856 0
-17 -863 858 0
-17 863 -858 0
-18 -858 863 0
-18 -857 863 0
-18 -863 858 857 0
-19 -863 858 0
-19 863 -858 0
-20 -863 858 0
-20 -863 859 0
-20 863 -858 -859 0
-92 -863 858 0
-92 863 -858 0
-11 -864 859 0
-11 864 -859 0
-12 -864 859 0
-12 864 -859 0
-13 -864 859 0
-13 864 -859 0
-14 -859 864 0
-14 -855 864 0
-14 -864 859 855 0
-15 -864 859 0
-15 864 -859 0
-16 -864 859 0
-16 864 -859 0
-17 -859 864 0
-17 -856 864 0
-17 -864 859 856 0
-18 -864 859 0
-18 864 -859 0
-19 -859 864 0
-19 -857 864 0
-19 -864 859 857 0
-20 -859 864 0
-20 -858 864 0
-20 -864 859 858 0
-92 -864 859 0
-92 864 -859 0
-21 -865 860 0
-21 -865 861 0
-21 865 -860 -861 0
-22 -865 860 0
-22 -865 862 0
-22 865 -860 -862 0
-23 -865 860 0
-23 -865 863 0
-23 865 -860 -863 0
-24 -865 860 0
-24 -865 864 0
-24 865 -860 -864 0
-25 -865 860 0
-25 865 -860 0
-26 -865 860 0
-26 865 -860 0
-27 -865 860 0
-27 865 -860 0
-28 -865 860 0
-28 865 -860 0
-29 -865 860 0
-29 865 -860 0
-30 -865 860 0
-30 865 -860 0
-93 -865 860 0
-93 865 -860 0
-21 -861 866 0
-21 -860 866 0
-21 -866 861 860 0
-22 -866 861 0
-22 866 -861 0
-23 -866 861 0
-23 866 -861 0
-24 -866 861 0
-24 866 -861 0
-25 -866 861 0
-25 -866 862 0
-25 866 -861 -862 0
-26 -866 861 0
-26 -866 863 0
-26 866 -861 -863 0
-27 -866 861 0
-27 -866 864 0
-27 866 -861 -864 0
-28 -866 861 0
-28 866 -861 0
-29 -866 861 0
-29 866 -861 0
-30 -866 861 0
-30 866 -861 0
-93 -866 861 0
-93 866 -861 0
-21 -867 862 0
-21 867 -862 0
-22 -862 867 0
-22 -860 867 0
-22 -867 862 860 0
-23 -867 862 0
-23 867 -862 0
-24 -867 862 0
-24 867 -862 0
-25 -862 867 0
-25 -861 867 0
-25 -867 862 861 0
-26 -867 862 0
-26 867 -862 0
-27 -867 862 0
-27 867 -862 0
-28 -867 862 0
-28 -867 863 0
-28 867 -862 -863 0
-29 -867 862 0
-29 -867 864 0
-29 867 -862 -864 0
-30 -867 862 0
-30 867 -862 0
-93 -867 862 0
-93 867 -862 0
-21 -868 863 0
-21 868 -863 0
-22 -868 863 0
-22 868 -863 0
-23 -863 868 0
-23 -860 868 0
-23 -868 863 860 0
-24 -868 863 0
-24 868 -863 0
-25 -868 863 0
-25 868 -863 0
-26 -863 868 0
-26 -861 868 0
-26 -868 863 861 0
-27 -868 863 0
-27 868 -863 0
-28 -863 868 0
-28 -862 868 0
-28 -868 863 862 0
-29 -868 863 0
-29 868 -863 0
-30 -868 863 0
-30 -868 864 0
-30 868 -863 -864 0
-93 -868 863 0
-93 868 -863 0
-21 -869 864 0
-21 869 -864 0
-22 -869 864 0
-22 869 -864 0
-23 -869 864 0
-23 869 -864 0
-24 -864 869 0
-24 -860 869 0
-24 -869 864 860 0
-25 -869 864 0
-25 869 -864 0
-26 -869 864 0
-26 869 -864 0
-27 -864 869 0
-27 -861 869 0
-27 -869 864 861 0
-28 -869 864 0
-28 869 -864 0
-29 -864 869 0
-29 -862 869 0
-29 -869 864 862 0
-30 -864 869 0
-30 -863 869 0
-30 -869 864 863 0
-93 -869 864 0
-93 869 -864 0
-31 -870 865 0
-31 -870 866 0
-31 870 -865 -866 0
-32 -870 865 0
-32 -870 867 0
-32 870 -865 -867 0
-33 -870 865 0
-33 -870 868 0
-33 870 -865 -868 0
-34 -870 865 0
-34 -870 869 0
-34 870 -865 -869 0
-35 -870 865 0
-35 870 -865 0
-36 -870 865 0
-36 870 -865 0
-37 -870 865 0
-37 870 -865 0
-38 -870 865 0
-38 870 -865 0
-39 -870 865 0
-39 870 -865 0
-40 -870 865 0
-40 870 -865 0
-94 -870 865 0
-94 870 -865 0
-31 -866 871 0
-31 -865 871 0
-31 -871 866 865 0
-32 -871 866 0
-32 871 -866 0
-33 -871 866 0
-33 871 -866 0
-34 -871 866 0
-34 871 -866 0
-35 -871 866 0
-35 -871 867 0
-35 871 -866 -867 0
-36 -871 866 0
-36 -871 868 0
-36 871 -866 -868 0
-37 -871 866 0
-37 -871 869 0
-37 871 -866 -869 0
-38 -871 866 0
-38 871 -866 0
-39 -871 866 0
-39 871 -866 0
-40 -871 866 0
-40 871 -866 0
-94 -871 866 0
-94 871 -866 0
-31 -872 867 0
-31 872 -867 0
-32 -867 872 0
-32 -865 872 0
-32 -872 867 865 0
-33 -872 867 0
-33 872 -867 0
-34 -872 867 0
-34 872 -867 0
-35 -867 872 0
-35 -866 872 0
-35 -872 867 866 0
-36 -872 867 0
-36 872 -867 0
-37 -872 867 0
-37 872 -867 0
-38 -872 867 0
-38 -872 868 0
-38 872 -867 -868 0
-39 -872 867 0
-39 -872 869 0
-39 872 -867 -869 0
-40 -872 867 0
-40 872 -867 0
-94 -872 867 0
-94 872 -867 0
-31 -873 868 0
-31 873 -868 0
-32 -873 868 0
-32 873 -868 0
-33 -868 873 0
-33 -865 873 0
-33 -873 868 865 0
-34 -873 868 0
-34 873 -868 0
-35 -873 868 0
-35 873 -868 0
-36 -868 873 0
-36 -866 873 0
-36 -873 868 866 0
-37 -873 868 0
-37 873 -868 0
-38 -868 873 0
-38 -867 873 0
-38 -873 868 867 0
-39 -873 868 0
-39 873 -868 0
-40 -873 868 0
-40 -873 869 0
-40 873 -868 -869 0
-94 -873 868 0
-94 873 -868 0
-31 -874 869 0
-31 874 -869 0
-32 -874 869 0
-32 874 -869 0
-33 -874 869 0
-33 874 -869 0
-34 -869 874 0
-34 -865 874 0
-34 -874 869 865 0
-35 -874 869 0
-35 874 -869 0
-36 -874 869 0
-36 874 -869 0
-37 -869 874 0
-37 -866 874 0
-37 -874 869 866 0
-38 -874 869 0
-38 874 -869 0
-39 -869 874 0
-39 -867 874 0
-39 -874 869 867 0
-40 -869 874 0
-40 -868 874 0
-40 -874 869 868 0
-94 -874 869 0
-94 874 -869 0
-41 -875 870 0
-41 -875 871 0
-41 875 -870 -871 0
-42 -875 870 0
-42 -875 872 0
-42 875 -870 -872 0
-43 -875 870 0
-43 -875 873 0
-43 875 -870 -873 0
-44 -875 870 0
-44 -875 874 0
-44 875 -870 -874 0
-45 -875 870 0
-45 875 -870 0
-46 -875 870 0
-46 875 -870 0
-47 -875 870 0
-47 875 -870 0
-48 -875 870 0
-48 875 -870 0
-49 -875 870 0
-49 875 -870 0
-50 -875 870 0
-50 875 -870 0
-95 -875 870 0
-95 875 -870 0
-41 -871 876 0
-41 -870 876 0
-41 -876 871 870 0
-42 -876 871 0
-42 876 -871 0
-43 -876 871 0
-43 876 -871 0
-44 -876 871 0
-44 876 -871 0
-45 -876 871 0
-45 -876 872 0
-45 876 -871 -872 0
-46 -876 871 0
-46 -876 873 0
-46 876 -871 -873 0
-47 -876 871 0
-47 -876 874 0
-47 876 -871 -874 0
-48 -876 871 0
-48 876 -871 0
-49 -876 871 0
-49 876 -871 0
-50 -876 871 0
-50 876 -871 0
-95 -876 871 0
-95 876 -871 0
-41 -877 872 0
-41 877 -872 0
-42 -872 877 0
-42 -870 877 0
-42 -877 872 870 0
-43 -877 872 0
-43 877 -872 0
-44 -877 872 0
-44 877 -872 0
-45 -872 877 0
-45 -871 877 0
-45 -877 872 871 0
-46 -877 872 0
-46 877 -872 0
-47 -877 872 0
-47 877 -872 0
-48 -877 872 0
-48 -877 873 0
-48 877 -872 -873 0
-49 -877 872 0
-49 -877 874 0
-49 877 -872 -874 0
-50 -877 872 0
-50 877 -872 0
-95 -877 872 0
-95 877 -872 0
-41 -878 873 0
-41 878 -873 0
-42 -878 873 0
-42 878 -873 0
-43 -873 878 0
-43 -870 878 0
-43 -878 873 870 0
-44 -878 873 0
-44 878 -873 0
-45 -878 873 0
-45 878 -873 0
-46 -873 878 0
-46 -871 878 0
-46 -878 873 871 0
-47 -878 873 0
-47 878 -873 0
-48 -873 878 0
-48 -872 878 0
-48 -878 873 872 0
-49 -878 873 0
-49 878 -873 0
-50 -878 873 0
-50 -878 874 0
-50 878 -873 -874 0
-95 -878 873 0
-95 878 -873 0
-41 -879 874 0
-41 879 -874 0
-42 -879 874 0
-42 879 -874 0
-43 -879 874 0
-43 879 -874 0
-44 -874 879 0
-44 -870 879 0
-44 -879 874 870 0
-45 -879 874 0
-45 879 -874 0
-46 -879 874 0
-46 879 -874 0
-47 -874 879 0
-47 -871 879 0
-47 -879 874 871 0
-48 -879 874 0
-48 879 -874 0
-49 -874 879 0
-49 -872 879 0
-49 -879 874 872 0
-50 -874 879 0
-50 -873 879 0
-50 -879 874 873 0
-95 -879 874 0
-95 879 -874 0
-51 -880 875 0
-51 -880 876 0
-51 880 -875 -876 0
-52 -880 875 0
-52 -880 877 0
-52 880 -875 -877 0
-53 -880 875 0
-53 -880 878 0
-53 880 -875 -878 0
-54 -880 875 0
-54 -880 879 0
-54 880 -875 -879 0
-55 -880 875 0
-55 880 -875 0
-56 -880 875 0
-56 880 -875 0
-57 -880 875 0
-57 880 -875 0
-58 -880 875 0
-58 880 -875 0
-59 -880 875 0
-59 880 -875 0
-60 -880 875 0
-60 880 -875 0
-96 -880 875 0
-96 880 -875 0
-51 -876 881 0
-51 -875 881 0
-51 -881 876 875 0
-52 -881 876 0
-52 881 -876 0
-53 -881 876 0
-53 881 -876 0
-54 -881 876 0
-54 881 -876 0
-55 -881 876 0
-55 -881 877 0
-55 881 -876 -877 0
-56 -881 876 0
-56 -881 878 0
-56 881 -876 -878 0
-57 -881 876 0
-57 -881 879 0
-57 881 -876 -879 0
-58 -881 876 0
-58 881 -876 0
-59 -881 876 0
-59 881 -876 0
-60 -881 876 0
-60 881 -876 0
-96 -881 876 0
-96 881 -876 0
-51 -882 877 0
-51 882 -877 0
-52 -877 882 0
-52 -875 882 0
-52 -882 877 875 0
-53 -882 877 0
-53 882 -877 0
-54 -882 877 0
-54 882 -877 0
-55 -877 882 0
-55 -876 882 0
-55 -882 877 876 0
-56 -882 877 0
-56 882 -877 0
-57 -882 877 0
-57 882 -877 0
-58 -882 877 0
-58 -882 878 0
-58 882 -877 -878 0
-59 -882 877 0
-59 -882 879 0
-59 882 -877 -879 0
-60 -882 877 0
-60 882 -877 0
-96 -882 877 0
-96 882 -877 0
-51 -883 878 0
-51 883 -878 0
-52 -883 878 0
-52 883 -878 0
-53 -878 883 0
-53 -875 883 0
-53 -883 878 875 0
-54 -883 878 0
-54 883 -878 0
-55 -883 878 0
-55 883 -878 0
-56 -878 883 0
-56 -876 883 0
-56 -883 878 876 0
-57 -883 878 0
-57 883 -878 0
-58 -878 883 0
-58 -877 883 0
-58 -883 878 877 0
-59 -883 878 0
-59 883 -878 0
-60 -883 878 0
-60 -883 879 0
-60 883 -878 -879 0
-96 -883 878 0
-96 883 -878 0
-51 -884 879 0
-51 884 -879 0
-52 -884 879 0
-52 884 -879 0
-53 -884 879 0
-53 884 -879 0
-54 -879 884 0
-54 -875 884 0
-54 -884 879 875 0
-55 -884 879 0
-55 884 -879 0
-56 -884 879 0
-56 884 -879 0
-57 -879 884 0
-57 -876 884 0
-57 -884 879 876 0
-58 -884 879 0
-58 884 -879 0
-59 -879 884 0
-59 -877 884 0
-59 -884 879 877 0
-60 -879 884 0
-60 -878 884 0
-60 -884 879 878 0
-96 -884 879 0
-96 884 -879 0
-61 -885 880 0
-61 -885 881 0
-61 885 -880 -881 0
-62 -885 880 0
-62 -885 882 0
-62 885 -880 -882 0
-63 -885 880 0
-63 -885 883 0
-63 885 -880 -883 0
-64 -885 880 0
-64 -885 884 0
-64 885 -880 -884 0
-65 -885 880 0
-65 885 -880 0
-66 -885 880 0
-66 885 -880 0
-67 -885 880 0
-67 885 -880 0
-68 -885 880 0
-68 885 -880 0
-69 -885 880 0
-69 885 -880 0
-70 -885 880 0
-70 885 -880 0
-97 -885 880 0
-97 885 -880 0
-61 -881 886 0
-61 -880 886 0
-61 -886 881 880 0
-62 -886 881 0
-62 886 -881 0
-63 -886 881 0
-63 886 -881 0
-64 -886 881 0
-64 886 -881 0
-65 -886 881 0
-65 -886 882 0
-65 886 -881 -882 0
-66 -886 881 0
-66 -886 883 0
-66 886 -881 -883 0
-67 -886 881 0
-67 -886 884 0
-67 886 -881 -884 0
-68 -886 881 0
-68 886 -881 0
-69 -886 881 0
-69 886 -881 0
-70 -886 881 0
-70 886 -881 0
-97 -886 881 0
-97 886 -881 0
-61 -887 882 0
-61 887 -882 0
-62 -882 887 0
-62 -880 887 0
-62 -887 882 880 0
-63 -887 882 0
-63 887 -882 0
-64 -887 882 0
-64 887 -882 0
-65 -882 887 0
-65 -881 887 0
-65 -887 882 881 0
-66 -887 882 0
-66 887 -882 0
-67 -887 882 0
-67 887 -882 0
-68 -887 882 0
-68 -887 883 0
-68 887 -882 -883 0
-69 -887 882 0
-69 -887 884 0
-69 887 -882 -884 0
-70 -887 882 0
-70 887 -882 0
-97 -887 882 0
-97 887 -882 0
-61 -888 883 0
-61 888 -883 0
-62 -888 883 0
-62 888 -883 0
-63 -883 888 0
-63 -880 888 0
-63 -888 883 880 0
-64 -888 883 0
-64 888 -883 0
-65 -888 883 0
-65 888 -883 0
-66 -883 888 0
-66 -881 888 0
-66 -888 883 881 0
-67 -888 883 0
-67 888 -883 0
-68 -883 888 0
-68 -882 888 0
-68 -888 883 882 0
-69 -888 883 0
-69 888 -883 0
-70 -888 883 0
-70 -888 884 0
-70 888 -883 -884 0
-97 -888 883 0
-97 888 -883 0
-61 -889 884 0
-61 889 -884 0
-62 -889 884 0
-62 889 -884 0
-63 -889 884 0
-63 889 -884 0
-64 -884 889 0
-64 -880 889 0
-64 -889 884 880 0
-65 -889 884 0
-65 889 -884 0
-66 -889 884 0
-66 889 -884 0
-67 -884 889 0
-67 -881 889 0
-67 -889 884 881 0
-68 -889 884 0
-68 889 -884 0
-69 -884 889 0
-69 -882 889 0
-69 -889 884 882 0
-70 -884 889 0
-70 -883 889 0
-70 -889 884 883 0
-97 -889 884 0
-97 889 -884 0
-71 -890 885 0
-71 -890 886 0
-71 890 -885 -886 0
-72 -890 885 0
-72 -890 887 0
-72 890 -885 -887 0
-73 -890 885 0
-73 -890 888 0
-73 890 -885 -888 0
-74 -890 885 0
-74 -890 889 0
-74 890 -885 -889 0
-75 -890 885 0
-75 890 -885 0
-76 -890 885 0
-76 890 -885 0
-77 -890 885 0
-77 890 -885 0
-78 -890 885 0
-78 890 -885 0
-79 -890 885 0
-79 890 -885 0
-80 -890 885 0
-80 890 -885 0
-98 -890 885 0
-98 890 -885 0
-71 -886 891 0
-71 -885 891 0
-71 -891 886 885 0
-72 -891 886 0
-72 891 -886 0
-73 -891 886 0
-73 891 -886 0
-74 -891 886 0
-74 891 -886 0
-75 -891 886 0
-75 -891 887 0
-75 891 -886 -887 0
-76 -891 886 0
-76 -891 888 0
-76 891 -886 -888 0
-77 -891 886 0
-77 -891 889 0
-77 891 -886 -889 0
-78 -891 886 0
-78 891 -886 0
-79 -891 886 0
-79 891 -886 0
-80 -891 886 0
-80 891 -886 0
-98 -891 886 0
-98 891 -886 0
-71 -892 887 0
-71 892 -887 0
-72 -887 892 0
-72 -885 892 0
-72 -892 887 885 0
-73 -892 887 0
-73 892 -887 0
-74 -892 887 0
-74 892 -887 0
-75 -887 892 0
-75 -886 892 0
-75 -892 887 886 0
-76 -892 887 0
-76 892 -887 0
-77 -892 887 0
-77 892 -887 0
-78 -892 887 0
-78 -892 888 0
-78 892 -887 -888 0
-79 -892 887 0
-79 -892 889 0
-79 892 -887 -889 0
-80 -892 887 0
-80 892 -887 0
-98 -892 887 0
-98 892 -887 0
-71 -893 888 0
-71 893 -888 0
-72 -893 888 0
-72 893 -888 0
-73 -888 893 0
-73 -885 893 0
-73 -893 888 885 0
-74 -893 888 0
-74 893 -888 0
-75 -893 888 0
-75 893 -888 0
-76 -888 893 0
-76 -886 893 0
-76 -893 888 886 0
-77 -893 888 0
-77 893 -888 0
-78 -888 893 0
-78 -887 893 0
-78 -893 888 887 0
-79 -893 888 0
-79 893 -888 0
-80 -893 888 0
-80 -893 889 0
-80 893 -888 -889 0
-98 -893 888 0
-98 893 -888 0
-71 -894 889 0
-71 894 -889 0
-72 -894 889 0
-72 894 -889 0
-73 -894 889 0
-73 894 -889 0
-74 -889 894 0
-74 -885 894 0
-74 -894 889 885 0
-75 -894 889 0
-75 894 -889 0
-76 -894 889 0
-76 894 -889 0
-77 -889 894 0
-77 -886 894 0
-77 -894 889 886 0
-78 -894 889 0
-78 894 -889 0
-79 -889 894 0
-79 -887 894 0
-79 -894 889 887 0
-80 -889 894 0
-80 -888 894 0
-80 -894 889 888 0
-98 -894 889 0
-98 894 -889 0
-81 -895 890 0
-81 -895 891 0
-81 895 -890 -891 0
-82 -895 890 0
-82 -895 892 0
-82 895 -890 -892 0
-83 -895 890 0
-83 -895 893 0
-83 895 -890 -893 0
-84 -895 890 0
-84 -895 894 0
-84 895 -890 -894 0
-85 -895 890 0
-85 895 -890 0
-86 -895 890 0
-86 895 -890 0
-87 -895 890 0
-87 895 -890 0
-88 -895 890 0
-88 895 -890 0
-89 -895 890 0
-89 895 -890 0
-90 -895 890 0
-90 895 -890 0
-99 -895 890 0
-99 895 -890 0
-81 -891 896 0
-81 -890 896 0
-81 -896 891 890 0
-82 -896 891 0
-82 896 -891 0
-83 -896 891 0
-83 896 -891 0
-84 -896 891 0
-84 896 -891 0
-85 -896 891 0
-85 -896 892 0
-85 896 -891 -892 0
-86 -896 891 0
-86 -896 893 0
-86 896 -891 -893 0
-87 -896 891 0
-87 -896 894 0
-87 896 -891 -894 0
-88 -896 891 0
-88 896 -891 0
-89 -896 891 0
-89 896 -891 0
-90 -896 891 0
-90 896 -891 0
-99 -896 891 0
-99 896 -891 0
-81 -897 892 0
-81 897 -892 0
-82 -892 897 0
-82 -890 897 0
-82 -897 892 890 0
-83 -897 892 0
-83 897 -892 0
-84 -897 892 0
-84 897 -892 0
-85 -892 897 0
-85 -891 897 0
-85 -897 892 891 0
-86 -897 892 0
-86 897 -892 0
-87 -897 892 0
-87 897 -892 0
-88 -897 892 0
-88 -897 893 0
-88 897 -892 -893 0
-89 -897 892 0
-89 -897 894 0
-89 897 -892 -894 0
-90 -897 892 0
-90 897 -892 0
-99 -897 892 0
-99 897 -892 0
-81 -898 893 0
-81 898 -893 0
-82 -898 893 0
-82 898 -893 0
-83 -893 898 0
-83 -890 898 0
-83 -898 893 890 0
-84 -898 893 0
-84 898 -893 0
-85 -898 893 0
-85 898 -893 0
-86 -893 898 0
-86 -891 898 0
-86 -898 893 891 0
-87 -898 893 0
-87 898 -893 0
-88 -893 898 0
-88 -892 898 0
-88 -898 893 892 0
-89 -898 893 0
-89 898 -893 0
-90 -898 893 0
-90 -898 894 0
-90 898 -893 -894 0
-99 -898 893 0
-99 898 -893 0
-81 -899 894 0
-81 899 -894 0
-82 -899 894 0
-82 899 -894 0
-83 -899 894 0
-83 899 -894 0
-84 -894 899 0
-84 -890 899 0
-84 -899 894 890 0
-85 -899 894 0
-85 899 -894 0
-86 -899 894 0
-86 899 -894 0
-87 -894 899 0
-87 -891 899 0
-87 -899 894 891 0
-88 -899 894 0
-88 899 -894 0
-89 -894 899 0
-89 -892 899 0
-89 -899 894 892 0
-90 -894 899 0
-90 -893 899 0
-90 -899 894 893 0
-99 -899 894 0
-99 899 -894 0
900 0
-1 -905 900 0
-1 -905 901 0
-1 905 -900 -901 0
-2 -905 900 0
-2 -905 902 0
-2 905 -900 -902 0
-3 -905 900 0
-3 -905 903 0
-3 905 -900 -903 0
-4 -905 900 0
-4 -905 904 0
-4 905 -900 -904 0
-5 -905 900 0
-5 905 -900 0
-6 -905 900 0
-6 905 -900 0
-7 -905 900 0
-7 905 -900 0
-8 -905 900 0
-8 905 -900 0
-9 -905 900 0
-9 905 -900 0
-10 -905 900 0
-10 905 -900 0
-91 -905 900 0
-91 905 -900 0
-901 0
-1 -901 906 0
-1 -900 906 0
-1 -906 901 900 0
-2 -906 901 0
-2 906 -901 0
-3 -906 901 0
-3 906 -901 0
-4 -906 901 0
-4 906 -901 0
-5 -906 901 0
-5 -906 902 0
-5 906 -901 -902 0
-6 -906 901 0
-6 -906 903 0
-6 906 -901 -903 0
-7 -906 901 0
-7 -906 904 0
-7 906 -901 -904 0
-8 -906 901 0
-8 906 -901 0
-9 -906 901 0
-9 906 -901 0
-10 -906 901 0
-10 906 -901 0
-91 -906 901 0
-91 906 -901 0
902 0
-1 -907 902 0
-1 907 -902 0
-2 -902 907 0
-2 -900 907 0
-2 -907 902 900 0
-3 -907 902 0
-3 907 -902 0
-4 -907 902 0
-4 907 -902 0
-5 -902 907 0
-5 -901 907 0
-5 -907 902 901 0
-6 -907 902 0
-6 907 -902 0
-7 -907 902 0
-7 907 -902 0
-8 -907 902 0
-8 -907 903 0
-8 907 -902 -903 0
-9 -907 902 0
-9 -907 904 0
-9 907 -902 -904 0
-10 -907 902 0
-10 907 -902 0
-91 -907 902 0
-91 907 -902 0
-903 0
-1 -908 903 0
-1 908 -903 0
-2 -908 903 0
-2 908 -903 0
-3 -903 908 0
-3 -900 908 0
-3 -908 903 900 0
-4 -908 903 0
-4 908 -903 0
-5 -908 903 0
-5 908 -903 0
-6 -903 908 0
-6 -901 908 0
-6 -908 903 901 0
-7 -908 903 0
-7 908 -903 0
-8 -903 908 0
-8 -902 908 0
-8 -908 903 902 0
-9 -908 903 0
-9 908 -903 0
-10 -908 903 0
-10 -908 904 0
-10 908 -903 -904 0
-91 -908 903 0
-91 908 -903 0
904 0
-1 -909 904 0
-1 909 -904 0
-2 -909 904 0
-2 909 -904 0
-3 -909 904 0
-3 909 -904 0
-4 -904 909 0
-4 -900 909 0
-4 -909 904 900 0
-5 -909 904 0
-5 909 -904 0
-6 -909 904 0
-6 909 -904 0
-7 -904 909 0
-7 -901 909 0
-7 -909 904 901 0
-8 -909 904 0
-8 909 -904 0
-9 -904 909 0
-9 -902 909 0
-9 -909 904 902 0
-10 -904 909 0
-10 -903 909 0
-10 -909 904 903 0
-91 -909 904 0
-91 909 -904 0
-11 -910 905 0
-11 -910 906 0
-11 910 -905 -906 0
-12 -910 905 0
-12 -910 907 0
-12 910 -905 -907 0
-13 -910 905 0
-13 -910 908 0
-13 910 -905 -908 0
-14 -910 905 0
-14 -910 909 0
-14 910 -905 -909 0
-15 -910 905 0
-15 910 -905 0
-16 -910 905 0
-16 910 -905 0
-17 -910 905 0
-17 910 -905 0
-18 -910 905 0
-18 910 -905 0
-19 -910 905 0
-19 910 -905 0
-20 -910 905 0
-20 910 -905 0
-92 -910 905 0
-92 910 -905 0
-11 -906 911 0
-11 -905 911 0
-11 -911 906 905 0
-12 -911 906 0
-12 911 -906 0
-13 -911 906 0
-13 911 -906 0
-14 -911 906 0
-14 911 -906 0
-15 -911 906 0
-15 -911 907 0
-15 911 -906 -907 0
-16 -911 906 0
-16 -911 908 0
-16 911 -906 -908 0
-17 -911 906 0
-17 -911 909 0
-17 911 -906 -909 0
-18 -911 906 0
-18 911 -906 0
-19 -911 906 0
-19 911 -906 0
-20 -911 906 0
-20 911 -906 0
-92 -911 906 0
-92 911 -906 0
-11 -912 907 0
-11 912 -907 0
-12 -907 912 0
-12 -905 912 0
-12 -912 907 905 0
-13 -912 907 0
-13 912 -907 0
-14 -912 907 0
-14 912 -907 0
-15 -907 912 0
-15 -906 912 0
-15 -912 907 906 0
-16 -912 907 0
-16 912 -907 0
-17 -912 907 0
-17 912 -907 0
-18 -912 907 0
-18 -912 908 0
-18 912 -907 -908 0
-19 -912 907 0
-19 -912 909 0
-19 912 -907 -909 0
-20 -912 907 0
-20 912 -907 0
-92 -912 907 0
-92 912 -907 0
-11 -913 908 0
-11 913 -908 0
-12 -913 908 0
-12 913 -908 0
-13 -908 913 0
-13 -905 913 0
-13 -913 908 905 0
-14 -913 908 0
-14 913 -908 0
-15 -913 908 0
-15 913 -908 0
-16 -908 913 0
-16 -906 913 0
-16 -913 908 906 0
-17 -913 908 0
-17 913 -908 0
-18 -908 913 0
-18 -907 913 0
-18 -913 908 907 0
-19 -913 908 0
-19 913 -908 0
-20 -913 908 0
-20 -913 909 0
-20 913 -908 -909 0
-92 -913 908 0
-92 913 -908 0
-11 -914 909 0
-11 914 -909 0
-12 -914 909 0
-12 914 -909 0
-13 -914 909 0
-13 914 -909 0
-14 -909 914 0
-14 -905 914 0
-14 -914 909 905 0
-15 -914 909 0
-15 914 -909 0
-16 -914 909 0
-16 914 -909 0
-17 -909 914 0
-17 -906 914 0
-17 -914 909 906 0
-18 -914 909 0
-18 914 -909 0
-19 -909 914 0
-19 -907 914 0
-19 -914 909 907 0
-20 -909 914 0
-20 -908 914 0
-20 -914 909 908 0
-92 -914 909 0
-92 914 -909 0
-21 -915 910 0
-21 -915 911 0
-21 915 -910 -911 0
-22 -915 910 0
-22 -915 912 0
-22 915 -910 -912 0
-23 -915 910 0
-23 -915 913 0
-23 915 -910 -913 0
-24 -915 910 0
-24 -915 914 0
-24 915 -910 -914 0
-25 -915 910 0
-25 915 -910 0
-26 -915 910 0
-26 915 -910 0
-27 -915 910 0
-27 915 -910 0
-28 -915 910 0
-28 915 -910 0
-29 -915 910 0
-29 915 -910 0
-30 -915 910 0
-30 915 -910 0
-93 -915 910 0
-93 915 -910 0
-21 -911 916 0
-21 -910 916 0
-21 -916 911 910 0
-22 -916 911 0
-22 916 -911 0
-23 -916 911 0
-23 916 -911 0
-24 -916 911 0
-24 916 -911 0
-25 -916 911 0
-25 -916 912 0
-25 916 -911 -912 0
-26 -916 911 0
-26 -916 913 0
-26 916 -911 -913 0
-27 -916 911 0
-27 -916 914 0
-27 916 -911 -914 0
-28 -916 911 0
-28 916 -911 0
-29 -916 911 0
-29 916 -911 0
-30 -916 911 0
-30 916 -911 0
-93 -916 911 0
-93 916 -911 0
-21 -917 912 0
-21 917 -912 0
-22 -912 917 0
-22 -910 917 0
-22 -917 912 910 0
-23 -917 912 0
-23 917 -912 0
-24 -917 912 0
-24 917 -912 0
-25 -912 917 0
-25 -911 917 0
-25 -917 912 911 0
-26 -917 912 0
-26 917 -912 0
-27 -917 912 0
-27 917 -912 0
-28 -917 912 0
-28 -917 913 0
-28 917 -912 -913 0
-29 -917 912 0
-29 -917 914 0
-29 917 -912 -914 0
-30 -917 912 0
-30 917 -912 0
-93 -917 912 0
-93 917 -912 0
-21 -918 913 0
-21 918 -913 0
-22 -918 913 0
-22 918 -913 0
-23 -913 918 0
-23 -910 918 0
-23 -918 913 910 0
-24 -918 913 0
-24 918 -913 0
-25 -918 913 0
-25 918 -913 0
-26 -913 918 0
-26 -911 918 0
-26 -918 913 911 0
-27 -918 913 0
-27 918 -913 0
-28 -913 918 0
-28 -912 918 0
-28 -918 913 912 0
-29 -918 913 0
-29 918 -913 0
-30 -918 913 0
-30 -918 914 0
-30 918 -913 -914 0
-93 -918 913 0
-93 918 -913 0
-21 -919 914 0
-21 919 -914 0
-22 -919 914 0
-22 919 -914 0
-23 -919 914 0
-23 919 -914 0
-24 -914 919 0
-24 -910 919 0
-24 -919 914 910 0
-25 -919 914 0
-25 919 -914 0
-26 -919 914 0
-26 919 -914 0
-27 -914 919 0
-27 -911 919 0
-27 -919 914 911 0
-28 -919 914 0
-28 919 -914 0
-29 -914 919 0
-29 -912 919 0
-29 -919 914 912 0
-30 -914 919 0
-30 -913 919 0
-30 -919 914 913 0
-93 -919 914 0
-93 919 -914 0
-31 -920 915 0
-31 -920 916 0
-31 920 -915 -916 0
-32 -920 915 0
-32 -920 917 0
-32 920 -915 -917 0
-33 -920 915 0
-33 -920 918 0
-33 920 -915 -918 0
-34 -920 915 0
-34 -920 919 0
-34 920 -915 -919 0
-35 -920 915 0
-35 920 -915 0
-36 -920 915 0
-36 920 -915 0
-37 -920 915 0
-37 920 -915 0
-38 -920 915 0
-38 920 -915 0
-39 -920 915 0
-39 920 -915 0
-40 -920 915 0
-40 920 -915 0
-94 -920 915 0
-94 920 -915 0
-31 -916 921 0
-31 -915 921 0
-31 -921 916 915 0
-32 -921 916 0
-32 921 -916 0
-33 -921 916 0
-33 921 -916 0
-34 -921 916 0
-34 921 -916 0
-35 -921 916 0
-35 -921 917 0
-35 921 -916 -917 0
-36 -921 916 0
-36 -921 918 0
-36 921 -916 -918 0
-37 -921 916 0
-37 -921 919 0
-37 921 -916 -919 0
-38 -921 916 0
-38 921 -916 0
-39 -921 916 0
-39 921 -916 0
-40 -921 916 0
-40 921 -916 0
-94 -921 916 0
-94 921 -916 0
-31 -922 917 0
-31 922 -917 0
-32 -917 922 0
-32 -915 922 0
-32 -922 917 915 0
-33 -922 917 0
-33 922 -917 0
-34 -922 917 0
-34 922 -917 0
-35 -917 922 0
-35 -916 922 0
-35 -922 917 916 0
-36 -922 917 0
-36 922 -917 0
-37 -922 917 0
-37 922 -917 0
-38 -922 917 0
-38 -922 918 0
-38 922 -917 -918 0
-39 -922 917 0
-39 -922 919 0
-39 922 -917 -919 0
-40 -922 917 0
-40 922 -917 0
-94 -922 917 0
-94 922 -917 0
-31 -923 918 0
-31 923 -918 0
-32 -923 918 0
-32 923 -918 0
-33 -918 923 0
-33 -915 923 0
-33 -923 918 915 0
-34 -923 918 0
-34 923 -918 0
-35 -923 918 0
-35 923 -918 0
-36 -918 923 0
-36 -916 923 0
-36 -923 918 916 0
-37 -923 918 0
-37 923 -918 0
-38 -918 923 0
-38 -917 923 0
-38 -923 918 917 0
-39 -923 918 0
-39 923 -918 0
-40 -923 918 0
-40 -923 919 0
-40 923 -918 -919 0
-94 -923 918 0
-94 923 -918 0
-31 -924 919 0
-31 924 -919 0
-32 -924 919 0
-32 924 -919 0
-33 -924 919 0
-33 924 -919 0
-34 -919 924 0
-34 -915 924 0
-34 -924 919 915 0
-35 -924 919 0
-35 924 -919 0
-36 -924 919 0
-36 924 -919 0
-37 -919 924 0
-37 -916 924 0
-37 -924 919 916 0
-38 -924 919 0
-38 924 -919 0
-39 -919 924 0
-39 -917 924 0
-39 -924 919 917 0
-40 -919 924 0
-40 -918 924 0
-40 -924 919 918 0
-94 -924 919 0
-94 924 -919 0
-41 -925 920 0
-41 -925 921 0
-41 925 -920 -921 0
-42 -925 920 0
-42 -925 922 0
-42 925 -920 -922 0
-43 -925 920 0
-43 -925 923 0
-43 925 -920 -923 0
-44 -925 920 0
-44 -925 924 0
-44 925 -920 -924 0
-45 -925 920 0
-45 925 -920 0
-46 -925 920 0
-46 925 -920 0
-47 -925 920 0
-47 925 -920 0
-48 -925 920 0
-48 925 -920 0
-49 -925 920 0
-49 925 -920 0
-50 -925 920 0
-50 925 -920 0
-95 -925 920 0
-95 925 -920 0
-41 -921 926 0
-41 -920 926 0
-41 -926 921 920 0
-42 -926 921 0
-42 926 -921 0
-43 -926 921 0
-43 926 -921 0
-44 -926 921 0
-44 926 -921 0
-45 -926 921 0
-45 -926 922 0
-45 926 -921 -922 0
-46 -926 921 0
-46 -926 923 0
-46 926 -921 -923 0
-47 -926 921 0
-47 -926 924 0
-47 926 -921 -924 0
-48 -926 921 0
-48 926 -921 0
-49 -926 921 0
-49 926 -921 0
-50 -926 921 0
-50 926 -921 0
-95 -926 921 0
-95 926 -921 0
-41 -927 922 0
-41 927 -922 0
-42 -922 927 0
-42 -920 927 0
-42 -927 922 920 0
-43 -927 922 0
-43 927 -922 0
-44 -927 922 0
-44 927 -922 0
-45 -922 927 0
-45 -921 927 0
-45 -927 922 921 0
-46 -927 922 0
-46 927 -922 0
-47 -927 922 0
-47 927 -922 0
-48 -927 922 0
-48 -927 923 0
-48 927 -922 -923 0
-49 -927 922 0
-49 -927 924 0
-49 927 -922 -924 0
-50 -927 922 0
-50 927 -922 0
-95 -927 922 0
-95 927 -922 0
-41 -928 923 0
-41 928 -923 0
-42 -928 923 0
-42 928 -923 0
-43 -923 928 0
-43 -920 928 0
-43 -928 923 920 0
-44 -928 923 0
-44 928 -923 0
-45 -928 923 0
-45 928 -923 0
-46 -923 928 0
-46 -921 928 0
-46 -928 923 921 0
-47 -928 923 0
-47 928 -923 0
-48 -923 928 0
-48 -922 928 0
-48 -928 923 922 0
-49 -928 923 0
-49 928 -923 0
-50 -928 923 0
-50 -928 924 0
-50 928 -923 -924 0
-95 -928 923 0
-95 928 -923 0
-41 -929 924 0
-41 929 -924 0
-42 -929 924 0
-42 929 -924 0
-43 -929 924 0
-43 929 -924 0
-44 -924 929 0
-44 -920 929 0
-44 -929 924 920 0
-45 -929 924 0
-45 929 -924 0
-46 -929 924 0
-46 929 -924 0
-47 -924 929 0
-47 -921 929 0
-47 -929 924 921 0
-48 -929 924 0
-48 929 -924 0
-49 -924 929 0
-49 -922 929 0
-49 -929 924 922 0
-50 -924 929 0
-50 -923 929 0
-50 -929 924 923 0
-95 -929 924 0
-95 929 -924 0
-51 -930 925 0
-51 -930 926 0
-51 930 -925 -926 0
-52 -930 925 0
-52 -930 927 0
-52 930 -925 -927 0
-53 -930 925 0
-53 -930 928 0
-53 930 -925 -928 0
-54 -930 925 0
-54 -930 929 0
-54 930 -925 -929 0
-55 -930 925 0
-55 930 -925 0
-56 -930 925 0
-56 930 -925 0
-57 -930 925 0
-57 930 -925 0
-58 -930 925 0
-58 930 -925 0
-59 -930 925 0
-59 930 -925 0
-60 -930 925 0
-60 930 -925 0
-96 -930 925 0
-96 930 -925 0
-51 -926 931 0
-51 -925 931 0
-51 -931 926 925 0
-52 -931 926 0
-52 931 -926 0
-53 -931 926 0
-53 931 -926 0
-54 -931 926 0
-54 931 -926 0
-55 -931 926 0
-55 -931 927 0
-55 931 -926 -927 0
-56 -931 926 0
-56 -931 928 0
-56 931 -926 -928 0
-57 -931 926 0
-57 -931 929 0
-57 931 -926 -929 0
-58 -931 926 0
-58 931 -926 0
-59 -931 926 0
-59 931 -926 0
-60 -931 926 0
-60 931 -926 0
-96 -931 926 0
-96 931 -926 0
-51 -932 927 0
-51 932 -927 0
-52 -927 932 0
-52 -925 932 0
-52 -932 927 925 0
-53 -932 927 0
-53 932 -927 0
-54 -932 927 0
-54 932 -927 0
-55 -927 932 0
-55 -926 932 0
-55 -932 927 926 0
-56 -932 927 0
-56 932 -927 0
-57 -932 927 0
-57 932 -927 0
-58 -932 927 0
-58 -932 928 0
-58 932 -927 -928 0
-59 -932 927 0
-59 -932 929 0
-59 932 -927 -929 0
-60 -932 927 0
-60 932 -927 0
-96 -932 927 0
-96 932 -927 0
-51 -933 928 0
-51 933 -928 0
-52 -933 928 0
-52 933 -928 0
-53 -928 933 0
-53 -925 933 0
-53 -933 928 925 0
-54 -933 928 0
-54 933 -928 0
-55 -933 928 0
-55 933 -928 0
-56 -928 933 0
-56 -926 933 0
-56 -933 928 926 0
-57 -933 928 0
-57 933 -928 0
-58 -928 933 0
-58 -927 933 0
-58 -933 928 927 0
-59 -933 928 0
-59 933 -928 0
-60 -933 928 0
-60 -933 929 0
-60 933 -928 -929 0
-96 -933 928 0
-96 933 -928 0
-51 -934 929 0
-51 934 -929 0
-52 -934 929 0
-52 934 -929 0
-53 -934 929 0
-53 934 -929 0
-54 -929 934 0
-54 -925 934 0
-54 -934 929 925 0
-55 -934 929 0
-55 934 -929 0
-56 -934 929 0
-56 934 -929 0
-57 -929 934 0
-57 -926 934 0
-57 -934 929 926 0
-58 -934 929 0
-58 934 -929 0
-59 -929 934 0
-59 -927 934 0
-59 -934 929 927 0
-60 -929 934 0
-60 -928 934 0
-60 -934 929 928 0
-96 -934 929 0
-96 934 -929 0
-61 -935 930 0
-61 -935 931 0
-61 935 -930 -931 0
-62 -935 930 0
-62 -935 932 0
-62 935 -930 -932 0
-63 -935 930 0
-63 -935 933 0
-63 935 -930 -933 0
-64 -935 930 0
-64 -935 934 0
-64 935 -930 -934 0
-65 -935 930 0
-65 935 -930 0
-66 -935 930 0
-66 935 -930 0
-67 -935 930 0
-67 935 -930 0
-68 -935 930 0
-68 935 -930 0
-69 -935 930 0
-69 935 -930 0
-70 -935 930 0
-70 935 -930 0
-97 -935 930 0
-97 935 -930 0
-61 -931 936 0
-61 -930 936 0
-61 -936 931 930 0
-62 -936 931 0
-62 936 -931 0
-63 -936 931 0
-63 936 -931 0
-64 -936 931 0
-64 936 -931 0
-65 -936 931 0
-65 -936 932 0
-65 936 -931 -932 0
-66 -936 931 0
-66 -936 933 0
-66 936 -931 -933 0
-67 -936 931 0
-67 -936 934 0
-67 936 -931 -934 0
-68 -936 931 0
-68 936 -931 0
-69 -936 931 0
-69 936 -931 0
-70 -936 931 0
-70 936 -931 0
-97 -936 931 0
-97 936 -931 0
-61 -937 932 0
-61 937 -932 0
-62 -932 937 0
-62 -930 937 0
-62 -937 932 930 0
-63 -937 932 0
-63 937 -932 0
-64 -937 932 0
-64 937 -932 0
-65 -932 937 0
-65 -931 937 0
-65 -937 932 931 0
-66 -937 932 0
-66 937 -932 0
-67 -937 932 0
-67 937 -932 0
-68 -937 932 0
-68 -937 933 0
-68 937 -932 -933 0
-69 -937 932 0
-69 -937 934 0
-69 937 -932 -934 0
-70 -937 932 0
-70 937 -932 0
-97 -937 932 0
-97 937 -932 0
-61 -938 933 0
-61 938 -933 0
-62 -938 933 0
-62 938 -933 0
-63 -933 938 0
-63 -930 938 0
-63 -938 933 930 0
-64 -938 933 0
-64 938 -933 0
-65 -938 933 0
-65 938 -933 0
-66 -933 938 0
-66 -931 938 0
-66 -938 933 931 0
-67 -938 933 0
-67 938 -933 0
-68 -933 938 0
-68 -932 938 0
-68 -938 933 932 0
-69 -938 933 0
-69 938 -933 0
-70 -938 933 0
-70 -938 934 0
-70 938 -933 -934 0
-97 -938 933 0
-97 938 -933 0
-61 -939 934 0
-61 939 -934 0
-62 -939 934 0
-62 939 -934 0
-63 -939 934 0
-63 939 -934 0
-64 -934 939 0
-64 -930 939 0
-64 -939 934 930 0
-65 -939 934 0
-65 939 -934 0
-66 -939 934 0
-66 939 -934 0
-67 -934 939 0
-67 -931 939 0
-67 -939 934 931 0
-68 -939 934 0
-68 939 -934 0
-69 -934 939 0
-69 -932 939 0
-69 -939 934 932 0
-70 -934 939 0
-70 -933 939 0
-70 -939 934 933 0
-97 -939 934 0
-97 939 -934 0
-71 -940 935 0
-71 -940 936 0
-71 940 -935 -936 0
-72 -940 935 0
-72 -940 937 0
-72 940 -935 -937 0
-73 -940 935 0
-73 -940 938 0
-73 940 -935 -938 0
-74 -940 935 0
-74 -940 939 0
-74 940 -935 -939 0
-75 -940 935 0
-75 940 -935 0
-76 -940 935 0
-76 940 -935 0
-77 -940 935 0
-77 940 -935 0
-78 -940 935 0
-78 940 -935 0
-79 -940 935 0
-79 940 -935 0
-80 -940 935 0
-80 940 -935 0
-98 -940 935 0
-98 940 -935 0
-71 -936 941 0
-71 -935 941 0
-71 -941 936 935 0
-72 -941 936 0
-72 941 -936 0
-73 -941 936 0
-73 941 -936 0
-74 -941 936 0
-74 941 -936 0
-75 -941 936 0
-75 -941 937 0
-75 941 -936 -937 0
-76 -941 936 0
-76 -941 938 0
-76 941 -936 -938 0
-77 -941 936 0
-77 -941 939 0
-77 941 -936 -939 0
-78 -941 936 0
-78 941 -936 0
-79 -941 936 0
-79 941 -936 0
-80 -941 936 0
-80 941 -936 0
-98 -941 936 0
-98 941 -936 0
-71 -942 937 0
-71 942 -937 0
-72 -937 942 0
-72 -935 942 0
-72 -942 937 935 0
-73 -942 937 0
-73 942 -937 0
-74 -942 937 0
-74 942 -937 0
-75 -937 942 0
-75 -936 942 0
-75 -942 937 936 0
-76 -942 937 0
-76 942 -937 0
-77 -942 937 0
-77 942 -937 0
-78 -942 937 0
-78 -942 938 0
-78 942 -937 -938 0
-79 -942 937 0
-79 -942 939 0
-79 942 -937 -939 0
-80 -942 937 0
-80 942 -937 0
-98 -942 937 0
-98 942 -937 0
-71 -943 938 0
-71 943 -938 0
-72 -943 938 0
-72 943 -938 0
-73 -938 943 0
-73 -935 943 0
-73 -943 938 935 0
-74 -943 938 0
-74 943 -938 0
-75 -943 938 0
-75 943 -938 0
-76 -938 943 0
-76 -936 943 0
-76 -943 938 936 0
-77 -943 938 0
-77 943 -938 0
-78 -938 943 0
-78 -937 943 0
-78 -943 938 937 0
-79 -943 938 0
-79 943 -938 0
-80 -943 938 0
-80 -943 939 0
-80 943 -938 -939 0
-98 -943 938 0
-98 943 -938 0
-71 -944 939 0
-71 944 -939 0
-72 -944 939 0
-72 944 -939 0
-73 -944 939 0
-73 944 -939 0
-74 -939 944 0
-74 -935 944 0
-74 -944 939 935 0
-75 -944 939 0
-75 944 -939 0
-76 -944 939 0
-76 944 -939 0
-77 -939 944 0
-77 -936 944 0
-77 -944 939 936 0
-78 -944 939 0
-78 944 -939 0
-79 -939 944 0
-79 -937 944 0
-79 -944 939 937 0
-80 -939 944 0
-80 -938 944 0
-80 -944 939 938 0
-98 -944 939 0
-98 944 -939 0
-81 -945 940 0
-81 -945 941 0
-81 945 -940 -941 0
-82 -945 940 0
-82 -945 942 0
-82 945 -940 -942 0
-83 -945 940 0
-83 -945 943 0
-83 945 -940 -943 0
-84 -945 940 0
-84 -945 944 0
-84 945 -940 -944 0
-85 -945 940 0
-85 945 -940 0
-86 -945 940 0
-86 945 -940 0
-87 -945 940 0
-87 945 -940 0
-88 -945 940 0
-88 945 -940 0
-89 -945 940 0
-89 945 -940 0
-90 -945 940 0
-90 945 -940 0
-99 -945 940 0
-99 945 -940 0
-81 -941 946 0
-81 -940 946 0
-81 -946 941 940 0
-82 -946 941 0
-82 946 -941 0
-83 -946 941 0
-83 946 -941 0
-84 -946 941 0
-84 946 -941 0
-85 -946 941 0
-85 -946 942 0
-85 946 -941 -942 0
-86 -946 941 0
-86 -946 943 0
-86 946 -941 -943 0
-87 -946 941 0
-87 -946 944 0
-87 946 -941 -944 0
-88 -946 941 0
-88 946 -941 0
-89 -946 941 0
-89 946 -941 0
-90 -946 941 0
-90 946 -941 0
-99 -946 941 0
-99 946 -941 0
-81 -947 942 0
-81 947 -942 0
-82 -942 947 0
-82 -940 947 0
-82 -947 942 940 0
-83 -947 942 0
-83 947 -942 0
-84 -947 942 0
-84 947 -942 0
-85 -942 947 0
-85 -941 947 0
-85 -947 942 941 0
-86 -947 942 0
-86 947 -942 0
-87 -947 942 0
-87 947 -942 0
-88 -947 942 0
-88 -947 943 0
-88 947 -942 -943 0
-89 -947 942 0
-89 -947 944 0
-89 947 -942 -944 0
-90 -947 942 0
-90 947 -942 0
-99 -947 942 0
-99 947 -942 0
-81 -948 943 0
-81 948 -943 0
-82 -948 943 0
-82 948 -943 0
-83 -943 948 0
-83 -940 948 0
-83 -948 943 940 0
-84 -948 943 0
-84 948 -943 0
-85 -948 943 0
-85 948 -943 0
-86 -943 948 0
-86 -941 948 0
-86 -948 943 941 0
-87 -948 943 0
-87 948 -943 0
-88 -943 948 0
-88 -942 948 0
-88 -948 943 942 0
-89 -948 943 0
-89 948 -943 0
-90 -948 943 0
-90 -948 944 0
-90 948 -943 -944 0
-99 -948 943 0
-99 948 -943 0
-81 -949 944 0
-81 949 -944 0
-82 -949 944 0
-82 949 -944 0
-83 -949 944 0
-83 949 -944 0
-84 -944 949 0
-84 -940 949 0
-84 -949 944 940 0
-85 -949 944 0
-85 949 -944 0
-86 -949 944 0
-86 949 -944 0
-87 -944 949 0
-87 -941 949 0
-87 -949 944 941 0
-88 -949 944 0
-88 949 -944 0
-89 -944 949 0
-89 -942 949 0
-89 -949 944 942 0
-90 -944 949 0
-90 -943 949 0
-90 -949 944 943 0
-99 -949 944 0
-99 949 -944 0
950 0
-1 -955 950 0
-1 -955 951 0
-1 955 -950 -951 0
-2 -955 950 0
-2 -955 952 0
-2 955 -950 -952 0
-3 -955 950 0
-3 -955 953 0
-3 955 -950 -953 0
-4 -955 950 0
-4 -955 954 0
-4 955 -950 -954 0
-5 -955 950 0
-5 955 -950 0
-6 -955 950 0
-6 955 -950 0
-7 -955 950 0
-7 955 -950 0
-8 -955 950 0
-8 955 -950 0
-9 -955 950 0
-9 955 -950 0
-10 -955 950 0
-10 955 -950 0
-91 -955 950 0
-91 955 -950 0
-951 0
-1 -951 956 0
-1 -950 956 0
-1 -956 951 950 0
-2 -956 951 0
-2 956 -951 0
-3 -956 951 0
-3 956 -951 0
-4 -956 951 0
-4 956 -951 0
-5 -956 951 0
-5 -956 952 0
-5 956 -951 -952 0
-6 -956 951 0
-6 -956 953 0
-6 956 -951 -953 0
-7 -956 951 0
-7 -956 954 0
-7 956 -951 -954 0
-8 -956 951 0
-8 956 -951 0
-9 -956 951 0
-9 956 -951 0
-10 -956 951 0
-10 956 -951 0
-91 -956 951 0
-91 956 -951 0
952 0
-1 -957 952 0
-1 957 -952 0
-2 -952 957 0
-2 -950 957 0
-2 -957 952 950 0
-3 -957 952 0
-3 957 -952 0
-4 -957 952 0
-4 957 -952 0
-5 -952 957 0
-5 -951 957 0
-5 -957 952 951 0
-6 -957 952 0
-6 957 -952 0
-7 -957 952 0
-7 957 -952 0
-8 -957 952 0
-8 -957 953 0
-8 957 -952 -953 0
-9 -957 952 0
-9 -957 954 0
-9 957 -952 -954 0
-10 -957 952 0
-10 957 -952 0
-91 -957 952 0
-91 957 -952 0
953 0
-1 -958 953 0
-1 958 -953 0
-2 -958 953 0
-2 958 -953 0
-3 -953 958 0
-3 -950 958 0
-3 -958 953 950 0
-4 -958 953 0
-4 958 -953 0
-5 -958 953 0
-5 958 -953 0
-6 -953 958 0
-6 -951 958 0
-6 -958 953 951 0
-7 -958 953 0
-7 958 -953 0
-8 -953 958 0
-8 -952 958 0
-8 -958 953 952 0
-9 -958 953 0
-9 958 -953 0
-10 -958 953 0
-10 -958 954 0
-10 958 -953 -954 0
-91 -958 953 0
-91 958 -953 0
-954 0
-1 -959 954 0
-1 959 -954 0
-2 -959 954 0
-2 959 -954 0
-3 -959 954 0
-3 959 -954 0
-4 -954 959 0
-4 -950 959 0
-4 -959 954 950 0
-5 -959 954 0
-5 959 -954 0
-6 -959 954 0
-6 959 -954 0
-7 -954 959 0
-7 -951 959 0
-7 -959 954 951 0
-8 -959 954 0
-8 959 -954 0
-9 -954 959 0
-9 -952 959 0
-9 -959 954 952 0
-10 -954 959 0
-10 -953 959 0
-10 -959 954 953 0
-91 -959 954 0
-91 959 -954 0
-11 -960 955 0
-11 -960 956 0
-11 960 -955 -956 0
-12 -960 955 0
-12 -960 957 0
-12 960 -955 -957 0
-13 -960 955 0
-13 -960 958 0
-13 960 -955 -958 0
-14 -960 955 0
-14 -960 959 0
-14 960 -955 -959 0
-15 -960 955 0
-15 960 -955 0
-16 -960 955 0
-16 960 -955 0
-17 -960 955 0
-17 960 -955 0
-18 -960 955 0
-18 960 -955 0
-19 -960 955 0
-19 960 -955 0
-20 -960 955 0
-20 960 -955 0
-92 -960 955 0
-92 960 -955 0
-11 -956 961 0
-11 -955 961 0
-11 -961 956 955 0
-12 -961 956 0
-12 961 -956 0
-13 -961 956 0
-13 961 -956 0
-14 -961 956 0
-14 961 -956 0
-15 -961 956 0
-15 -961 957 0
-15 961 -956 -957 0
-16 -961 956 0
-16 -961 958 0
-16 961 -956 -958 0
-17 -961 956 0
-17 -961 959 0
-17 961 -956 -959 0
-18 -961 956 0
-18 961 -956 0
-19 -961 956 0
-19 961 -956 0
-20 -961 956 0
-20 961 -956 0
-92 -961 956 0
-92 961 -956 0
-11 -962 957 0
-11 962 -957 0
-12 -957 962 0
-12 -955 962 0
-12 -962 957 955 0
-13 -962 957 0
-13 962 -957 0
-14 -962 957 0
-14 962 -957 0
-15 -957 962 0
-15 -956 962 0
-15 -962 957 956 0
-16 -962 957 0
-16 962 -957 0
-17 -962 957 0
-17 962 -957 0
-18 -962 957 0
-18 -962 958 0
-18 962 -957 -958 0
-19 -962 957 0
-19 -962 959 0
-19 962 -957 -959 0
-20 -962 957 0
-20 962 -957 0
-92 -962 957 0
-92 962 -957 0
-11 -963 958 0
-11 963 -958 0
-12 -963 958 0
-12 963 -958 0
-13 -958 963 0
-13 -955 963 0
-13 -963 958 955 0
-14 -963 958 0
-14 963 -958 0
-15 -963 958 0
-15 963 -958 0
-16 -958 963 0
-16 -956 963 0
-16 -963 958 956 0
-17 -963 958 0
-17 963 -958 0
-18 -958 963 0
-18 -957 963 0
-18 -963 958 957 0
-19 -963 958 0
-19 963 -958 0
-20 -963 958 0
-20 -963 959 0
-20 963 -958 -959 0
-92 -963 958 0
-92 963 -958 0
-11 -964 959 0
-11 964 -959 0
-12 -964 959 0
-12 964 -959 0
-13 -964 959 0
-13 964 -959 0
-14 -959 964 0
-14 -955 964 0
-14 -964 959 955 0
-15 -964 959 0
-15 964 -959 0
-16 -964 959 0
-16 964 -959 0
-17 -959 964 0
-17 -956 964 0
-17 -964 959 956 0
-18 -964 959 0
-18 964 -959 0
-19 -959 964 0
-19 -957 964 0
-19 -964 959 957 0
-20 -959 964 0
-20 -958 964 0
-20 -964 959 958 0
-92 -964 959 0
-92 964 -959 0
-21 -965 960 0
-21 -965 961 0
-21 965 -960 -961 0
-22 -965 960 0
-22 -965 962 0
-22 965 -960 -962 0
-23 -965 960 0
-23 -965 963 0
-23 965 -960 -963 0
-24 -965 960 0
-24 -965 964 0
-24 965 -960 -964 0
-25 -965 960 0
-25 965 -960 0
-26 -965 960 0
-26 965 -960 0
-27 -965 960 0
-27 965 -960 0
-28 -965 960 0
-28 965 -960 0
-29 -965 960 0
-29 965 -960 0
-30 -965 960 0
-30 965 -960 0
-93 -965 960 0
-93 965 -960 0
-21 -961 966 0
-21 -960 966 0
-21 -966 961 960 0
-22 -966 961 0
-22 966 -961 0
-23 -966 961 0
-23 966 -961 0
-24 -966 961 0
-24 966 -961 0
-25 -966 961 0
-25 -966 962 0
-25 966 -961 -962 0
-26 -966 961 0
-26 -966 963 0
-26 966 -961 -963 0
-27 -966 961 0
-27 -966 964 0
-27 966 -961 -964 0
-28 -966 961 0
-28 966 -961 0
-29 -966 961 0
-29 966 -961 0
-30 -966 961 0
-30 966 -961 0
-93 -966 961 0
-93 966 -961 0
-21 -967 962 0
-21 967 -962 0
-22 -962 967 0
-22 -960 967 0
-22 -967 962 960 0
-23 -967 962 0
-23 967 -962 0
-24 -967 962 0
-24 967 -962 0
-25 -962 967 0
-25 -961 967 0
-25 -967 962 961 0
-26 -967 962 0
-26 967 -962 0
-27 -967 962 0
-27 967 -962 0
-28 -967 962 0
-28 -967 963 0
-28 967 -962 -963 0
-29 -967 962 0
-29 -967 964 0
-29 967 -962 -964 0
-30 -967 962 0
-30 967 -962 0
-93 -967 962 0
-93 967 -962 0
-21 -968 963 0
-21 968 -963 0
-22 -968 963 0
-22 968 -963 0
-23 -963 968 0
-23 -960 968 0
-23 -968 963 960 0
-24 -968 963 0
-24 968 -963 0
-25 -968 963 0
-25 968 -963 0
-26 -963 968 0
-26 -961 968 0
-26 -968 963 961 0
-27 -968 963 0
-27 968 -963 0
-28 -963 968 0
-28 -962 968 0
-28 -968 963 962 0
-29 -968 963 0
-29 968 -963 0
-30 -968 963 0
-30 -968 964 0
-30 968 -963 -964 0
-93 -968 963 0
-93 968 -963 0
-21 -969 964 0
-21 969 -964 0
-22 -969 964 0
-22 969 -964 0
-23 -969 964 0
-23 969 -964 0
-24 -964 969 0
-24 -960 969 0
-24 -969 964 960 0
-25 -969 964 0
-25 969 -964 0
-26 -969 964 0
-26 969 -964 0
-27 -964 969 0
-27 -961 969 0
-27 -969 964 961 0
-28 -969 964 0
-28 969 -964 0
-29 -964 969 0
-29 -962 969 0
-29 -969 964 962 0
-30 -964 969 0
-30 -963 969 0
-30 -969 964 963 0
-93 -969 964 0
-93 969 -964 0
-31 -970 965 0
-31 -970 966 0
-31 970 -965 -966 0
-32 -970 965 0
-32 -970 967 0
-32 970 -965 -967 0
-33 -970 965 0
-33 -970 968 0
-33 970 -965 -968 0
-34 -970 965 0
-34 -970 969 0
-34 970 -965 -969 0
-35 -970 965 0
-35 970 -965 0
-36 -970 965 0
-36 970 -965 0
-37 -970 965 0
-37 970 -965 0
-38 -970 965 0
-38 970 -965 0
-39 -970 965 0
-39 970 -965 0
-40 -970 965 0
-40 970 -965 0
-94 -970 965 0
-94 970 -965 0
-31 -966 971 0
-31 -965 971 0
-31 -971 966 965 0
-32 -971 966 0
-32 971 -966 0
-33 -971 966 0
-33 971 -966 0
-34 -971 966 0
-34 971 -966 0
-35 -971 966 0
-35 -971 967 0
-35 971 -966 -967 0
-36 -971 966 0
-36 -971 968 0
-36 971 -966 -968 0
-37 -971 966 0
-37 -971 969 0
-37 971 -966 -969 0
-38 -971 966 0
-38 971 -966 0
-39 -971 966 0
-39 971 -966 0
-40 -971 966 0
-40 971 -966 0
-94 -971 966 0
-94 971 -966 0
-31 -972 967 0
-31 972 -967 0
-32 -967 972 0
-32 -965 972 0
-32 -972 967 965 0
-33 -972 967 0
-33 972 -967 0
-34 -972 967 0
-34 972 -967 0
-35 -967 972 0
-35 -966 972 0
-35 -972 967 966 0
-36 -972 967 0
-36 972 -967 0
-37 -972 967 0
-37 972 -967 0
-38 -972 967 0
-38 -972 968 0
-38 972 -967 -968 0
-39 -972 967 0
-39 -972 969 0
-39 972 -967 -969 0
-40 -972 967 0
-40 972 -967 0
-94 -972 967 0
-94 972 -967 0
-31 -973 968 0
-31 973 -968 0
-32 -973 968 0
-32 973 -968 0
-33 -968 973 0
-33 -965 973 0
-33 -973 968 965 0
-34 -973 968 0
-34 973 -968 0
-35 -973 968 0
-35 973 -968 0
-36 -968 973 0
-36 -966 973 0
-36 -973 968 966 0
-37 -973 968 0
-37 973 -968 0
-38 -968 973 0
-38 -967 973 0
-38 -973 968 967 0
-39 -973 968 0
-39 973 -968 0
-40 -973 968 0
-40 -973 969 0
-40 973 -968 -969 0
-94 -973 968 0
-94 973 -968 0
-31 -974 969 0
-31 974 -969 0
-32 -974 969 0
-32 974 -969 0
-33 -974 969 0
-33 974 -969 0
-34 -969 974 0
-34 -965 974 0
-34 -974 969 965 0
-35 -974 969 0
-35 974 -969 0
-36 -974 969 0
-36 974 -969 0
-37 -969 974 0
-37 -966 974 0
-37 -974 969 966 0
-38 -974 969 0
-38 974 -969 0
-39 -969 974 0
-39 -967 974 0
-39 -974 969 967 0
-40 -969 974 0
-40 -968 974 0
-40 -974 969 968 0
-94 -974 969 0
-94 974 -969 0
-41 -975 970 0
-41 -975 971 0
-41 975 -970 -971 0
-42 -975 970 0
-42 -975 972 0
-42 975 -970 -972 0
-43 -975 970 0
-43 -975 973 0
-43 975 -970 -973 0
-44 -975 970 0
-44 -975 974 0
-44 975 -970 -974 0
-45 -975 970 0
-45 975 -970 0
-46 -975 970 0
-46 975 -970 0
-47 -975 970 0
-47 975 -970 0
-48 -975 970 0
-48 975 -970 0
-49 -975 970 0
-49 975 -970 0
-50 -975 970 0
-50 975 -970 0
-95 -975 970 0
-95 975 -970 0
-41 -971 976 0
-41 -970 976 0
-41 -976 971 970 0
-42 -976 971 0
-42 976 -971 0
-43 -976 971 0
-43 976 -971 0
-44 -976 971 0
-44 976 -971 0
-45 -976 971 0
-45 -976 972 0
-45 976 -971 -972 0
-46 -976 971 0
-46 -976 973 0
-46 976 -971 -973 0
-47 -976 971 0
-47 -976 974 0
-47 976 -971 -974 0
-48 -976 971 0
-48 976 -971 0
-49 -976 971 0
-49 976 -971 0
-50 -976 971 0
-50 976 -971 0
-95 -976 971 0
-95 976 -971 0
-41 -977 972 0
-41 977 -972 0
-42 -972 977 0
-42 -970 977 0
-42 -977 972 970 0
-43 -977 972 0
-43 977 -972 0
-44 -977 972 0
-44 977 -972 0
-45 -972 977 0
-45 -971 977 0
-45 -977 972 971 0
-46 -977 972 0
-46 977 -972 0
-47 -977 972 0
-47 977 -972 0
-48 -977 972 0
-48 -977 973 0
-48 977 -972 -973 0
-49 -977 972 0
-49 -977 974 0
-49 977 -972 -974 0
-50 -977 972 0
-50 977 -972 0
-95 -977 972 0
-95 977 -972 0
-41 -978 973 0
-41 978 -973 0
-42 -978 973 0
-42 978 -973 0
-43 -973 978 0
-43 -970 978 0
-43 -978 973 970 0
-44 -978 973 0
-44 978 -973 0
-45 -978 973 0
-45 978 -973 0
-46 -973 978 0
-46 -971 978 0
-46 -978 973 971 0
-47 -978 973 0
-47 978 -973 0
-48 -973 978 0
-48 -972 978 0
-48 -978 973 972 0
-49 -978 973 0
-49 978 -973 0
-50 -978 973 0
-50 -978 974 0
-50 978 -973 -974 0
-95 -978 973 0
-95 978 -973 0
-41 -979 974 0
-41 979 -974 0
-42 -979 974 0
-42 979 -974 0
-43 -979 974 0
-43 979 -974 0
-44 -974 979 0
-44 -970 979 0
-44 -979 974 970 0
-45 -979 974 0
-45 979 -974 0
-46 -979 974 0
-46 979 -974 0
-47 -974 979 0
-47 -971 979 0
-47 -979 974 971 0
-48 -979 974 0
-48 979 -974 0
-49 -974 979 0
-49 -972 979 0
-49 -979 974 972 0
-50 -974 979 0
-50 -973 979 0
-50 -979 974 973 0
-95 -979 974 0
-95 979 -974 0
-51 -980 975 0
-51 -980 976 0
-51 980 -975 -976 0
-52 -980 975 0
-52 -980 977 0
-52 980 -975 -977 0
-53 -980 975 0
-53 -980 978 0
-53 980 -975 -978 0
-54 -980 975 0
-54 -980 979 0
-54 980 -975 -979 0
-55 -980 975 0
-55 980 -975 0
-56 -980 975 0
-56 980 -975 0
-57 -980 975 0
-57 980 -975 0
-58 -980 975 0
-58 980 -975 0
-59 -980 975 0
-59 980 -975 0
-60 -980 975 0
-60 980 -975 0
-96 -980 975 0
-96 980 -975 0
-51 -976 981 0
-51 -975 981 0
-51 -981 976 975 0
-52 -981 976 0
-52 981 -976 0
-53 -981 976 0
-53 981 -976 0
-54 -981 976 0
-54 981 -976 0
-55 -981 976 0
-55 -981 977 0
-55 981 -976 -977 0
-56 -981 976 0
-56 -981 978 0
-56 981 -976 -978 0
-57 -981 976 0
-57 -981 979 0
-57 981 -976 -979 0
-58 -981 976 0
-58 981 -976 0
-59 -981 976 0
-59 981 -976 0
-60 -981 976 0
-60 981 -976 0
-96 -981 976 0
-96 981 -976 0
-51 -982 977 0
-51 982 -977 0
-52 -977 982 0
-52 -975 982 0
-52 -982 977 975 0
-53 -982 977 0
-53 982 -977 0
-54 -982 977 0
-54 982 -977 0
-55 -977 982 0
-55 -976 982 0
-55 -982 977 976 0
-56 -982 977 0
-56 982 -977 0
-57 -982 977 0
-57 982 -977 0
-58 -982 977 0
-58 -982 978 0
-58 982 -977 -978 0
-59 -982 977 0
-59 -982 979 0
-59 982 -977 -979 0
-60 -982 977 0
-60 982 -977 0
-96 -982 977 0
-96 982 -977 0
-51 -983 978 0
-51 983 -978 0
-52 -983 978 0
-52 983 -978 0
-53 -978 983 0
-53 -975 983 0
-53 -983 978 975 0
-54 -983 978 0
-54 983 -978 0
-55 -983 978 0
-55 983 -978 0
-56 -978 983 0
-56 -976 983 0
-56 -983 978 976 0
-57 -983 978 0
-57 983 -978 0
-58 -978 983 0
-58 -977 983 0
-58 -983 978 977 0
-59 -983 978 0
-59 983 -978 0
-60 -983 978 0
-60 -983 979 0
-60 983 -978 -979 0
-96 -983 978 0
-96 983 -978 0
-51 -984 979 0
-51 984 -979 0
-52 -984 979 0
-52 984 -979 0
-53 -984 979 0
-53 984 -979 0
-54 -979 984 0
-54 -975 984 0
-54 -984 979 975 0
-55 -984 979 0
-55 984 -979 0
-56 -984 979 0
-56 984 -979 0
-57 -979 984 0
-57 -976 984 0
-57 -984 979 976 0
-58 -984 979 0
-58 984 -979 0
-59 -979 984 0
-59 -977 984 0
-59 -984 979 977 0
-60 -979 984 0
-60 -978 984 0
-60 -984 979 978 0
-96 -984 979 0
-96 984 -979 0
-61 -985 980 0
-61 -985 981 0
-61 985 -980 -981 0
-62 -985 980 0
-62 -985 982 0
-62 985 -980 -982 0
-63 -985 980 0
-63 -985 983 0
-63 985 -980 -983 0
-64 -985 980 0
-64 -985 984 0
-64 985 -980 -984 0
-65 -985 980 0
-65 985 -980 0
-66 -985 980 0
-66 985 -980 0
-67 -985 980 0
-67 985 -980 0
-68 -985 980 0
-68 985 -980 0
-69 -985 980 0
-69 985 -980 0
-70 -985 980 0
-70 985 -980 0
-97 -985 980 0
-97 985 -980 0
-61 -981 986 0
-61 -980 986 0
-61 -986 981 980 0
-62 -986 981 0
-62 986 -981 0
-63 -986 981 0
-63 986 -981 0
-64 -986 981 0
-64 986 -981 0
-65 -986 981 0
-65 -986 982 0
-65 986 -981 -982 0
-66 -986 981 0
-66 -986 983 0
-66 986 -981 -983 0
-67 -986 981 0
-67 -986 984 0
-67 986 -981 -984 0
-68 -986 981 0
-68 986 -981 0
-69 -986 981 0
-69 986 -981 0
-70 -986 981 0
-70 986 -981 0
-97 -986 981 0
-97 986 -981 0
-61 -987 982 0
-61 987 -982 0
-62 -982 987 0
-62 -980 987 0
-62 -987 982 980 0
-63 -987 982 0
-63 987 -982 0
-64 -987 982 0
-64 987 -982 0
-65 -982 987 0
-65 -981 987 0
-65 -987 982 981 0
-66 -987 982 0
-66 987 -982 0
-67 -987 982 0
-67 987 -982 0
-68 -987 982 0
-68 -987 983 0
-68 987 -982 -983 0
-69 -987 982 0
-69 -987 984 0
-69 987 -982 -984 0
-70 -987 982 0
-70 987 -982 0
-97 -987 982 0
-97 987 -982 0
-61 -988 983 0
-61 988 -983 0
-62 -988 983 0
-62 988 -983 0
-63 -983 988 0
-63 -980 988 0
-63 -988 983 980 0
-64 -988 983 0
-64 988 -983 0
-65 -988 983 0
-65 988 -983 0
-66 -983 988 0
-66 -981 988 0
-66 -988 983 981 0
-67 -988 983 0
-67 988 -983 0
-68 -983 988 0
-68 -982 988 0
-68 -988 983 982 0
-69 -988 983 0
-69 988 -983 0
-70 -988 983 0
-70 -988 984 0
-70 988 -983 -984 0
-97 -988 983 0
-97 988 -983 0
-61 -989 984 0
-61 989 -984 0
-62 -989 984 0
-62 989 -984 0
-63 -989 984 0
-63 989 -984 0
-64 -984 989 0
-64 -980 989 0
-64 -989 984 980 0
-65 -989 984 0
-65 989 -984 0
-66 -989 984 0
-66 989 -984 0
-67 -984 989 0
-67 -981 989 0
-67 -989 984 981 0
-68 -989 984 0
-68 989 -984 0
-69 -984 989 0
-69 -982 989 0
-69 -989 984 982 0
-70 -984 989 0
-70 -983 989 0
-70 -989 984 983 0
-97 -989 984 0
-97 989 -984 0
-71 -990 985 0
-71 -990 986 0
-71 990 -985 -986 0
-72 -990 985 0
-72 -990 987 0
-72 990 -985 -987 0
-73 -990 985 0
-73 -990 988 0
-73 990 -985 -988 0
-74 -990 985 0
-74 -990 989 0
-74 990 -985 -989 0
-75 -990 985 0
-75 990 -985 0
-76 -990 985 0
-76 990 -985 0
-77 -990 985 0
-77 990 -985 0
-78 -990 985 0
-78 990 -985 0
-79 -990 985 0
-79 990 -985 0
-80 -990 985 0
-80 990 -985 0
-98 -990 985 0
-98 990 -985 0
-71 -986 991 0
-71 -985 991 0
-71 -991 986 985 0
-72 -991 986 0
-72 991 -986 0
-73 -991 986 0
-73 991 -986 0
-74 -991 986 0
-74 991 -986 0
-75 -991 986 0
-75 -991 987 0
-75 991 -986 -987 0
-76 -991 986 0
-76 -991 988 0
-76 991 -986 -988 0
-77 -991 986 0
-77 -991 989 0
-77 991 -986 -989 0
-78 -991 986 0
-78 991 -986 0
-79 -991 986 0
-79 991 -986 0
-80 -991 986 0
-80 991 -986 0
-98 -991 986 0
-98 991 -986 0
-71 -992 987 0
-71 992 -987 0
-72 -987 992 0
-72 -985 992 0
-72 -992 987 985 0
-73 -992 987 0
-73 992 -987 0
-74 -992 987 0
-74 992 -987 0
-75 -987 992 0
-75 -986 992 0
-75 -992 987 986 0
-76 -992 987 0
-76 992 -987 0
-77 -992 987 0
-77 992 -987 0
-78 -992 987 0
-78 -992 988 0
-78 992 -987 -988 0
-79 -992 987 0
-79 -992 989 0
-79 992 -987 -989 0
-80 -992 987 0
-80 992 -987 0
-98 -992 987 0
-98 992 -987 0
-71 -993 988 0
-71 993 -988 0
-72 -993 988 0
-72 993 -988 0
-73 -988 993 0
-73 -985 993 0
-73 -993 988 985 0
-74 -993 988 0
-74 993 -988 0
-75 -993 988 0
-75 993 -988 0
-76 -988 993 0
-76 -986 993 0
-76 -993 988 986 0
-77 -993 988 0
-77 993 -988 0
-78 -988 993 0
-78 -987 993 0
-78 -993 988 987 0
-79 -993 988 0
-79 993 -988 0
-80 -993 988 0
-80 -993 989 0
-80 993 -988 -989 0
-98 -993 988 0
-98 993 -988 0
-71 -994 989 0
-71 994 -989 0
-72 -994 989 0
-72 994 -989 0
-73 -994 989 0
-73 994 -989 0
-74 -989 994 0
-74 -985 994 0
-74 -994 989 985 0
-75 -994 989 0
-75 994 -989 0
-76 -994 989 0
-76 994 -989 0
-77 -989 994 0
-77 -986 994 0
-77 -994 989 986 0
-78 -994 989 0
-78 994 -989 0
-79 -989 994 0
-79 -987 994 0
-79 -994 989 987 0
-80 -989 994 0
-80 -988 994 0
-80 -994 989 988 0
-98 -994 989 0
-98 994 -989 0
-81 -995 990 0
-81 -995 991 0
-81 995 -990 -991 0
-82 -995 990 0
-82 -995 992 0
-82 995 -990 -992 0
-83 -995 990 0
-83 -995 993 0
-83 995 -990 -993 0
-84 -995 990 0
-84 -995 994 0
-84 995 -990 -994 0
-85 -995 990 0
-85 995 -990 0
-86 -995 990 0
-86 995 -990 0
-87 -995 990 0
-87 995 -990 0
-88 -995 990 0
-88 995 -990 0
-89 -995 990 0
-89 995 -990 0
-90 -995 990 0
-90 995 -990 0
-99 -995 990 0
-99 995 -990 0
-81 -991 996 0
-81 -990 996 0
-81 -996 991 990 0
-82 -996 991 0
-82 996 -991 0
-83 -996 991 0
-83 996 -991 0
-84 -996 991 0
-84 996 -991 0
-85 -996 991 0
-85 -996 992 0
-85 996 -991 -992 0
-86 -996 991 0
-86 -996 993 0
-86 996 -991 -993 0
-87 -996 991 0
-87 -996 994 0
-87 996 -991 -994 0
-88 -996 991 0
-88 996 -991 0
-89 -996 991 0
-89 996 -991 0
-90 -996 991 0
-90 996 -991 0
-99 -996 991 0
-99 996 -991 0
-81 -997 992 0
-81 997 -992 0
-82 -992 997 0
-82 -990 997 0
-82 -997 992 990 0
-83 -997 992 0
-83 997 -992 0
-84 -997 992 0
-84 997 -992 0
-85 -992 997 0
-85 -991 997 0
-85 -997 992 991 0
-86 -997 992 0
-86 997 -992 0
-87 -997 992 0
-87 997 -992 0
-88 -997 992 0
-88 -997 993 0
-88 997 -992 -993 0
-89 -997 992 0
-89 -997 994 0
-89 997 -992 -994 0
-90 -997 992 0
-90 997 -992 0
-99 -997 992 0
-99 997 -992 0
-81 -998 993 0
-81 998 -993 0
-82 -998 993 0
-82 998 -993 0
-83 -993 998 0
-83 -990 998 0
-83 -998 993 990 0
-84 -998 993 0
-84 998 -993 0
-85 -998 993 0
-85 998 -993 0
-86 -993 998 0
-86 -991 998 0
-86 -998 993 991 0
-87 -998 993 0
-87 998 -993 0
-88 -993 998 0
-88 -992 998 0
-88 -998 993 992 0
-89 -998 993 0
-89 998 -993 0
-90 -998 993 0
-90 -998 994 0
-90 998 -993 -994 0
-99 -998 993 0
-99 998 -993 0
-81 -999 994 0
-81 999 -994 0
-82 -999 994 0
-82 999 -994 0
-83 -999 994 0
-83 999 -994 0
-84 -994 999 0
-84 -990 999 0
-84 -999 994 990 0
-85 -999 994 0
-85 999 -994 0
-86 -999 994 0
-86 999 -994 0
-87 -994 999 0
-87 -991 999 0
-87 -999 994 991 0
-88 -999 994 0
-88 999 -994 0
-89 -994 999 0
-89 -992 999 0
-89 -999 994 992 0
-90 -994 999 0
-90 -993 999 0
-90 -999 994 993 0
-99 -999 994 0
-99 999 -994 0
1000 0
-1 -1005 1000 0
-1 -1005 1001 0
-1 1005 -1000 -1001 0
-2 -1005 1000 0
-2 -1005 1002 0
-2 1005 -1000 -1002 0
-3 -1005 1000 0
-3 -1005 1003 0
-3 1005 -1000 -1003 0
-4 -1005 1000 0
-4 -1005 1004 0
-4 1005 -1000 -1004 0
-5 -1005 1000 0
-5 1005 -1000 0
-6 -1005 1000 0
-6 1005 -1000 0
-7 -1005 1000 0
-7 1005 -1000 0
-8 -1005 1000 0
-8 1005 -1000 0
-9 -1005 1000 0
-9 1005 -1000 0
-10 -1005 1000 0
-10 1005 -1000 0
-91 -1005 1000 0
-91 1005 -1000 0
-1001 0
-1 -1001 1006 0
-1 -1000 1006 0
-1 -1006 1001 1000 0
-2 -1006 1001 0
-2 1006 -1001 0
-3 -1006 1001 0
-3 1006 -1001 0
-4 -1006 1001 0
-4 1006 -1001 0
-5 -1006 1001 0
-5 -1006 1002 0
-5 1006 -1001 -1002 0
-6 -1006 1001 0
-6 -1006 1003 0
-6 1006 -1001 -1003 0
-7 -1006 1001 0
-7 -1006 1004 0
-7 1006 -1001 -1004 0
-8 -1006 1001 0
-8 1006 -1001 0
-9 -1006 1001 0
-9 1006 -1001 0
-10 -1006 1001 0
-10 1006 -1001 0
-91 -1006 1001 0
-91 1006 -1001 0
1002 0
-1 -1007 1002 0
-1 1007 -1002 0
-2 -1002 1007 0
-2 -1000 1007 0
-2 -1007 1002 1000 0
-3 -1007 1002 0
-3 1007 -1002 0
-4 -1007 1002 0
-4 1007 -1002 0
-5 -1002 1007 0
-5 -1001 1007 0
-5 -1007 1002 1001 0
-6 -1007 1002 0
-6 1007 -1002 0
-7 -1007 1002 0
-7 1007 -1002 0
-8 -1007 1002 0
-8 -1007 1003 0
-8 1007 -1002 -1003 0
-9 -1007 1002 0
-9 -1007 1004 0
-9 1007 -1002 -1004 0
-10 -1007 1002 0
-10 1007 -1002 0
-91 -1007 1002 0
-91 1007 -1002 0
1003 0
-1 -1008 1003 0
-1 1008 -1003 0
-2 -1008 1003 0
-2 1008 -1003 0
-3 -1003 1008 0
-3 -1000 1008 0
-3 -1008 1003 1000 0
-4 -1008 1003 0
-4 1008 -1003 0
-5 -1008 1003 0
-5 1008 -1003 0
-6 -1003 1008 0
-6 -1001 1008 0
-6 -1008 1003 1001 0
-7 -1008 1003 0
-7 1008 -1003 0
-8 -1003 1008 0
-8 -1002 1008 0
-8 -1008 1003 1002 0
-9 -1008 1003 0
-9 1008 -1003 0
-10 -1008 1003 0
-10 -1008 1004 0
-10 1008 -1003 -1004 0
-91 -1008 1003 0
-91 1008 -1003 0
1004 0
-1 -1009 1004 0
-1 1009 -1004 0
-2 -1009 1004 0
-2 1009 -1004 0
-3 -1009 1004 0
-3 1009 -1004 0
-4 -1004 1009 0
-4 -1000 1009 0
-4 -1009 1004 1000 0
-5 -1009 1004 0
-5 1009 -1004 0
-6 -1009 1004 0
-6 1009 -1004 0
-7 -1004 1009 0
-7 -1001 1009 0
-7 -1009 1004 1001 0
-8 -1009 1004 0
-8 1009 -1004 0
-9 -1004 1009 0
-9 -1002 1009 0
-9 -1009 1004 1002 0
-10 -1004 1009 0
-10 -1003 1009 0
-10 -1009 1004 1003 0
-91 -1009 1004 0
-91 1009 -1004 0
-11 -1010 1005 0
-11 -1010 1006 0
-11 1010 -1005 -1006 0
-12 -1010 1005 0
-12 -1010 1007 0
-12 1010 -1005 -1007 0
-13 -1010 1005 0
-13 -1010 1008 0
-13 1010 -1005 -1008 0
-14 -1010 1005 0
-14 -1010 1009 0
-14 1010 -1005 -1009 0
-15 -1010 1005 0
-15 1010 -1005 0
-16 -1010 1005 0
-16 1010 -1005 0
-17 -1010 1005 0
-17 1010 -1005 0
-18 -1010 1005 0
-18 1010 -1005 0
-19 -1010 1005 0
-19 1010 -1005 0
-20 -1010 1005 0
-20 1010 -1005 0
-92 -1010 1005 0
-92 1010 -1005 0
-11 -1006 1011 0
-11 -1005 1011 0
-11 -1011 1006 1005 0
-12 -1011 1006 0
-12 1011 -1006 0
-13 -1011 1006 0
-13 1011 -1006 0
-14 -1011 1006 0
-14 1011 -1006 0
-15 -1011 1006 0
-15 -1011 1007 0
-15 1011 -1006 -1007 0
-16 -1011 1006 0
-16 -1011 1008 0
-16 1011 -1006 -1008 0
-17 -1011 1006 0
-17 -1011 1009 0
-17 1011 -1006 -1009 0
-18 -1011 1006 0
-18 1011 -1006 0
-19 -1011 1006 0
-19 1011 -1006 0
-20 -1011 1006 0
-20 1011 -1006 0
-92 -1011 1006 0
-92 1011 -1006 0
-11 -1012 1007 0
-11 1012 -1007 0
-12 -1007 1012 0
-12 -1005 1012 0
-12 -1012 1007 1005 0
-13 -1012 1007 0
-13 1012 -1007 0
-14 -1012 1007 0
-14 1012 -1007 0
-15 -1007 1012 0
-15 -1006 1012 0
-15 -1012 1007 1006 0
-16 -1012 1007 0
-16 1012 -1007 0
-17 -1012 1007 0
-17 1012 -1007 0
-18 -1012 1007 0
-18 -1012 1008 0
-18 1012 -1007 -1008 0
-19 -1012 1007 0
-19 -1012 1009 0
-19 1012 -1007 -1009 0
-20 -1012 1007 0
-20 1012 -1007 0
-92 -1012 1007 0
-92 1012 -1007 0
-11 -1013 1008 0
-11 1013 -1008 0
-12 -1013 1008 0
-12 1013 -1008 0
-13 -1008 1013 0
-13 -1005 1013 0
-13 -1013 1008 1005 0
-14 -1013 1008 0
-14 1013 -1008 0
-15 -1013 1008 0
-15 1013 -1008 0
-16 -1008 1013 0
-16 -1006 1013 0
-16 -1013 1008 1006 0
-17 -1013 1008 0
-17 1013 -1008 0
-18 -1008 1013 0
-18 -1007 1013 0
-18 -1013 1008 1007 0
-19 -1013 1008 0
-19 1013 -1008 0
-20 -1013 1008 0
-20 -1013 1009 0
-20 1013 -1008 -1009 0
-92 -1013 1008 0
-92 1013 -1008 0
-11 -1014 1009 0
-11 1014 -1009 0
-12 -1014 1009 0
-12 1014 -1009 0
-13 -1014 1009 0
-13 1014 -1009 0
-14 -1009 1014 0
-14 -1005 1014 0
-14 -1014 1009 1005 0
-15 -1014 1009 0
-15 1014 -1009 0
-16 -1014 1009 0
-16 1014 -1009 0
-17 -1009 1014 0
-17 -1006 1014 0
-17 -1014 1009 1006 0
-18 -1014 1009 0
-18 1014 -1009 0
-19 -1009 1014 0
-19 -1007 1014 0
-19 -1014 1009 1007 0
-20 -1009 1014 0
-20 -1008 1014 0
-20 -1014 1009 1008 0
-92 -1014 1009 0
-92 1014 -1009 0
-21 -1015 1010 0
-21 -1015 1011 0
-21 1015 -1010 -1011 0
-22 -1015 1010 0
-22 -1015 1012 0
-22 1015 -1010 -1012 0
-23 -1015 1010 0
-23 -1015 1013 0
-23 1015 -1010 -1013 0
-24 -1015 1010 0
-24 -1015 1014 0
-24 1015 -1010 -1014 0
-25 -1015 1010 0
-25 1015 -1010 0
-26 -1015 1010 0
-26 1015 -1010 0
-27 -1015 1010 0
-27 1015 -1010 0
-28 -1015 1010 0
-28 1015 -1010 0
-29 -1015 1010 0
-29 1015 -1010 0
-30 -1015 1010 0
-30 1015 -1010 0
-93 -1015 1010 0
-93 1015 -1010 0
-21 -1011 1016 0
-21 -1010 1016 0
-21 -1016 1011 1010 0
-22 -1016 1011 0
-22 1016 -1011 0
-23 -1016 1011 0
-23 1016 -1011 0
-24 -1016 1011 0
-24 1016 -1011 0
-25 -1016 1011 0
-25 -1016 1012 0
-25 1016 -1011 -1012 0
-26 -1016 1011 0
-26 -1016 1013 0
-26 1016 -1011 -1013 0
-27 -1016 1011 0
-27 -1016 1014 0
-27 1016 -1011 -1014 0
-28 -1016 1011 0
-28 1016 -1011 0
-29 -1016 1011 0
-29 1016 -1011 0
-30 -1016 1011 0
-30 1016 -1011 0
-93 -1016 1011 0
-93 1016 -1011 0
-21 -1017 1012 0
-21 1017 -1012 0
-22 -1012 1017 0
-22 -1010 1017 0
-22 -1017 1012 1010 0
-23 -1017 1012 0
-23 1017 -1012 0
-24 -1017 1012 0
-24 1017 -1012 0
-25 -1012 1017 0
-25 -1011 1017 0
-25 -1017 1012 1011 0
-26 -1017 1012 0
-26 1017 -1012 0
-27 -1017 1012 0
-27 1017 -1012 0
-28 -1017 1012 0
-28 -1017 1013 0
-28 1017 -1012 -1013 0
-29 -1017 1012 0
-29 -1017 1014 0
-29 1017 -1012 -1014 0
-30 -1017 1012 0
-30 1017 -1012 0
-93 -1017 1012 0
-93 1017 -1012 0
-21 -1018 1013 0
-21 1018 -1013 0
-22 -1018 1013 0
-22 1018 -1013 0
-23 -1013 1018 0
-23 -1010 1018 0
-23 -1018 1013 1010 0
-24 -1018 1013 0
-24 1018 -1013 0
-25 -1018 1013 0
-25 1018 -1013 0
-26 -1013 1018 0
-26 -1011 1018 0
-26 -1018 1013 1011 0
-27 -1018 1013 0
-27 1018 -1013 0
-28 -1013 1018 0
-28 -1012 1018 0
-28 -1018 1013 1012 0
-29 -1018 1013 0
-29 1018 -1013 0
-30 -1018 1013 0
-30 -1018 1014 0
-30 1018 -1013 -1014 0
-93 -1018 1013 0
-93 1018 -1013 0
-21 -1019 1014 0
-21 1019 -1014 0
-22 -1019 1014 0
-22 1019 -1014 0
-23 -1019 1014 0
-23 1019 -1014 0
-24 -1014 1019 0
-24 -1010 1019 0
-24 -1019 1014 1010 0
-25 -1019 1014 0
-25 1019 -1014 0
-26 -1019 1014 0
-26 1019 -1014 0
-27 -1014 1019 0
-27 -1011 1019 0
-27 -1019 1014 1011 0
-28 -1019 1014 0
-28 1019 -1014 0
-29 -1014 1019 0
-29 -1012 1019 0
-29 -1019 1014 1012 0
-30 -1014 1019 0
-30 -1013 1019 0
-30 -1019 1014 1013 0
-93 -1019 1014 0
-93 1019 -1014 0
-31 -1020 1015 0
-31 -1020 1016 0
-31 1020 -1015 -1016 0
-32 -1020 1015 0
-32 -1020 1017 0
-32 1020 -1015 -1017 0
-33 -1020 1015 0
-33 -1020 1018 0
-33 1020 -1015 -1018 0
-34 -1020 1015 0
-34 -1020 1019 0
-34 1020 -1015 -1019 0
-35 -1020 1015 0
-35 1020 -1015 0
-36 -1020 1015 0
-36 1020 -1015 0
-37 -1020 1015 0
-37 1020 -1015 0
-38 -1020 1015 0
-38 1020 -1015 0
-39 -1020 1015 0
-39 1020 -1015 0
-40 -1020 1015 0
-40 1020 -1015 0
-94 -1020 1015 0
-94 1020 -1015 0
-31 -1016 1021 0
-31 -1015 1021 0
-31 -1021 1016 1015 0
-32 -1021 1016 0
-32 1021 -1016 0
-33 -1021 1016 0
-33 1021 -1016 0
-34 -1021 1016 0
-34 1021 -1016 0
-35 -1021 1016 0
-35 -1021 1017 0
-35 1021 -1016 -1017 0
-36 -1021 1016 0
-36 -1021 1018 0
-36 1021 -1016 -1018 0
-37 -1021 1016 0
-37 -1021 1019 0
-37 1021 -1016 -1019 0
-38 -1021 1016 0
-38 1021 -1016 0
-39 -1021 1016 0
-39 1021 -1016 0
-40 -1021 1016 0
-40 1021 -1016 0
-94 -1021 1016 0
-94 1021 -1016 0
-31 -1022 1017 0
-31 1022 -1017 0
-32 -1017 1022 0
-32 -1015 1022 0
-32 -1022 1017 1015 0
-33 -1022 1017 0
-33 1022 -1017 0
-34 -1022 1017 0
-34 1022 -1017 0
-35 -1017 1022 0
-35 -1016 1022 0
-35 -1022 1017 1016 0
-36 -1022 1017 0
-36 1022 -1017 0
-37 -1022 1017 0
-37 1022 -1017 0
-38 -1022 1017 0
-38 -1022 1018 0
-38 1022 -1017 -1018 0
-39 -1022 1017 0
-39 -1022 1019 0
-39 1022 -1017 -1019 0
-40 -1022 1017 0
-40 1022 -1017 0
-94 -1022 1017 0
-94 1022 -1017 0
-31 -1023 1018 0
-31 1023 -1018 0
-32 -1023 1018 0
-32 1023 -1018 0
-33 -1018 1023 0
-33 -1015 1023 0
-33 -1023 1018 1015 0
-34 -1023 1018 0
-34 1023 -1018 0
-35 -1023 1018 0
-35 1023 -1018 0
-36 -1018 1023 0
-36 -1016 1023 0
-36 -1023 1018 1016 0
-37 -1023 1018 0
-37 1023 -1018 0
-38 -1018 1023 0
-38 -1017 1023 0
-38 -1023 1018 1017 0
-39 -1023 1018 0
-39 1023 -1018 0
-40 -1023 1018 0
-40 -1023 1019 0
-40 1023 -1018 -1019 0
-94 -1023 1018 0
-94 1023 -1018 0
-31 -1024 1019 0
-31 1024 -1019 0
-32 -1024 1019 0
-32 1024 -1019 0
-33 -1024 1019 0
-33 1024 -1019 0
-34 -1019 1024 0
-34 -1015 1024 0
-34 -1024 1019 1015 0
-35 -1024 1019 0
-35 1024 -1019 0
-36 -1024 1019 0
-36 1024 -1019 0
-37 -1019 1024 0
-37 -1016 1024 0
-37 -1024 1019 1016 0
-38 -1024 1019 0
-38 1024 -1019 0
-39 -1019 1024 0
-39 -1017 1024 0
-39 -1024 1019 1017 0
-40 -1019 1024 0
-40 -1018 1024 0
-40 -1024 1019 1018 0
-94 -1024 1019 0
-94 1024 -1019 0
-41 -1025 1020 0
-41 -1025 1021 0
-41 1025 -1020 -1021 0
-42 -1025 1020 0
-42 -1025 1022 0
-42 1025 -1020 -1022 0
-43 -1025 1020 0
-43 -1025 1023 0
-43 1025 -1020 -1023 0
-44 -1025 1020 0
-44 -1025 1024 0
-44 1025 -1020 -1024 0
-45 -1025 1020 0
-45 1025 -1020 0
-46 -1025 1020 0
-46 1025 -1020 0
-47 -1025 1020 0
-47 1025 -1020 0
-48 -1025 1020 0
-48 1025 -1020 0
-49 -1025 1020 0
-49 1025 -1020 0
-50 -1025 1020 0
-50 1025 -1020 0
-95 -1025 1020 0
-95 1025 -1020 0
-41 -1021 1026 0
-41 -1020 1026 0
-41 -1026 1021 1020 0
-42 -1026 1021 0
-42 1026 -1021 0
-43 -1026 1021 0
-43 1026 -1021 0
-44 -1026 1021 0
-44 1026 -1021 0
-45 -1026 1021 0
-45 -1026 1022 0
-45 1026 -1021 -1022 0
-46 -1026 1021 0
-46 -1026 1023 0
-46 1026 -1021 -1023 0
-47 -1026 1021 0
-47 -1026 1024 0
-47 1026 -1021 -1024 0
-48 -1026 1021 0
-48 1026 -1021 0
-49 -1026 1021 0
-49 1026 -1021 0
-50 -1026 1021 0
-50 1026 -1021 0
-95 -1026 1021 0
-95 1026 -1021 0
-41 -1027 1022 0
-41 1027 -1022 0
-42 -1022 1027 0
-42 -1020 1027 0
-42 -1027 1022 1020 0
-43 -1027 1022 0
-43 1027 -1022 0
-44 -1027 1022 0
-44 1027 -1022 0
-45 -1022 1027 0
-45 -1021 1027 0
-45 -1027 1022 1021 0
-46 -1027 1022 0
-46 1027 -1022 0
-47 -1027 1022 0
-47 1027 -1022 0
-48 -1027 1022 0
-48 -1027 1023 0
-48 1027 -1022 -1023 0
-49 -1027 1022 0
-49 -1027 1024 0
-49 1027 -1022 -1024 0
-50 -1027 1022 0
-50 1027 -1022 0
-95 -1027 1022 0
-95 1027 -1022 0
-41 -1028 1023 0
-41 1028 -1023 0
-42 -1028 1023 0
-42 1028 -1023 0
-43 -1023 1028 0
-43 -1020 1028 0
-43 -1028 1023 1020 0
-44 -1028 1023 0
-44 1028 -1023 0
-45 -1028 1023 0
-45 1028 -1023 0
-46 -1023 1028 0
-46 -1021 1028 0
-46 -1028 1023 1021 0
-47 -1028 1023 0
-47 1028 -1023 0
-48 -1023 1028 0
-48 -1022 1028 0
-48 -1028 1023 1022 0
-49 -1028 1023 0
-49 1028 -1023 0
-50 -1028 1023 0
-50 -1028 1024 0
-50 1028 -1023 -1024 0
-95 -1028 1023 0
-95 1028 -1023 0
-41 -1029 1024 0
-41 1029 -1024 0
-42 -1029 1024 0
-42 1029 -1024 0
-43 -1029 1024 0
-43 1029 -1024 0
-44 -1024 1029 0
-44 -1020 1029 0
-44 -1029 1024 1020 0
-45 -1029 1024 0
-45 1029 -1024 0
-46 -1029 1024 0
-46 1029 -1024 0
-47 -1024 1029 0
-47 -1021 1029 0
-47 -1029 1024 1021 0
-48 -1029 1024 0
-48 1029 -1024 0
-49 -1024 1029 0
-49 -1022 1029 0
-49 -1029 1024 1022 0
-50 -1024 1029 0
-50 -1023 1029 0
-50 -1029 1024 1023 0
-95 -1029 1024 0
-95 1029 -1024 0
-51 -1030 1025 0
-51 -1030 1026 0
-51 1030 -1025 -1026 0
-52 -1030 1025 0
-52 -1030 1027 0
-52 1030 -1025 -1027 0
-53 -1030 1025 0
-53 -1030 1028 0
-53 1030 -1025 -1028 0
-54 -1030 1025 0
-54 -1030 1029 0
-54 1030 -1025 -1029 0
-55 -1030 1025 0
-55 1030 -1025 0
-56 -1030 1025 0
-56 1030 -1025 0
-57 -1030 1025 0
-57 1030 -1025 0
-58 -1030 1025 0
-58 1030 -1025 0
-59 -1030 1025 0
-59 1030 -1025 0
-60 -1030 1025 0
-60 1030 -1025 0
-96 -1030 1025 0
-96 1030 -1025 0
-51 -1026 1031 0
-51 -1025 1031 0
-51 -1031 1026 1025 0
-52 -1031 1026 0
-52 1031 -1026 0
-53 -1031 1026 0
-53 1031 -1026 0
-54 -1031 1026 0
-54 1031 -1026 0
-55 -1031 1026 0
-55 -1031 1027 0
-55 1031 -1026 -1027 0
-56 -1031 1026 0
-56 -1031 1028 0
-56 1031 -1026 -1028 0
-57 -1031 1026 0
-57 -1031 1029 0
-57 1031 -1026 -1029 0
-58 -1031 1026 0
-58 1031 -1026 0
-59 -1031 1026 0
-59 1031 -1026 0
-60 -1031 1026 0
-60 1031 -1026 0
-96 -1031 1026 0
-96 1031 -1026 0
-51 -1032 1027 0
-51 1032 -1027 0
-52 -1027 1032 0
-52 -1025 1032 0
-52 -1032 1027 1025 0
-53 -1032 1027 0
-53 1032 -1027 0
-54 -1032 1027 0
-54 1032 -1027 0
-55 -1027 1032 0
-55 -1026 1032 0
-55 -1032 1027 1026 0
-56 -1032 1027 0
-56 1032 -1027 0
-57 -1032 1027 0
-57 1032 -1027 0
-58 -1032 1027 0
-58 -1032 1028 0
-58 1032 -1027 -1028 0
-59 -1032 1027 0
-59 -1032 1029 0
-59 1032 -1027 -1029 0
-60 -1032 1027 0
-60 1032 -1027 0
-96 -1032 1027 0
-96 1032 -1027 0
-51 -1033 1028 0
-51 1033 -1028 0
-52 -1033 1028 0
-52 1033 -1028 0
-53 -1028 1033 0
-53 -1025 1033 0
-53 -1033 1028 1025 0
-54 -1033 1028 0
-54 1033 -1028 0
-55 -1033 1028 0
-55 1033 -1028 0
-56 -1028 1033 0
-56 -1026 1033 0
-56 -1033 1028 1026 0
-57 -1033 1028 0
-57 1033 -1028 0
-58 -1028 1033 0
-58 -1027 1033 0
-58 -1033 1028 1027 0
-59 -1033 1028 0
-59 1033 -1028 0
-60 -1033 1028 0
-60 -1033 1029 0
-60 1033 -1028 -1029 0
-96 -1033 1028 0
-96 1033 -1028 0
-51 -1034 1029 0
-51 1034 -1029 0
-52 -1034 1029 0
-52 1034 -1029 0
-53 -1034 1029 0
-53 1034 -1029 0
-54 -1029 1034 0
-54 -1025 1034 0
-54 -1034 1029 1025 0
-55 -1034 1029 0
-55 1034 -1029 0
-56 -1034 1029 0
-56 1034 -1029 0
-57 -1029 1034 0
-57 -1026 1034 0
-57 -1034 1029 1026 0
-58 -1034 1029 0
-58 1034 -1029 0
-59 -1029 1034 0
-59 -1027 1034 0
-59 -1034 1029 1027 0
-60 -1029 1034 0
-60 -1028 1034 0
-60 -1034 1029 1028 0
-96 -1034 1029 0
-96 1034 -1029 0
-61 -1035 1030 0
-61 -1035 1031 0
-61 1035 -1030 -1031 0
-62 -1035 1030 0
-62 -1035 1032 0
-62 1035 -1030 -1032 0
-63 -1035 1030 0
-63 -1035 1033 0
-63 1035 -1030 -1033 0
-64 -1035 1030 0
-64 -1035 1034 0
-64 1035 -1030 -1034 0
-65 -1035 1030 0
-65 1035 -1030 0
-66 -1035 1030 0
-66 1035 -1030 0
-67 -1035 1030 0
-67 1035 -1030 0
-68 -1035 1030 0
-68 1035 -1030 0
-69 -1035 1030 0
-69 1035 -1030 0
-70 -1035 1030 0
-70 1035 -1030 0
-97 -1035 1030 0
-97 1035 -1030 0
-61 -1031 1036 0
-61 -1030 1036 0
-61 -1036 1031 1030 0
-62 -1036 1031 0
-62 1036 -1031 0
-63 -1036 1031 0
-63 1036 -1031 0
-64 -1036 1031 0
-64 1036 -1031 0
-65 -1036 1031 0
-65 -1036 1032 0
-65 1036 -1031 -1032 0
-66 -1036 1031 0
-66 -1036 1033 0
-66 1036 -1031 -1033 0
-67 -1036 1031 0
-67 -1036 1034 0
-67 1036 -1031 -1034 0
-68 -1036 1031 0
-68 1036 -1031 0
-69 -1036 1031 0
-69 1036 -1031 0
-70 -1036 1031 0
-70 1036 -1031 0
-97 -1036 1031 0
-97 1036 -1031 0
-61 -1037 1032 0
-61 1037 -1032 0
-62 -1032 1037 0
-62 -1030 1037 0
-62 -1037 1032 1030 0
-63 -1037 1032 0
-63 1037 -1032 0
-64 -1037 1032 0
-64 1037 -1032 0
-65 -1032 1037 0
-65 -1031 1037 0
-65 -1037 1032 1031 0
-66 -1037 1032 0
-66 1037 -1032 0
-67 -1037 1032 0
-67 1037 -1032 0
-68 -1037 1032 0
-68 -1037 1033 0
-68 1037 -1032 -1033 0
-69 -1037 1032 0
-69 -1037 1034 0
-69 1037 -1032 -1034 0
-70 -1037 1032 0
-70 1037 -1032 0
-97 -1037 1032 0
-97 1037 -1032 0
-61 -1038 1033 0
-61 1038 -1033 0
-62 -1038 1033 0
-62 1038 -1033 0
-63 -1033 1038 0
-63 -1030 1038 0
-63 -1038 1033 1030 0
-64 -1038 1033 0
-64 1038 -1033 0
-65 -1038 1033 0
-65 1038 -1033 0
-66 -1033 1038 0
-66 -1031 1038 0
-66 -1038 1033 1031 0
-67 -1038 1033 0
-67 1038 -1033 0
-68 -1033 1038 0
-68 -1032 1038 0
-68 -1038 1033 1032 0
-69 -1038 1033 0
-69 1038 -1033 0
-70 -1038 1033 0
-70 -1038 1034 0
-70 1038 -1033 -1034 0
-97 -1038 1033 0
-97 1038 -1033 0
-61 -1039 1034 0
-61 1039 -1034 0
-62 -1039 1034 0
-62 1039 -1034 0
-63 -1039 1034 0
-63 1039 -1034 0
-64 -1034 1039 0
-64 -1030 1039 0
-64 -1039 1034 1030 0
-65 -1039 1034 0
-65 1039 -1034 0
-66 -1039 1034 0
-66 1039 -1034 0
-67 -1034 1039 0
-67 -1031 1039 0
-67 -1039 1034 1031 0
-68 -1039 1034 0
-68 1039 -1034 0
-69 -1034 1039 0
-69 -1032 1039 0
-69 -1039 1034 1032 0
-70 -1034 1039 0
-70 -1033 1039 0
-70 -1039 1034 1033 0
-97 -1039 1034 0
-97 1039 -1034 0
-71 -1040 1035 0
-71 -1040 1036 0
-71 1040 -1035 -1036 0
-72 -1040 1035 0
-72 -1040 1037 0
-72 1040 -1035 -1037 0
-73 -1040 1035 0
-73 -1040 1038 0
-73 1040 -1035 -1038 0
-74 -1040 1035 0
-74 -1040 1039 0
-74 1040 -1035 -1039 0
-75 -1040 1035 0
-75 1040 -1035 0
-76 -1040 1035 0
-76 1040 -1035 0
-77 -1040 1035 0
-77 1040 -1035 0
-78 -1040 1035 0
-78 1040 -1035 0
-79 -1040 1035 0
-79 1040 -1035 0
-80 -1040 1035 0
-80 1040 -1035 0
-98 -1040 1035 0
-98 1040 -1035 0
-71 -1036 1041 0
-71 -1035 1041 0
-71 -1041 1036 1035 0
-72 -1041 1036 0
-72 1041 -1036 0
-73 -1041 1036 0
-73 1041 -1036 0
-74 -1041 1036 0
-74 1041 -1036 0
-75 -1041 1036 0
-75 -1041 1037 0
-75 1041 -1036 -1037 0
-76 -1041 1036 0
-76 -1041 1038 0
-76 1041 -1036 -1038 0
-77 -1041 1036 0
-77 -1041 1039 0
-77 1041 -1036 -1039 0
-78 -1041 1036 0
-78 1041 -1036 0
-79 -1041 1036 0
-79 1041 -1036 0
-80 -1041 1036 0
-80 1041 -1036 0
-98 -1041 1036 0
-98 1041 -1036 0
-71 -1042 1037 0
-71 1042 -1037 0
-72 -1037 1042 0
-72 -1035 1042 0
-72 -1042 1037 1035 0
-73 -1042 1037 0
-73 1042 -1037 0
-74 -1042 1037 0
-74 1042 -1037 0
-75 -1037 1042 0
-75 -1036 1042 0
-75 -1042 1037 1036 0
-76 -1042 1037 0
-76 1042 -1037 0
-77 -1042 1037 0
-77 1042 -1037 0
-78 -1042 1037 0
-78 -1042 1038 0
-78 1042 -1037 -1038 0
-79 -1042 1037 0
-79 -1042 1039 0
-79 1042 -1037 -1039 0
-80 -1042 1037 0
-80 1042 -1037 0
-98 -1042 1037 0
-98 1042 -1037 0
-71 -1043 1038 0
-71 1043 -1038 0
-72 -1043 1038 0
-72 1043 -1038 0
-73 -1038 1043 0
-73 -1035 1043 0
-73 -1043 1038 1035 0
-74 -1043 1038 0
-74 1043 -1038 0
-75 -1043 1038 0
-75 1043 -1038 0
-76 -1038 1043 0
-76 -1036 1043 0
-76 -1043 1038 1036 0
-77 -1043 1038 0
-77 1043 -1038 0
-78 -1038 1043 0
-78 -1037 1043 0
-78 -1043 1038 1037 0
-79 -1043 1038 0
-79 1043 -1038 0
-80 -1043 1038 0
-80 -1043 1039 0
-80 1043 -1038 -1039 0
-98 -1043 1038 0
-98 1043 -1038 0
-71 -1044 1039 0
-71 1044 -1039 0
-72 -1044 1039 0
-72 1044 -1039 0
-73 -1044 1039 0
-73 1044 -1039 0
-74 -1039 1044 0
-74 -1035 1044 0
-74 -1044 1039 1035 0
-75 -1044 1039 0
-75 1044 -1039 0
-76 -1044 1039 0
-76 1044 -1039 0
-77 -1039 1044 0
-77 -1036 1044 0
-77 -1044 1039 1036 0
-78 -1044 1039 0
-78 1044 -1039 0
-79 -1039 1044 0
-79 -1037 1044 0
-79 -1044 1039 1037 0
-80 -1039 1044 0
-80 -1038 1044 0
-80 -1044 1039 1038 0
-98 -1044 1039 0
-98 1044 -1039 0
-81 -1045 1040 0
-81 -1045 1041 0
-81 1045 -1040 -1041 0
-82 -1045 1040 0
-82 -1045 1042 0
-82 1045 -1040 -1042 0
-83 -1045 1040 0
-83 -1045 1043 0
-83 1045 -1040 -1043 0
-84 -1045 1040 0
-84 -1045 1044 0
-84 1045 -1040 -1044 0
-85 -1045 1040 0
-85 1045 -1040 0
-86 -1045 1040 0
-86 1045 -1040 0
-87 -1045 1040 0
-87 1045 -1040 0
-88 -1045 1040 0
-88 1045 -1040 0
-89 -1045 1040 0
-89 1045 -1040 0
-90 -1045 1040 0
-90 1045 -1040 0
-99 -1045 1040 0
-99 1045 -1040 0
-81 -1041 1046 0
-81 -1040 1046 0
-81 -1046 1041 1040 0
-82 -1046 1041 0
-82 1046 -1041 0
-83 -1046 1041 0
-83 1046 -1041 0
-84 -1046 1041 0
-84 1046 -1041 0
-85 -1046 1041 0
-85 -1046 1042 0
-85 1046 -1041 -1042 0
-86 -1046 1041 0
-86 -1046 1043 0
-86 1046 -1041 -1043 0
-87 -1046 1041 0
-87 -1046 1044 0
-87 1046 -1041 -1044 0
-88 -1046 1041 0
-88 1046 -1041 0
-89 -1046 1041 0
-89 1046 -1041 0
-90 -1046 1041 0
-90 1046 -1041 0
-99 -1046 1041 0
-99 1046 -1041 0
-81 -1047 1042 0
-81 1047 -1042 0
-82 -1042 1047 0
-82 -1040 1047 0
-82 -1047 1042 1040 0
-83 -1047 1042 0
-83 1047 -1042 0
-84 -1047 1042 0
-84 1047 -1042 0
-85 -1042 1047 0
-85 -1041 1047 0
-85 -1047 1042 1041 0
-86 -1047 1042 0
-86 1047 -1042 0
-87 -1047 1042 0
-87 1047 -1042 0
-88 -1047 1042 0
-88 -1047 1043 0
-88 1047 -1042 -1043 0
-89 -1047 1042 0
-89 -1047 1044 0
-89 1047 -1042 -1044 0
-90 -1047 1042 0
-90 1047 -1042 0
-99 -1047 1042 0
-99 1047 -1042 0
-81 -1048 1043 0
-81 1048 -1043 0
-82 -1048 1043 0
-82 1048 -1043 0
-83 -1043 1048 0
-83 -1040 1048 0
-83 -1048 1043 1040 0
-84 -1048 1043 0
-84 1048 -1043 0
-85 -1048 1043 0
-85 1048 -1043 0
-86 -1043 1048 0
-86 -1041 1048 0
-86 -1048 1043 1041 0
-87 -1048 1043 0
-87 1048 -1043 0
-88 -1043 1048 0
-88 -1042 1048 0
-88 -1048 1043 1042 0
-89 -1048 1043 0
-89 1048 -1043 0
-90 -1048 1043 0
-90 -1048 1044 0
-90 1048 -1043 -1044 0
-99 -1048 1043 0
-99 1048 -1043 0
-81 -1049 1044 0
-81 1049 -1044 0
-82 -1049 1044 0
-82 1049 -1044 0
-83 -1049 1044 0
-83 1049 -1044 0
-84 -1044 1049 0
-84 -1040 1049 0
-84 -1049 1044 1040 0
-85 -1049 1044 0
-85 1049 -1044 0
-86 -1049 1044 0
-86 1049 -1044 0
-87 -1044 1049 0
-87 -1041 1049 0
-87 -1049 1044 1041 0
-88 -1049 1044 0
-88 1049 -1044 0
-89 -1044 1049 0
-89 -1042 1049 0
-89 -1049 1044 1042 0
-90 -1044 1049 0
-90 -1043 1049 0
-90 -1049 1044 1043 0
-99 -1049 1044 0
-99 1049 -1044 0
1050 0
-1 -1055 1050 0
-1 -1055 1051 0
-1 1055 -1050 -1051 0
-2 -1055 1050 0
-2 -1055 1052 0
-2 1055 -1050 -1052 0
-3 -1055 1050 0
-3 -1055 1053 0
-3 1055 -1050 -1053 0
-4 -1055 1050 0
-4 -1055 1054 0
-4 1055 -1050 -1054 0
-5 -1055 1050 0
-5 1055 -1050 0
-6 -1055 1050 0
-6 1055 -1050 0
-7 -1055 1050 0
-7 1055 -1050 0
-8 -1055 1050 0
-8 1055 -1050 0
-9 -1055 1050 0
-9 1055 -1050 0
-10 -1055 1050 0
-10 1055 -1050 0
-91 -1055 1050 0
-91 1055 -1050 0
1051 0
-1 -1051 1056 0
-1 -1050 1056 0
-1 -1056 1051 1050 0
-2 -1056 1051 0
-2 1056 -1051 0
-3 -1056 1051 0
-3 1056 -1051 0
-4 -1056 1051 0
-4 1056 -1051 0
-5 -1056 1051 0
-5 -1056 1052 0
-5 1056 -1051 -1052 0
-6 -1056 1051 0
-6 -1056 1053 0
-6 1056 -1051 -1053 0
-7 -1056 1051 0
-7 -1056 1054 0
-7 1056 -1051 -1054 0
-8 -1056 1051 0
-8 1056 -1051 0
-9 -1056 1051 0
-9 1056 -1051 0
-10 -1056 1051 0
-10 1056 -1051 0
-91 -1056 1051 0
-91 1056 -1051 0
-1052 0
-1 -1057 1052 0
-1 1057 -1052 0
-2 -1052 1057 0
-2 -1050 1057 0
-2 -1057 1052 1050 0
-3 -1057 1052 0
-3 1057 -1052 0
-4 -1057 1052 0
-4 1057 -1052 0
-5 -1052 1057 0
-5 -1051 1057 0
-5 -1057 1052 1051 0
-6 -1057 1052 0
-6 1057 -1052 0
-7 -1057 1052 0
-7 1057 -1052 0
-8 -1057 1052 0
-8 -1057 1053 0
-8 1057 -1052 -1053 0
-9 -1057 1052 0
-9 -1057 1054 0
-9 1057 -1052 -1054 0
-10 -1057 1052 0
-10 1057 -1052 0
-91 -1057 1052 0
-91 1057 -1052 0
-1053 0
-1 -1058 1053 0
-1 1058 -1053 0
-2 -1058 1053 0
-2 1058 -1053 0
-3 -1053 1058 0
-3 -1050 1058 0
-3 -1058 1053 1050 0
-4 -1058 1053 0
-4 1058 -1053 0
-5 -1058 1053 0
-5 1058 -1053 0
-6 -1053 1058 0
-6 -1051 1058 0
-6 -1058 1053 1051 0
-7 -1058 1053 0
-7 1058 -1053 0
-8 -1053 1058 0
-8 -1052 1058 0
-8 -1058 1053 1052 0
-9 -1058 1053 0
-9 1058 -1053 0
-10 -1058 1053 0
-10 -1058 1054 0
-10 1058 -1053 -1054 0
-91 -1058 1053 0
-91 1058 -1053 0
-1054 0
-1 -1059 1054 0
-1 1059 -1054 0
-2 -1059 1054 0
-2 1059 -1054 0
-3 -1059 1054 0
-3 1059 -1054 0
-4 -1054 1059 0
-4 -1050 1059 0
-4 -1059 1054 1050 0
-5 -1059 1054 0
-5 1059 -1054 0
-6 -1059 1054 0
-6 1059 -1054 0
-7 -1054 1059 0
-7 -1051 1059 0
-7 -1059 1054 1051 0
-8 -1059 1054 0
-8 1059 -1054 0
-9 -1054 1059 0
-9 -1052 1059 0
-9 -1059 1054 1052 0
-10 -1054 1059 0
-10 -1053 1059 0
-10 -1059 1054 1053 0
-91 -1059 1054 0
-91 1059 -1054 0
-11 -1060 1055 0
-11 -1060 1056 0
-11 1060 -1055 -1056 0
-12 -1060 1055 0
-12 -1060 1057 0
-12 1060 -1055 -1057 0
-13 -1060 1055 0
-13 -1060 1058 0
-13 1060 -1055 -1058 0
-14 -1060 1055 0
-14 -1060 1059 0
-14 1060 -1055 -1059 0
-15 -1060 1055 0
-15 1060 -1055 0
-16 -1060 1055 0
-16 1060 -1055 0
-17 -1060 1055 0
-17 1060 -1055 0
-18 -1060 1055 0
-18 1060 -1055 0
-19 -1060 1055 0
-19 1060 -1055 0
-20 -1060 1055 0
-20 1060 -1055 0
-92 -1060 1055 0
-92 1060 -1055 0
-11 -1056 1061 0
-11 -1055 1061 0
-11 -1061 1056 1055 0
-12 -1061 1056 0
-12 1061 -1056 0
-13 -1061 1056 0
-13 1061 -1056 0
-14 -1061 1056 0
-14 1061 -1056 0
-15 -1061 1056 0
-15 -1061 1057 0
-15 1061 -1056 -1057 0
-16 -1061 1056 0
-16 -1061 1058 0
-16 1061 -1056 -1058 0
-17 -1061 1056 0
-17 -1061 1059 0
-17 1061 -1056 -1059 0
-18 -1061 1056 0
-18 1061 -1056 0
-19 -1061 1056 0
-19 1061 -1056 0
-20 -1061 1056 0
-20 1061 -1056 0
-92 -1061 1056 0
-92 1061 -1056 0
-11 -1062 1057 0
-11 1062 -1057 0
-12 -1057 1062 0
-12 -1055 1062 0
-12 -1062 1057 1055 0
-13 -1062 1057 0
-13 1062 -1057 0
-14 -1062 1057 0
-14 1062 -1057 0
-15 -1057 1062 0
-15 -1056 1062 0
-15 -1062 1057 1056 0
-16 -1062 1057 0
-16 1062 -1057 0
-17 -1062 1057 0
-17 1062 -1057 0
-18 -1062 1057 0
-18 -1062 1058 0
-18 1062 -1057 -1058 0
-19 -1062 1057 0
-19 -1062 1059 0
-19 1062 -1057 -1059 0
-20 -1062 1057 0
-20 1062 -1057 0
-92 -1062 1057 0
-92 1062 -1057 0
-11 -1063 1058 0
-11 1063 -1058 0
-12 -1063 1058 0
-12 1063 -1058 0
-13 -1058 1063 0
-13 -1055 1063 0
-13 -1063 1058 1055 0
-14 -1063 1058 0
-14 1063 -1058 0
-15 -1063 1058 0
-15 1063 -1058 0
-16 -1058 1063 0
-16 -1056 1063 0
-16 -1063 1058 1056 0
-17 -1063 1058 0
-17 1063 -1058 0
-18 -1058 1063 0
-18 -1057 1063 0
-18 -1063 1058 1057 0
-19 -1063 1058 0
-19 1063 -1058 0
-20 -1063 1058 0
-20 -1063 1059 0
-20 1063 -1058 -1059 0
-92 -1063 1058 0
-92 1063 -1058 0
-11 -1064 1059 0
-11 1064 -1059 0
-12 -1064 1059 0
-12 1064 -1059 0
-13 -1064 1059 0
-13 1064 -1059 0
-14 -1059 1064 0
-14 -1055 1064 0
-14 -1064 1059 1055 0
-15 -1064 1059 0
-15 1064 -1059 0
-16 -1064 1059 0
-16 1064 -1059 0
-17 -1059 1064 0
-17 -1056 1064 0
-17 -1064 1059 1056 0
-18 -1064 1059 0
-18 1064 -1059 0
-19 -1059 1064 0
-19 -1057 1064 0
-19 -1064 1059 1057 0
-20 -1059 1064 0
-20 -1058 1064 0
-20 -1064 1059 1058 0
-92 -1064 1059 0
-92 1064 -1059 0
-21 -1065 1060 0
-21 -1065 1061 0
-21 1065 -1060 -1061 0
-22 -1065 1060 0
-22 -1065 1062 0
-22 1065 -1060 -1062 0
-23 -1065 1060 0
-23 -1065 1063 0
-23 1065 -1060 -1063 0
-24 -1065 1060 0
-24 -1065 1064 0
-24 1065 -1060 -1064 0
-25 -1065 1060 0
-25 1065 -1060 0
-26 -1065 1060 0
-26 1065 -1060 0
-27 -1065 1060 0
-27 1065 -1060 0
-28 -1065 1060 0
-28 1065 -1060 0
-29 -1065 1060 0
-29 1065 -1060 0
-30 -1065 1060 0
-30 1065 -1060 0
-93 -1065 1060 0
-93 1065 -1060 0
-21 -1061 1066 0
-21 -1060 1066 0
-21 -1066 1061 1060 0
-22 -1066 1061 0
-22 1066 -1061 0
-23 -1066 1061 0
-23 1066 -1061 0
-24 -1066 1061 0
-24 1066 -1061 0
-25 -1066 1061 0
-25 -1066 1062 0
-25 1066 -1061 -1062 0
-26 -1066 1061 0
-26 -1066 1063 0
-26 1066 -1061 -1063 0
-27 -1066 1061 0
-27 -1066 1064 0
-27 1066 -1061 -1064 0
-28 -1066 1061 0
-28 1066 -1061 0
-29 -1066 1061 0
-29 1066 -1061 0
-30 -1066 1061 0
-30 1066 -1061 0
-93 -1066 1061 0
-93 1066 -1061 0
-21 -1067 1062 0
-21 1067 -1062 0
-22 -1062 1067 0
-22 -1060 1067 0
-22 -1067 1062 1060 0
-23 -1067 1062 0
-23 1067 -1062 0
-24 -1067 1062 0
-24 1067 -1062 0
-25 -1062 1067 0
-25 -1061 1067 0
-25 -1067 1062 1061 0
-26 -1067 1062 0
-26 1067 -1062 0
-27 -1067 1062 0
-27 1067 -1062 0
-28 -1067 1062 0
-28 -1067 1063 0
-28 1067 -1062 -1063 0
-29 -1067 1062 0
-29 -1067 1064 0
-29 1067 -1062 -1064 0
-30 -1067 1062 0
-30 1067 -1062 0
-93 -1067 1062 0
-93 1067 -1062 0
-21 -1068 1063 0
-21 1068 -1063 0
-22 -1068 1063 0
-22 1068 -1063 0
-23 -1063 1068 0
-23 -1060 1068 0
-23 -1068 1063 1060 0
-24 -1068 1063 0
-24 1068 -1063 0
-25 -1068 1063 0
-25 1068 -1063 0
-26 -1063 1068 0
-26 -1061 1068 0
-26 -1068 1063 1061 0
-27 -1068 1063 0
-27 1068 -1063 0
-28 -1063 1068 0
-28 -1062 1068 0
-28 -1068 1063 1062 0
-29 -1068 1063 0
-29 1068 -1063 0
-30 -1068 1063 0
-30 -1068 1064 0
-30 1068 -1063 -1064 0
-93 -1068 1063 0
-93 1068 -1063 0
-21 -1069 1064 0
-21 1069 -1064 0
-22 -1069 1064 0
-22 1069 -1064 0
-23 -1069 1064 0
-23 1069 -1064 0
-24 -1064 1069 0
-24 -1060 1069 0
-24 -1069 1064 1060 0
-25 -1069 1064 0
-25 1069 -1064 0
-26 -1069 1064 0
-26 1069 -1064 0
-27 -1064 1069 0
-27 -1061 1069 0
-27 -1069 1064 1061 0
-28 -1069 1064 0
-28 1069 -1064 0
-29 -1064 1069 0
-29 -1062 1069 0
-29 -1069 1064 1062 0
-30 -1064 1069 0
-30 -1063 1069 0
-30 -1069 1064 1063 0
-93 -1069 1064 0
-93 1069 -1064 0
-31 -1070 1065 0
-31 -1070 1066 0
-31 1070 -1065 -1066 0
-32 -1070 1065 0
-32 -1070 1067 0
-32 1070 -1065 -1067 0
-33 -1070 1065 0
-33 -1070 1068 0
-33 1070 -1065 -1068 0
-34 -1070 1065 0
-34 -1070 1069 0
-34 1070 -1065 -1069 0
-35 -1070 1065 0
-35 1070 -1065 0
-36 -1070 1065 0
-36 1070 -1065 0
-37 -1070 1065 0
-37 1070 -1065 0
-38 -1070 1065 0
-38 1070 -1065 0
-39 -1070 1065 0
-39 1070 -1065 0
-40 -1070 1065 0
-40 1070 -1065 0
-94 -1070 1065 0
-94 1070 -1065 0
-31 -1066 1071 0
-31 -1065 1071 0
-31 -1071 1066 1065 0
-32 -1071 1066 0
-32 1071 -1066 0
-33 -1071 1066 0
-33 1071 -1066 0
-34 -1071 1066 0
-34 1071 -1066 0
-35 -1071 1066 0
-35 -1071 1067 0
-35 1071 -1066 -1067 0
-36 -1071 1066 0
-36 -1071 1068 0
-36 1071 -1066 -1068 0
-37 -1071 1066 0
-37 -1071 1069 0
-37 1071 -1066 -1069 0
-38 -1071 1066 0
-38 1071 -1066 0
-39 -1071 1066 0
-39 1071 -1066 0
-40 -1071 1066 0
-40 1071 -1066 0
-94 -1071 1066 0
-94 1071 -1066 0
-31 -1072 1067 0
-31 1072 -1067 0
-32 -1067 1072 0
-32 -1065 1072 0
-32 -1072 1067 1065 0
-33 -1072 1067 0
-33 1072 -1067 0
-34 -1072 1067 0
-34 1072 -1067 0
-35 -1067 1072 0
-35 -1066 1072 0
-35 -1072 1067 1066 0
-36 -1072 1067 0
-36 1072 -1067 0
-37 -1072 1067 0
-37 1072 -1067 0
-38 -1072 1067 0
-38 -1072 1068 0
-38 1072 -1067 -1068 0
-39 -1072 1067 0
-39 -1072 1069 0
-39 1072 -1067 -1069 0
-40 -1072 1067 0
-40 1072 -1067 0
-94 -1072 1067 0
-94 1072 -1067 0
-31 -1073 1068 0
-31 1073 -1068 0
-32 -1073 1068 0
-32 1073 -1068 0
-33 -1068 1073 0
-33 -1065 1073 0
-33 -1073 1068 1065 0
-34 -1073 1068 0
-34 1073 -1068 0
-35 -1073 1068 0
-35 1073 -1068 0
-36 -1068 1073 0
-36 -1066 1073 0
-36 -1073 1068 1066 0
-37 -1073 1068 0
-37 1073 -1068 0
-38 -1068 1073 0
-38 -1067 1073 0
-38 -1073 1068 1067 0
-39 -1073 1068 0
-39 1073 -1068 0
-40 -1073 1068 0
-40 -1073 1069 0
-40 1073 -1068 -1069 0
-94 -1073 1068 0
-94 1073 -1068 0
-31 -1074 1069 0
-31 1074 -1069 0
-32 -1074 1069 0
-32 1074 -1069 0
-33 -1074 1069 0
-33 1074 -1069 0
-34 -1069 1074 0
-34 -1065 1074 0
-34 -1074 1069 1065 0
-35 -1074 1069 0
-35 1074 -1069 0
-36 -1074 1069 0
-36 1074 -1069 0
-37 -1069 1074 0
-37 -1066 1074 0
-37 -1074 1069 1066 0
-38 -1074 1069 0
-38 1074 -1069 0
-39 -1069 1074 0
-39 -1067 1074 0
-39 -1074 1069 1067 0
-40 -1069 1074 0
-40 -1068 1074 0
-40 -1074 1069 1068 0
-94 -1074 1069 0
-94 1074 -1069 0
-41 -1075 1070 0
-41 -1075 1071 0
-41 1075 -1070 -1071 0
-42 -1075 1070 0
-42 -1075 1072 0
-42 1075 -1070 -1072 0
-43 -1075 1070 0
-43 -1075 1073 0
-43 1075 -1070 -1073 0
-44 -1075 1070 0
-44 -1075 1074 0
-44 1075 -1070 -1074 0
-45 -1075 1070 0
-45 1075 -1070 0
-46 -1075 1070 0
-46 1075 -1070 0
-47 -1075 1070 0
-47 1075 -1070 0
-48 -1075 1070 0
-48 1075 -1070 0
-49 -1075 1070 0
-49 1075 -1070 0
-50 -1075 1070 0
-50 1075 -1070 0
-95 -1075 1070 0
-95 1075 -1070 0
-41 -1071 1076 0
-41 -1070 1076 0
-41 -1076 1071 1070 0
-42 -1076 1071 0
-42 1076 -1071 0
-43 -1076 1071 0
-43 1076 -1071 0
-44 -1076 1071 0
-44 1076 -1071 0
-45 -1076 1071 0
-45 -1076 1072 0
-45 1076 -1071 -1072 0
-46 -1076 1071 0
-46 -1076 1073 0
-46 1076 -1071 -1073 0
-47 -1076 1071 0
-47 -1076 1074 0
-47 1076 -1071 -1074 0
-48 -1076 1071 0
-48 1076 -1071 0
-49 -1076 1071 0
-49 1076 -1071 0
-50 -1076 1071 0
-50 1076 -1071 0
-95 -1076 1071 0
-95 1076 -1071 0
-41 -1077 1072 0
-41 1077 -1072 0
-42 -1072 1077 0
-42 -1070 1077 0
-42 -1077 1072 1070 0
-43 -1077 1072 0
-43 1077 -1072 0
-44 -1077 1072 0
-44 1077 -1072 0
-45 -1072 1077 0
-45 -1071 1077 0
-45 -1077 1072 1071 0
-46 -1077 1072 0
-46 1077 -1072 0
-47 -1077 1072 0
-47 1077 -1072 0
-48 -1077 1072 0
-48 -1077 1073 0
-48 1077 -1072 -1073 0
-49 -1077 1072 0
-49 -1077 1074 0
-49 1077 -1072 -1074 0
-50 -1077 1072 0
-50 1077 -1072 0
-95 -1077 1072 0
-95 1077 -1072 0
-41 -1078 1073 0
-41 1078 -1073 0
-42 -1078 1073 0
-42 1078 -1073 0
-43 -1073 1078 0
-43 -1070 1078 0
-43 -1078 1073 1070 0
-44 -1078 1073 0
-44 1078 -1073 0
-45 -1078 1073 0
-45 1078 -1073 0
-46 -1073 1078 0
-46 -1071 1078 0
-46 -1078 1073 1071 0
-47 -1078 1073 0
-47 1078 -1073 0
-48 -1073 1078 0
-48 -1072 1078 0
-48 -1078 1073 1072 0
-49 -1078 1073 0
-49 1078 -1073 0
-50 -1078 1073 0
-50 -1078 1074 0
-50 1078 -1073 -1074 0
-95 -1078 1073 0
-95 1078 -1073 0
-41 -1079 1074 0
-41 1079 -1074 0
-42 -1079 1074 0
-42 1079 -1074 0
-43 -1079 1074 0
-43 1079 -1074 0
-44 -1074 1079 0
-44 -1070 1079 0
-44 -1079 1074 1070 0
-45 -1079 1074 0
-45 1079 -1074 0
-46 -1079 1074 0
-46 1079 -1074 0
-47 -1074 1079 0
-47 -1071 1079 0
-47 -1079 1074 1071 0
-48 -1079 1074 0
-48 1079 -1074 0
-49 -1074 1079 0
-49 -1072 1079 0
-49 -1079 1074 1072 0
-50 -1074 1079 0
-50 -1073 1079 0
-50 -1079 1074 1073 0
-95 -1079 1074 0
-95 1079 -1074 0
-51 -1080 1075 0
-51 -1080 1076 0
-51 1080 -1075 -1076 0
-52 -1080 1075 0
-52 -1080 1077 0
-52 1080 -1075 -1077 0
-53 -1080 1075 0
-53 -1080 1078 0
-53 1080 -1075 -1078 0
-54 -1080 1075 0
-54 -1080 1079 0
-54 1080 -1075 -1079 0
-55 -1080 1075 0
-55 1080 -1075 0
-56 -1080 1075 0
-56 1080 -1075 0
-57 -1080 1075 0
-57 1080 -1075 0
-58 -1080 1075 0
-58 1080 -1075 0
-59 -1080 1075 0
-59 1080 -1075 0
-60 -1080 1075 0
-60 1080 -1075 0
-96 -1080 1075 0
-96 1080 -1075 0
-51 -1076 1081 0
-51 -1075 1081 0
-51 -1081 1076 1075 0
-52 -1081 1076 0
-52 1081 -1076 0
-53 -1081 1076 0
-53 1081 -1076 0
-54 -1081 1076 0
-54 1081 -1076 0
-55 -1081 1076 0
-55 -1081 1077 0
-55 1081 -1076 -1077 0
-56 -1081 1076 0
-56 -1081 1078 0
-56 1081 -1076 -1078 0
-57 -1081 1076 0
-57 -1081 1079 0
-57 1081 -1076 -1079 0
-58 -1081 1076 0
-58 1081 -1076 0
-59 -1081 1076 0
-59 1081 -1076 0
-60 -1081 1076 0
-60 1081 -1076 0
-96 -1081 1076 0
-96 1081 -1076 0
-51 -1082 1077 0
-51 1082 -1077 0
-52 -1077 1082 0
-52 -1075 1082 0
-52 -1082 1077 1075 0
-53 -1082 1077 0
-53 1082 -1077 0
-54 -1082 1077 0
-54 1082 -1077 0
-55 -1077 1082 0
-55 -1076 1082 0
-55 -1082 1077 1076 0
-56 -1082 1077 0
-56 1082 -1077 0
-57 -1082 1077 0
-57 1082 -1077 0
-58 -1082 1077 0
-58 -1082 1078 0
-58 1082 -1077 -1078 0
-59 -1082 1077 0
-59 -1082 1079 0
-59 1082 -1077 -1079 0
-60 -1082 1077 0
-60 1082 -1077 0
-96 -1082 1077 0
-96 1082 -1077 0
-51 -1083 1078 0
-51 1083 -1078 0
-52 -1083 1078 0
-52 1083 -1078 0
-53 -1078 1083 0
-53 -1075 1083 0
-53 -1083 1078 1075 0
-54 -1083 1078 0
-54 1083 -1078 0
-55 -1083 1078 0
-55 1083 -1078 0
-56 -1078 1083 0
-56 -1076 1083 0
-56 -1083 1078 1076 0
-57 -1083 1078 0
-57 1083 -1078 0
-58 -1078 1083 0
-58 -1077 1083 0
-58 -1083 1078 1077 0
-59 -1083 1078 0
-59 1083 -1078 0
-60 -1083 1078 0
-60 -1083 1079 0
-60 1083 -1078 -1079 0
-96 -1083 1078 0
-96 1083 -1078 0
-51 -1084 1079 0
-51 1084 -1079 0
-52 -1084 1079 0
-52 1084 -1079 0
-53 -1084 1079 0
-53 1084 -1079 0
-54 -1079 1084 0
-54 -1075 1084 0
-54 -1084 1079 1075 0
-55 -1084 1079 0
-55 1084 -1079 0
-56 -1084 1079 0
-56 1084 -1079 0
-57 -1079 1084 0
-57 -1076 1084 0
-57 -1084 1079 1076 0
-58 -1084 1079 0
-58 1084 -1079 0
-59 -1079 1084 0
-59 -1077 1084 0
-59 -1084 1079 1077 0
-60 -1079 1084 0
-60 -1078 1084 0
-60 -1084 1079 1078 0
-96 -1084 1079 0
-96 1084 -1079 0
-61 -1085 1080 0
-61 -1085 1081 0
-61 1085 -1080 -1081 0
-62 -1085 1080 0
-62 -1085 1082 0
-62 1085 -1080 -1082 0
-63 -1085 1080 0
-63 -1085 1083 0
-63 1085 -1080 -1083 0
-64 -1085 1080 0
-64 -1085 1084 0
-64 1085 -1080 -1084 0
-65 -1085 1080 0
-65 1085 -1080 0
-66 -1085 1080 0
-66 1085 -1080 0
-67 -1085 1080 0
-67 1085 -1080 0
-68 -1085 1080 0
-68 1085 -1080 0
-69 -1085 1080 0
-69 1085 -1080 0
-70 -1085 1080 0
-70 1085 -1080 0
-97 -1085 1080 0
-97 1085 -1080 0
-61 -1081 1086 0
-61 -1080 1086 0
-61 -1086 1081 1080 0
-62 -1086 1081 0
-62 1086 -1081 0
-63 -1086 1081 0
-63 1086 -1081 0
-64 -1086 1081 0
-64 1086 -1081 0
-65 -1086 1081 0
-65 -1086 1082 0
-65 1086 -1081 -1082 0
-66 -1086 1081 0
-66 -1086 1083 0
-66 1086 -1081 -1083 0
-67 -1086 1081 0
-67 -1086 1084 0
-67 1086 -1081 -1084 0
-68 -1086 1081 0
-68 1086 -1081 0
-69 -1086 1081 0
-69 1086 -1081 0
-70 -1086 1081 0
-70 1086 -1081 0
-97 -1086 1081 0
-97 1086 -1081 0
-61 -1087 1082 0
-61 1087 -1082 0
-62 -1082 1087 0
-62 -1080 1087 0
-62 -1087 1082 1080 0
-63 -1087 1082 0
-63 1087 -1082 0
-64 -1087 1082 0
-64 1087 -1082 0
-65 -1082 1087 0
-65 -1081 1087 0
-65 -1087 1082 1081 0
-66 -1087 1082 0
-66 1087 -1082 0
-67 -1087 1082 0
-67 1087 -1082 0
-68 -1087 1082 0
-68 -1087 1083 0
-68 1087 -1082 -1083 0
-69 -1087 1082 0
-69 -1087 1084 0
-69 1087 -1082 -1084 0
-70 -1087 1082 0
-70 1087 -1082 0
-97 -1087 1082 0
-97 1087 -1082 0
-61 -1088 1083 0
-61 1088 -1083 0
-62 -1088 1083 0
-62 1088 -1083 0
-63 -1083 1088 0
-63 -1080 1088 0
-63 -1088 1083 1080 0
-64 -1088 1083 0
-64 1088 -1083 0
-65 -1088 1083 0
-65 1088 -1083 0
-66 -1083 1088 0
-66 -1081 1088 0
-66 -1088 1083 1081 0
-67 -1088 1083 0
-67 1088 -1083 0
-68 -1083 1088 0
-68 -1082 1088 0
-68 -1088 1083 1082 0
-69 -1088 1083 0
-69 1088 -1083 0
-70 -1088 1083 0
-70 -1088 1084 0
-70 1088 -1083 -1084 0
-97 -1088 1083 0
-97 1088 -1083 0
-61 -1089 1084 0
-61 1089 -1084 0
-62 -1089 1084 0
-62 1089 -1084 0
-63 -1089 1084 0
-63 1089 -1084 0
-64 -1084 1089 0
-64 -1080 1089 0
-64 -1089 1084 1080 0
-65 -1089 1084 0
-65 1089 -1084 0
-66 -1089 1084 0
-66 1089 -1084 0
-67 -1084 1089 0
-67 -1081 1089 0
-67 -1089 1084 1081 0
-68 -1089 1084 0
-68 1089 -1084 0
-69 -1084 1089 0
-69 -1082 1089 0
-69 -1089 1084 1082 0
-70 -1084 1089 0
-70 -1083 1089 0
-70 -1089 1084 1083 0
-97 -1089 1084 0
-97 1089 -1084 0
-71 -1090 1085 0
-71 -1090 1086 0
-71 1090 -1085 -1086 0
-72 -1090 1085 0
-72 -1090 1087 0
-72 1090 -1085 -1087 0
-73 -1090 1085 0
-73 -1090 1088 0
-73 1090 -1085 -1088 0
-74 -1090 1085 0
-74 -1090 1089 0
-74 1090 -1085 -1089 0
-75 -1090 1085 0
-75 1090 -1085 0
-76 -1090 1085 0
-76 1090 -1085 0
-77 -1090 1085 0
-77 1090 -1085 0
-78 -1090 1085 0
-78 1090 -1085 0
-79 -1090 1085 0
-79 1090 -1085 0
-80 -1090 1085 0
-80 1090 -1085 0
-98 -1090 1085 0
-98 1090 -1085 0
-71 -1086 1091 0
-71 -1085 1091 0
-71 -1091 1086 1085 0
-72 -1091 1086 0
-72 1091 -1086 0
-73 -1091 1086 0
-73 1091 -1086 0
-74 -1091 1086 0
-74 1091 -1086 0
-75 -1091 1086 0
-75 -1091 1087 0
-75 1091 -1086 -1087 0
-76 -1091 1086 0
-76 -1091 1088 0
-76 1091 -1086 -1088 0
-77 -1091 1086 0
-77 -1091 1089 0
-77 1091 -1086 -1089 0
-78 -1091 1086 0
-78 1091 -1086 0
-79 -1091 1086 0
-79 1091 -1086 0
-80 -1091 1086 0
-80 1091 -1086 0
-98 -1091 1086 0
-98 1091 -1086 0
-71 -1092 1087 0
-71 1092 -1087 0
-72 -1087 1092 0
-72 -1085 1092 0
-72 -1092 1087 1085 0
-73 -1092 1087 0
-73 1092 -1087 0
-74 -1092 1087 0
-74 1092 -1087 0
-75 -1087 1092 0
-75 -1086 1092 0
-75 -1092 1087 1086 0
-76 -1092 1087 0
-76 1092 -1087 0
-77 -1092 1087 0
-77 1092 -1087 0
-78 -1092 1087 0
-78 -1092 1088 0
-78 1092 -1087 -1088 0
-79 -1092 1087 0
-79 -1092 1089 0
-79 1092 -1087 -1089 0
-80 -1092 1087 0
-80 1092 -1087 0
-98 -1092 1087 0
-98 1092 -1087 0
-71 -1093 1088 0
-71 1093 -1088 0
-72 -1093 1088 0
-72 1093 -1088 0
-73 -1088 1093 0
-73 -1085 1093 0
-73 -1093 1088 1085 0
-74 -1093 1088 0
-74 1093 -1088 0
-75 -1093 1088 0
-75 1093 -1088 0
-76 -1088 1093 0
-76 -1086 1093 0
-76 -1093 1088 1086 0
-77 -1093 1088 0
-77 1093 -1088 0
-78 -1088 1093 0
-78 -1087 1093 0
-78 -1093 1088 1087 0
-79 -1093 1088 0
-79 1093 -1088 0
-80 -1093 1088 0
-80 -1093 1089 0
-80 1093 -1088 -1089 0
-98 -1093 1088 0
-98 1093 -1088 0
-71 -1094 1089 0
-71 1094 -1089 0
-72 -1094 1089 0
-72 1094 -1089 0
-73 -1094 1089 0
-73 1094 -1089 0
-74 -1089 1094 0
-74 -1085 1094 0
-74 -1094 1089 1085 0
-75 -1094 1089 0
-75 1094 -1089 0
-76 -1094 1089 0
-76 1094 -1089 0
-77 -1089 1094 0
-77 -1086 1094 0
-77 -1094 1089 1086 0
-78 -1094 1089 0
-78 1094 -1089 0
-79 -1089 1094 0
-79 -1087 1094 0
-79 -1094 1089 1087 0
-80 -1089 1094 0
-80 -1088 1094 0
-80 -1094 1089 1088 0
-98 -1094 1089 0
-98 1094 -1089 0
-81 -1095 1090 0
-81 -1095 1091 0
-81 1095 -1090 -1091 0
-82 -1095 1090 0
-82 -1095 1092 0
-82 1095 -1090 -1092 0
-83 -1095 1090 0
-83 -1095 1093 0
-83 1095 -1090 -1093 0
-84 -1095 1090 0
-84 -1095 1094 0
-84 1095 -1090 -1094 0
-85 -1095 1090 0
-85 1095 -1090 0
-86 -1095 1090 0
-86 1095 -1090 0
-87 -1095 1090 0
-87 1095 -1090 0
-88 -1095 1090 0
-88 1095 -1090 0
-89 -1095 1090 0
-89 1095 -1090 0
-90 -1095 1090 0
-90 1095 -1090 0
-99 -1095 1090 0
-99 1095 -1090 0
-81 -1091 1096 0
-81 -1090 1096 0
-81 -1096 1091 1090 0
-82 -1096 1091 0
-82 1096 -1091 0
-83 -1096 1091 0
-83 1096 -1091 0
-84 -1096 1091 0
-84 1096 -1091 0
-85 -1096 1091 0
-85 -1096 1092 0
-85 1096 -1091 -1092 0
-86 -1096 1091 0
-86 -1096 1093 0
-86 1096 -1091 -1093 0
-87 -1096 1091 0
-87 -1096 1094 0
-87 1096 -1091 -1094 0
-88 -1096 1091 0
-88 1096 -1091 0
-89 -1096 1091 0
-89 1096 -1091 0
-90 -1096 1091 0
-90 1096 -1091 0
-99 -1096 1091 0
-99 1096 -1091 0
-81 -1097 1092 0
-81 1097 -1092 0
-82 -1092 1097 0
-82 -1090 1097 0
-82 -1097 1092 1090 0
-83 -1097 1092 0
-83 1097 -1092 0
-84 -1097 1092 0
-84 1097 -1092 0
-85 -1092 1097 0
-85 -1091 1097 0
-85 -1097 1092 1091 0
-86 -1097 1092 0
-86 1097 -1092 0
-87 -1097 1092 0
-87 1097 -1092 0
-88 -1097 1092 0
-88 -1097 1093 0
-88 1097 -1092 -1093 0
-89 -1097 1092 0
-89 -1097 1094 0
-89 1097 -1092 -1094 0
-90 -1097 1092 0
-90 1097 -1092 0
-99 -1097 1092 0
-99 1097 -1092 0
-81 -1098 1093 0
-81 1098 -1093 0
-82 -1098 1093 0
-82 1098 -1093 0
-83 -1093 1098 0
-83 -1090 1098 0
-83 -1098 1093 1090 0
-84 -1098 1093 0
-84 1098 -1093 0
-85 -1098 1093 0
-85 1098 -1093 0
-86 -1093 1098 0
-86 -1091 1098 0
-86 -1098 1093 1091 0
-87 -1098 1093 0
-87 1098 -1093 0
-88 -1093 1098 0
-88 -1092 1098 0
-88 -1098 1093 1092 0
-89 -1098 1093 0
-89 1098 -1093 0
-90 -1098 1093 0
-90 -1098 1094 0
-90 1098 -1093 -1094 0
-99 -1098 1093 0
-99 1098 -1093 0
-81 -1099 1094 0
-81 1099 -1094 0
-82 -1099 1094 0
-82 1099 -1094 0
-83 -1099 1094 0
-83 1099 -1094 0
-84 -1094 1099 0
-84 -1090 1099 0
-84 -1099 1094 1090 0
-85 -1099 1094 0
-85 1099 -1094 0
-86 -1099 1094 0
-86 1099 -1094 0
-87 -1094 1099 0
-87 -1091 1099 0
-87 -1099 1094 1091 0
-88 -1099 1094 0
-88 1099 -1094 0
-89 -1094 1099 0
-89 -1092 1099 0
-89 -1099 1094 1092 0
-90 -1094 1099 0
-90 -1093 1099 0
-90 -1099 1094 1093 0
-99 -1099 1094 0
-99 1099 -1094 0
1100 0
-1 -1105 1100 0
-1 -1105 1101 0
-1 1105 -1100 -1101 0
-2 -1105 1100 0
-2 -1105 1102 0
-2 1105 -1100 -1102 0
-3 -1105 1100 0
-3 -1105 1103 0
-3 1105 -1100 -1103 0
-4 -1105 1100 0
-4 -1105 1104 0
-4 1105 -1100 -1104 0
-5 -1105 1100 0
-5 1105 -1100 0
-6 -1105 1100 0
-6 1105 -1100 0
-7 -1105 1100 0
-7 1105 -1100 0
-8 -1105 1100 0
-8 1105 -1100 0
-9 -1105 1100 0
-9 1105 -1100 0
-10 -1105 1100 0
-10 1105 -1100 0
-91 -1105 1100 0
-91 1105 -1100 0
1101 0
-1 -1101 1106 0
-1 -1100 1106 0
-1 -1106 1101 1100 0
-2 -1106 1101 0
-2 1106 -1101 0
-3 -1106 1101 0
-3 1106 -1101 0
-4 -1106 1101 0
-4 1106 -1101 0
-5 -1106 1101 0
-5 -1106 1102 0
-5 1106 -1101 -1102 0
-6 -1106 1101 0
-6 -1106 1103 0
-6 1106 -1101 -1103 0
-7 -1106 1101 0
-7 -1106 1104 0
-7 1106 -1101 -1104 0
-8 -1106 1101 0
-8 1106 -1101 0
-9 -1106 1101 0
-9 1106 -1101 0
-10 -1106 1101 0
-10 1106 -1101 0
-91 -1106 1101 0
-91 1106 -1101 0
-1102 0
-1 -1107 1102 0
-1 1107 -1102 0
-2 -1102 1107 0
-2 -1100 1107 0
-2 -1107 1102 1100 0
-3 -1107 1102 0
-3 1107 -1102 0
-4 -1107 1102 0
-4 1107 -1102 0
-5 -1102 1107 0
-5 -1101 1107 0
-5 -1107 1102 1101 0
-6 -1107 1102 0
-6 1107 -1102 0
-7 -1107 1102 0
-7 1107 -1102 0
-8 -1107 1102 0
-8 -1107 1103 0
-8 1107 -1102 -1103 0
-9 -1107 1102 0
-9 -1107 1104 0
-9 1107 -1102 -1104 0
-10 -1107 1102 0
-10 1107 -1102 0
-91 -1107 1102 0
-91 1107 -1102 0
-1103 0
-1 -1108 1103 0
-1 1108 -1103 0
-2 -1108 1103 0
-2 1108 -1103 0
-3 -1103 1108 0
-3 -1100 1108 0
-3 -1108 1103 1100 0
-4 -1108 1103 0
-4 1108 -1103 0
-5 -1108 1103 0
-5 1108 -1103 0
-6 -1103 1108 0
-6 -1101 1108 0
-6 -1108 1103 1101 0
-7 -1108 1103 0
-7 1108 -1103 0
-8 -1103 1108 0
-8 -1102 1108 0
-8 -1108 1103 1102 0
-9 -1108 1103 0
-9 1108 -1103 0
-10 -1108 1103 0
-10 -1108 1104 0
-10 1108 -1103 -1104 0
-91 -1108 1103 0
-91 1108 -1103 0
1104 0
-1 -1109 1104 0
-1 1109 -1104 0
-2 -1109 1104 0
-2 1109 -1104 0
-3 -1109 1104 0
-3 1109 -1104 0
-4 -1104 1109 0
-4 -1100 1109 0
-4 -1109 1104 1100 0
-5 -1109 1104 0
-5 1109 -1104 0
-6 -1109 1104 0
-6 1109 -1104 0
-7 -1104 1109 0
-7 -1101 1109 0
-7 -1109 1104 1101 0
-8 -1109 1104 0
-8 1109 -1104 0
-9 -1104 1109 0
-9 -1102 1109 0
-9 -1109 1104 1102 0
-10 -1104 1109 0
-10 -1103 1109 0
-10 -1109 1104 1103 0
-91 -1109 1104 0
-91 1109 -1104 0
-11 -1110 1105 0
-11 -1110 1106 0
-11 1110 -1105 -1106 0
-12 -1110 1105 0
-12 -1110 1107 0
-12 1110 -1105 -1107 0
-13 -1110 1105 0
-13 -1110 1108 0
-13 1110 -1105 -1108 0
-14 -1110 1105 0
-14 -1110 1109 0
-14 1110 -1105 -1109 0
-15 -1110 1105 0
-15 1110 -1105 0
-16 -1110 1105 0
-16 1110 -1105 0
-17 -1110 1105 0
-17 1110 -1105 0
-18 -1110 1105 0
-18 1110 -1105 0
-19 -1110 1105 0
-19 1110 -1105 0
-20 -1110 1105 0
-20 1110 -1105 0
-92 -1110 1105 0
-92 1110 -1105 0
-11 -1106 1111 0
-11 -1105 1111 0
-11 -1111 1106 1105 0
-12 -1111 1106 0
-12 1111 -1106 0
-13 -1111 1106 0
-13 1111 -1106 0
-14 -1111 1106 0
-14 1111 -1106 0
-15 -1111 1106 0
-15 -1111 1107 0
-15 1111 -1106 -1107 0
-16 -1111 1106 0
-16 -1111 1108 0
-16 1111 -1106 -1108 0
-17 -1111 1106 0
-17 -1111 1109 0
-17 1111 -1106 -1109 0
-18 -1111 1106 0
-18 1111 -1106 0
-19 -1111 1106 0
-19 1111 -1106 0
-20 -1111 1106 0
-20 1111 -1106 0
-92 -1111 1106 0
-92 1111 -1106 0
-11 -1112 1107 0
-11 1112 -1107 0
-12 -1107 1112 0
-12 -1105 1112 0
-12 -1112 1107 1105 0
-13 -1112 1107 0
-13 1112 -1107 0
-14 -1112 1107 0
-14 1112 -1107 0
-15 -1107 1112 0
-15 -1106 1112 0
-15 -1112 1107 1106 0
-16 -1112 1107 0
-16 1112 -1107 0
-17 -1112 1107 0
-17 1112 -1107 0
-18 -1112 1107 0
-18 -1112 1108 0
-18 1112 -1107 -1108 0
-19 -1112 1107 0
-19 -1112 1109 0
-19 1112 -1107 -1109 0
-20 -1112 1107 0
-20 1112 -1107 0
-92 -1112 1107 0
-92 1112 -1107 0
-11 -1113 1108 0
-11 1113 -1108 0
-12 -1113 1108 0
-12 1113 -1108 0
-13 -1108 1113 0
-13 -1105 1113 0
-13 -1113 1108 1105 0
-14 -1113 1108 0
-14 1113 -1108 0
-15 -1113 1108 0
-15 1113 -1108 0
-16 -1108 1113 0
-16 -1106 1113 0
-16 -1113 1108 1106 0
-17 -1113 1108 0
-17 1113 -1108 0
-18 -1108 1113 0
-18 -1107 1113 0
-18 -1113 1108 1107 0
-19 -1113 1108 0
-19 1113 -1108 0
-20 -1113 1108 0
-20 -1113 1109 0
-20 1113 -1108 -1109 0
-92 -1113 1108 0
-92 1113 -1108 0
-11 -1114 1109 0
-11 1114 -1109 0
-12 -1114 1109 0
-12 1114 -1109 0
-13 -1114 1109 0
-13 1114 -1109 0
-14 -1109 1114 0
-14 -1105 1114 0
-14 -1114 1109 1105 0
-15 -1114 1109 0
-15 1114 -1109 0
-16 -1114 1109 0
-16 1114 -1109 0
-17 -1109 1114 0
-17 -1106 1114 0
-17 -1114 1109 1106 0
-18 -1114 1109 0
-18 1114 -1109 0
-19 -1109 1114 0
-19 -1107 1114 0
-19 -1114 1109 1107 0
-20 -1109 1114 0
-20 -1108 1114 0
-20 -1114 1109 1108 0
-92 -1114 1109 0
-92 1114 -1109 0
-21 -1115 1110 0
-21 -1115 1111 0
-21 1115 -1110 -1111 0
-22 -1115 1110 0
-22 -1115 1112 0
-22 1115 -1110 -1112 0
-23 -1115 1110 0
-23 -1115 1113 0
-23 1115 -1110 -1113 0
-24 -1115 1110 0
-24 -1115 1114 0
-24 1115 -1110 -1114 0
-25 -1115 1110 0
-25 1115 -1110 0
-26 -1115 1110 0
-26 1115 -1110 0
-27 -1115 1110 0
-27 1115 -1110 0
-28 -1115 1110 0
-28 1115 -1110 0
-29 -1115 1110 0
-29 1115 -1110 0
-30 -1115 1110 0
-30 1115 -1110 0
-93 -1115 1110 0
-93 1115 -1110 0
-21 -1111 1116 0
-21 -1110 1116 0
-21 -1116 1111 1110 0
-22 -1116 1111 0
-22 1116 -1111 0
-23 -1116 1111 0
-23 1116 -1111 0
-24 -1116 1111 0
-24 1116 -1111 0
-25 -1116 1111 0
-25 -1116 1112 0
-25 1116 -1111 -1112 0
-26 -1116 1111 0
-26 -1116 1113 0
-26 1116 -1111 -1113 0
-27 -1116 1111 0
-27 -1116 1114 0
-27 1116 -1111 -1114 0
-28 -1116 1111 0
-28 1116 -1111 0
-29 -1116 1111 0
-29 1116 -1111 0
-30 -1116 1111 0
-30 1116 -1111 0
-93 -1116 1111 0
-93 1116 -1111 0
-21 -1117 1112 0
-21 1117 -1112 0
-22 -1112 1117 0
-22 -1110 1117 0
-22 -1117 1112 1110 0
-23 -1117 1112 0
-23 1117 -1112 0
-24 -1117 1112 0
-24 1117 -1112 0
-25 -1112 1117 0
-25 -1111 1117 0
-25 -1117 1112 1111 0
-26 -1117 1112 0
-26 1117 -1112 0
-27 -1117 1112 0
-27 1117 -1112 0
-28 -1117 1112 0
-28 -1117 1113 0
-28 1117 -1112 -1113 0
-29 -1117 1112 0
-29 -1117 1114 0
-29 1117 -1112 -1114 0
-30 -1117 1112 0
-30 1117 -1112 0
-93 -1117 1112 0
-93 1117 -1112 0
-21 -1118 1113 0
-21 1118 -1113 0
-22 -1118 1113 0
-22 1118 -1113 0
-23 -1113 1118 0
-23 -1110 1118 0
-23 -1118 1113 1110 0
-24 -1118 1113 0
-24 1118 -1113 0
-25 -1118 1113 0
-25 1118 -1113 0
-26 -1113 1118 0
-26 -1111 1118 0
-26 -1118 1113 1111 0
-27 -1118 1113 0
-27 1118 -1113 0
-28 -1113 1118 0
-28 -1112 1118 0
-28 -1118 1113 1112 0
-29 -1118 1113 0
-29 1118 -1113 0
-30 -1118 1113 0
-30 -1118 1114 0
-30 1118 -1113 -1114 0
-93 -1118 1113 0
-93 1118 -1113 0
-21 -1119 1114 0
-21 1119 -1114 0
-22 -1119 1114 0
-22 1119 -1114 0
-23 -1119 1114 0
-23 1119 -1114 0
-24 -1114 1119 0
-24 -1110 1119 0
-24 -1119 1114 1110 0
-25 -1119 1114 0
-25 1119 -1114 0
-26 -1119 1114 0
-26 1119 -1114 0
-27 -1114 1119 0
-27 -1111 1119 0
-27 -1119 1114 1111 0
-28 -1119 1114 0
-28 1119 -1114 0
-29 -1114 1119 0
-29 -1112 1119 0
-29 -1119 1114 1112 0
-30 -1114 1119 0
-30 -1113 1119 0
-30 -1119 1114 1113 0
-93 -1119 1114 0
-93 1119 -1114 0
-31 -1120 1115 0
-31 -1120 1116 0
-31 1120 -1115 -1116 0
-32 -1120 1115 0
-32 -1120 1117 0
-32 1120 -1115 -1117 0
-33 -1120 1115 0
-33 -1120 1118 0
-33 1120 -1115 -1118 0
-34 -1120 1115 0
-34 -1120 1119 0
-34 1120 -1115 -1119 0
-35 -1120 1115 0
-35 1120 -1115 0
-36 -1120 1115 0
-36 1120 -1115 0
-37 -1120 1115 0
-37 1120 -1115 0
-38 -1120 1115 0
-38 1120 -1115 0
-39 -1120 1115 0
-39 1120 -1115 0
-40 -1120 1115 0
-40 1120 -1115 0
-94 -1120 1115 0
-94 1120 -1115 0
-31 -1116 1121 0
-31 -1115 1121 0
-31 -1121 1116 1115 0
-32 -1121 1116 0
-32 1121 -1116 0
-33 -1121 1116 0
-33 1121 -1116 0
-34 -1121 1116 0
-34 1121 -1116 0
-35 -1121 1116 0
-35 -1121 1117 0
-35 1121 -1116 -1117 0
-36 -1121 1116 0
-36 -1121 1118 0
-36 1121 -1116 -1118 0
-37 -1121 1116 0
-37 -1121 1119 0
-37 1121 -1116 -1119 0
-38 -1121 1116 0
-38 1121 -1116 0
-39 -1121 1116 0
-39 1121 -1116 0
-40 -1121 1116 0
-40 1121 -1116 0
-94 -1121 1116 0
-94 1121 -1116 0
-31 -1122 1117 0
-31 1122 -1117 0
-32 -1117 1122 0
-32 -1115 1122 0
-32 -1122 1117 1115 0
-33 -1122 1117 0
-33 1122 -1117 0
-34 -1122 1117 0
-34 1122 -1117 0
-35 -1117 1122 0
-35 -1116 1122 0
-35 -1122 1117 1116 0
-36 -1122 1117 0
-36 1122 -1117 0
-37 -1122 1117 0
-37 1122 -1117 0
-38 -1122 1117 0
-38 -1122 1118 0
-38 1122 -1117 -1118 0
-39 -1122 1117 0
-39 -1122 1119 0
-39 1122 -1117 -1119 0
-40 -1122 1117 0
-40 1122 -1117 0
-94 -1122 1117 0
-94 1122 -1117 0
-31 -1123 1118 0
-31 1123 -1118 0
-32 -1123 1118 0
-32 1123 -1118 0
-33 -1118 1123 0
-33 -1115 1123 0
-33 -1123 1118 1115 0
-34 -1123 1118 0
-34 1123 -1118 0
-35 -1123 1118 0
-35 1123 -1118 0
-36 -1118 1123 0
-36 -1116 1123 0
-36 -1123 1118 1116 0
-37 -1123 1118 0
-37 1123 -1118 0
-38 -1118 1123 0
-38 -1117 1123 0
-38 -1123 1118 1117 0
-39 -1123 1118 0
-39 1123 -1118 0
-40 -1123 1118 0
-40 -1123 1119 0
-40 1123 -1118 -1119 0
-94 -1123 1118 0
-94 1123 -1118 0
-31 -1124 1119 0
-31 1124 -1119 0
-32 -1124 1119 0
-32 1124 -1119 0
-33 -1124 1119 0
-33 1124 -1119 0
-34 -1119 1124 0
-34 -1115 1124 0
-34 -1124 1119 1115 0
-35 -1124 1119 0
-35 1124 -1119 0
-36 -1124 1119 0
-36 1124 -1119 0
-37 -1119 1124 0
-37 -1116 1124 0
-37 -1124 1119 1116 0
-38 -1124 1119 0
-38 1124 -1119 0
-39 -1119 1124 0
-39 -1117 1124 0
-39 -1124 1119 1117 0
-40 -1119 1124 0
-40 -1118 1124 0
-40 -1124 1119 1118 0
-94 -1124 1119 0
-94 1124 -1119 0
-41 -1125 1120 0
-41 -1125 1121 0
-41 1125 -1120 -1121 0
-42 -1125 1120 0
-42 -1125 1122 0
-42 1125 -1120 -1122 0
-43 -1125 1120 0
-43 -1125 1123 0
-43 1125 -1120 -1123 0
-44 -1125 1120 0
-44 -1125 1124 0
-44 1125 -1120 -1124 0
-45 -1125 1120 0
-45 1125 -1120 0
-46 -1125 1120 0
-46 1125 -1120 0
-47 -1125 1120 0
-47 1125 -1120 0
-48 -1125 1120 0
-48 1125 -1120 0
-49 -1125 1120 0
-49 1125 -1120 0
-50 -1125 1120 0
-50 1125 -1120 0
-95 -1125 1120 0
-95 1125 -1120 0
-41 -1121 1126 0
-41 -1120 1126 0
-41 -1126 1121 1120 0
-42 -1126 1121 0
-42 1126 -1121 0
-43 -1126 1121 0
-43 1126 -1121 0
-44 -1126 1121 0
-44 1126 -1121 0
-45 -1126 1121 0
-45 -1126 1122 0
-45 1126 -1121 -1122 0
-46 -1126 1121 0
-46 -1126 1123 0
-46 1126 -1121 -1123 0
-47 -1126 1121 0
-47 -1126 1124 0
-47 1126 -1121 -1124 0
-48 -1126 1121 0
-48 1126 -1121 0
-49 -1126 1121 0
-49 1126 -1121 0
-50 -1126 1121 0
-50 1126 -1121 0
-95 -1126 1121 0
-95 1126 -1121 0
-41 -1127 1122 0
-41 1127 -1122 0
-42 -1122 1127 0
-42 -1120 1127 0
-42 -1127 1122 1120 0
-43 -1127 1122 0
-43 1127 -1122 0
-44 -1127 1122 0
-44 1127 -1122 0
-45 -1122 1127 0
-45 -1121 1127 0
-45 -1127 1122 1121 0
-46 -1127 1122 0
-46 1127 -1122 0
-47 -1127 1122 0
-47 1127 -1122 0
-48 -1127 1122 0
-48 -1127 1123 0
-48 1127 -1122 -1123 0
-49 -1127 1122 0
-49 -1127 1124 0
-49 1127 -1122 -1124 0
-50 -1127 1122 0
-50 1127 -1122 0
-95 -1127 1122 0
-95 1127 -1122 0
-41 -1128 1123 0
-41 1128 -1123 0
-42 -1128 1123 0
-42 1128 -1123 0
-43 -1123 1128 0
-43 -1120 1128 0
-43 -1128 1123 1120 0
-44 -1128 1123 0
-44 1128 -1123 0
-45 -1128 1123 0
-45 1128 -1123 0
-46 -1123 1128 0
-46 -1121 1128 0
-46 -1128 1123 1121 0
-47 -1128 1123 0
-47 1128 -1123 0
-48 -1123 1128 0
-48 -1122 1128 0
-48 -1128 1123 1122 0
-49 -1128 1123 0
-49 1128 -1123 0
-50 -1128 1123 0
-50 -1128 1124 0
-50 1128 -1123 -1124 0
-95 -1128 1123 0
-95 1128 -1123 0
-41 -1129 1124 0
-41 1129 -1124 0
-42 -1129 1124 0
-42 1129 -1124 0
-43 -1129 1124 0
-43 1129 -1124 0
-44 -1124 1129 0
-44 -1120 1129 0
-44 -1129 1124 1120 0
-45 -1129 1124 0
-45 1129 -1124 0
-46 -1129 1124 0
-46 1129 -1124 0
-47 -1124 1129 0
-47 -1121 1129 0
-47 -1129 1124 1121 0
-48 -1129 1124 0
-48 1129 -1124 0
-49 -1124 1129 0
-49 -1122 1129 0
-49 -1129 1124 1122 0
-50 -1124 1129 0
-50 -1123 1129 0
-50 -1129 1124 1123 0
-95 -1129 1124 0
-95 1129 -1124 0
-51 -1130 1125 0
-51 -1130 1126 0
-51 1130 -1125 -1126 0
-52 -1130 1125 0
-52 -1130 1127 0
-52 1130 -1125 -1127 0
-53 -1130 1125 0
-53 -1130 1128 0
-53 1130 -1125 -1128 0
-54 -1130 1125 0
-54 -1130 1129 0
-54 1130 -1125 -1129 0
-55 -1130 1125 0
-55 1130 -1125 0
-56 -1130 1125 0
-56 1130 -1125 0
-57 -1130 1125 0
-57 1130 -1125 0
-58 -1130 1125 0
-58 1130 -1125 0
-59 -1130 1125 0
-59 1130 -1125 0
-60 -1130 1125 0
-60 1130 -1125 0
-96 -1130 1125 0
-96 1130 -1125 0
-51 -1126 1131 0
-51 -1125 1131 0
-51 -1131 1126 1125 0
-52 -1131 1126 0
-52 1131 -1126 0
-53 -1131 1126 0
-53 1131 -1126 0
-54 -1131 1126 0
-54 1131 -1126 0
-55 -1131 1126 0
-55 -1131 1127 0
-55 1131 -1126 -1127 0
-56 -1131 1126 0
-56 -1131 1128 0
-56 1131 -1126 -1128 0
-57 -1131 1126 0
-57 -1131 1129 0
-57 1131 -1126 -1129 0
-58 -1131 1126 0
-58 1131 -1126 0
-59 -1131 1126 0
-59 1131 -1126 0
-60 -1131 1126 0
-60 1131 -1126 0
-96 -1131 1126 0
-96 1131 -1126 0
-51 -1132 1127 0
-51 1132 -1127 0
-52 -1127 1132 0
-52 -1125 1132 0
-52 -1132 1127 1125 0
-53 -1132 1127 0
-53 1132 -1127 0
-54 -1132 1127 0
-54 1132 -1127 0
-55 -1127 1132 0
-55 -1126 1132 0
-55 -1132 1127 1126 0
-56 -1132 1127 0
-56 1132 -1127 0
-57 -1132 1127 0
-57 1132 -1127 0
-58 -1132 1127 0
-58 -1132 1128 0
-58 1132 -1127 -1128 0
-59 -1132 1127 0
-59 -1132 1129 0
-59 1132 -1127 -1129 0
-60 -1132 1127 0
-60 1132 -1127 0
-96 -1132 1127 0
-96 1132 -1127 0
-51 -1133 1128 0
-51 1133 -1128 0
-52 -1133 1128 0
-52 1133 -1128 0
-53 -1128 1133 0
-53 -1125 1133 0
-53 -1133 1128 1125 0
-54 -1133 1128 0
-54 1133 -1128 0
-55 -1133 1128 0
-55 1133 -1128 0
-56 -1128 1133 0
-56 -1126 1133 0
-56 -1133 1128 1126 0
-57 -1133 1128 0
-57 1133 -1128 0
-58 -1128 1133 0
-58 -1127 1133 0
-58 -1133 1128 1127 0
-59 -1133 1128 0
-59 1133 -1128 0
-60 -1133 1128 0
-60 -1133 1129 0
-60 1133 -1128 -1129 0
-96 -1133 1128 0
-96 1133 -1128 0
-51 -1134 1129 0
-51 1134 -1129 0
-52 -1134 1129 0
-52 1134 -1129 0
-53 -1134 1129 0
-53 1134 -1129 0
-54 -1129 1134 0
-54 -1125 1134 0
-54 -1134 1129 1125 0
-55 -1134 1129 0
-55 1134 -1129 0
-56 -1134 1129 0
-56 1134 -1129 0
-57 -1129 1134 0
-57 -1126 1134 0
-57 -1134 1129 1126 0
-58 -1134 1129 0
-58 1134 -1129 0
-59 -1129 1134 0
-59 -1127 1134 0
-59 -1134 1129 1127 0
-60 -1129 1134 0
-60 -1128 1134 0
-60 -1134 1129 1128 0
-96 -1134 1129 0
-96 1134 -1129 0
-61 -1135 1130 0
-61 -1135 1131 0
-61 1135 -1130 -1131 0
-62 -1135 1130 0
-62 -1135 1132 0
-62 1135 -1130 -1132 0
-63 -1135 1130 0
-63 -1135 1133 0
-63 1135 -1130 -1133 0
-64 -1135 1130 0
-64 -1135 1134 0
-64 1135 -1130 -1134 0
-65 -1135 1130 0
-65 1135 -1130 0
-66 -1135 1130 0
-66 1135 -1130 0
-67 -1135 1130 0
-67 1135 -1130 0
-68 -1135 1130 0
-68 1135 -1130 0
-69 -1135 1130 0
-69 1135 -1130 0
-70 -1135 1130 0
-70 1135 -1130 0
-97 -1135 1130 0
-97 1135 -1130 0
-61 -1131 1136 0
-61 -1130 1136 0
-61 -1136 1131 1130 0
-62 -1136 1131 0
-62 1136 -1131 0
-63 -1136 1131 0
-63 1136 -1131 0
-64 -1136 1131 0
-64 1136 -1131 0
-65 -1136 1131 0
-65 -1136 1132 0
-65 1136 -1131 -1132 0
-66 -1136 1131 0
-66 -1136 1133 0
-66 1136 -1131 -1133 0
-67 -1136 1131 0
-67 -1136 1134 0
-67 1136 -1131 -1134 0
-68 -1136 1131 0
-68 1136 -1131 0
-69 -1136 1131 0
-69 1136 -1131 0
-70 -1136 1131 0
-70 1136 -1131 0
-97 -1136 1131 0
-97 1136 -1131 0
-61 -1137 1132 0
-61 1137 -1132 0
-62 -1132 1137 0
-62 -1130 1137 0
-62 -1137 1132 1130 0
-63 -1137 1132 0
-63 1137 -1132 0
-64 -1137 1132 0
-64 1137 -1132 0
-65 -1132 1137 0
-65 -1131 1137 0
-65 -1137 1132 1131 0
-66 -1137 1132 0
-66 1137 -1132 0
-67 -1137 1132 0
-67 1137 -1132 0
-68 -1137 1132 0
-68 -1137 1133 0
-68 1137 -1132 -1133 0
-69 -1137 1132 0
-69 -1137 1134 0
-69 1137 -1132 -1134 0
-70 -1137 1132 0
-70 1137 -1132 0
-97 -1137 1132 0
-97 1137 -1132 0
-61 -1138 1133 0
-61 1138 -1133 0
-62 -1138 1133 0
-62 1138 -1133 0
-63 -1133 1138 0
-63 -1130 1138 0
-63 -1138 1133 1130 0
-64 -1138 1133 0
-64 1138 -1133 0
-65 -1138 1133 0
-65 1138 -1133 0
-66 -1133 1138 0
-66 -1131 1138 0
-66 -1138 1133 1131 0
-67 -1138 1133 0
-67 1138 -1133 0
-68 -1133 1138 0
-68 -1132 1138 0
-68 -1138 1133 1132 0
-69 -1138 1133 0
-69 1138 -1133 0
-70 -1138 1133 0
-70 -1138 1134 0
-70 1138 -1133 -1134 0
-97 -1138 1133 0
-97 1138 -1133 0
-61 -1139 1134 0
-61 1139 -1134 0
-62 -1139 1134 0
-62 1139 -1134 0
-63 -1139 1134 0
-63 1139 -1134 0
-64 -1134 1139 0
-64 -1130 1139 0
-64 -1139 1134 1130 0
-65 -1139 1134 0
-65 1139 -1134 0
-66 -1139 1134 0
-66 1139 -1134 0
-67 -1134 1139 0
-67 -1131 1139 0
-67 -1139 1134 1131 0
-68 -1139 1134 0
-68 1139 -1134 0
-69 -1134 1139 0
-69 -1132 1139 0
-69 -1139 1134 1132 0
-70 -1134 1139 0
-70 -1133 1139 0
-70 -1139 1134 1133 0
-97 -1139 1134 0
-97 1139 -1134 0
-71 -1140 1135 0
-71 -1140 1136 0
-71 1140 -1135 -1136 0
-72 -1140 1135 0
-72 -1140 1137 0
-72 1140 -1135 -1137 0
-73 -1140 1135 0
-73 -1140 1138 0
-73 1140 -1135 -1138 0
-74 -1140 1135 0
-74 -1140 1139 0
-74 1140 -1135 -1139 0
-75 -1140 1135 0
-75 1140 -1135 0
-76 -1140 1135 0
-76 1140 -1135 0
-77 -1140 1135 0
-77 1140 -1135 0
-78 -1140 1135 0
-78 1140 -1135 0
-79 -1140 1135 0
-79 1140 -1135 0
-80 -1140 1135 0
-80 1140 -1135 0
-98 -1140 1135 0
-98 1140 -1135 0
-71 -1136 1141 0
-71 -1135 1141 0
-71 -1141 1136 1135 0
-72 -1141 1136 0
-72 1141 -1136 0
-73 -1141 1136 0
-73 1141 -1136 0
-74 -1141 1136 0
-74 1141 -1136 0
-75 -1141 1136 0
-75 -1141 1137 0
-75 1141 -1136 -1137 0
-76 -1141 1136 0
-76 -1141 1138 0
-76 1141 -1136 -1138 0
-77 -1141 1136 0
-77 -1141 1139 0
-77 1141 -1136 -1139 0
-78 -1141 1136 0
-78 1141 -1136 0
-79 -1141 1136 0
-79 1141 -1136 0
-80 -1141 1136 0
-80 1141 -1136 0
-98 -1141 1136 0
-98 1141 -1136 0
-71 -1142 1137 0
-71 1142 -1137 0
-72 -1137 1142 0
-72 -1135 1142 0
-72 -1142 1137 1135 0
-73 -1142 1137 0
-73 1142 -1137 0
-74 -1142 1137 0
-74 1142 -1137 0
-75 -1137 1142 0
-75 -1136 1142 0
-75 -1142 1137 1136 0
-76 -1142 1137 0
-76 1142 -1137 0
-77 -1142 1137 0
-77 1142 -1137 0
-78 -1142 1137 0
-78 -1142 1138 0
-78 1142 -1137 -1138 0
-79 -1142 1137 0
-79 -1142 1139 0
-79 1142 -1137 -1139 0
-80 -1142 1137 0
-80 1142 -1137 0
-98 -1142 1137 0
-98 1142 -1137 0
-71 -1143 1138 0
-71 1143 -1138 0
-72 -1143 1138 0
-72 1143 -1138 0
-73 -1138 1143 0
-73 -1135 1143 0
-73 -1143 1138 1135 0
-74 -1143 1138 0
-74 1143 -1138 0
-75 -1143 1138 0
-75 1143 -1138 0
-76 -1138 1143 0
-76 -1136 1143 0
-76 -1143 1138 1136 0
-77 -1143 1138 0
-77 1143 -1138 0
-78 -1138 1143 0
-78 -1137 1143 0
-78 -1143 1138 1137 0
-79 -1143 1138 0
-79 1143 -1138 0
-80 -1143 1138 0
-80 -1143 1139 0
-80 1143 -1138 -1139 0
-98 -1143 1138 0
-98 1143 -1138 0
-71 -1144 1139 0
-71 1144 -1139 0
-72 -1144 1139 0
-72 1144 -1139 0
-73 -1144 1139 0
-73 1144 -1139 0
-74 -1139 1144 0
-74 -1135 1144 0
-74 -1144 1139 1135 0
-75 -1144 1139 0
-75 1144 -1139 0
-76 -1144 1139 0
-76 1144 -1139 0
-77 -1139 1144 0
-77 -1136 1144 0
-77 -1144 1139 1136 0
-78 -1144 1139 0
-78 1144 -1139 0
-79 -1139 1144 0
-79 -1137 1144 0
-79 -1144 1139 1137 0
-80 -1139 1144 0
-80 -1138 1144 0
-80 -1144 1139 1138 0
-98 -1144 1139 0
-98 1144 -1139 0
-81 -1145 1140 0
-81 -1145 1141 0
-81 1145 -1140 -1141 0
-82 -1145 1140 0
-82 -1145 1142 0
-82 1145 -1140 -1142 0
-83 -1145 1140 0
-83 -1145 1143 0
-83 1145 -1140 -1143 0
-84 -1145 1140 0
-84 -1145 1144 0
-84 1145 -1140 -1144 0
-85 -1145 1140 0
-85 1145 -1140 0
-86 -1145 1140 0
-86 1145 -1140 0
-87 -1145 1140 0
-87 1145 -1140 0
-88 -1145 1140 0
-88 1145 -1140 0
-89 -1145 1140 0
-89 1145 -1140 0
-90 -1145 1140 0
-90 1145 -1140 0
-99 -1145 1140 0
-99 1145 -1140 0
-81 -1141 1146 0
-81 -1140 1146 0
-81 -1146 1141 1140 0
-82 -1146 1141 0
-82 1146 -1141 0
-83 -1146 1141 0
-83 1146 -1141 0
-84 -1146 1141 0
-84 1146 -1141 0
-85 -1146 1141 0
-85 -1146 1142 0
-85 1146 -1141 -1142 0
-86 -1146 1141 0
-86 -1146 1143 0
-86 1146 -1141 -1143 0
-87 -1146 1141 0
-87 -1146 1144 0
-87 1146 -1141 -1144 0
-88 -1146 1141 0
-88 1146 -1141 0
-89 -1146 1141 0
-89 1146 -1141 0
-90 -1146 1141 0
-90 1146 -1141 0
-99 -1146 1141 0
-99 1146 -1141 0
-81 -1147 1142 0
-81 1147 -1142 0
-82 -1142 1147 0
-82 -1140 1147 0
-82 -1147 1142 1140 0
-83 -1147 1142 0
-83 1147 -1142 0
-84 -1147 1142 0
-84 1147 -1142 0
-85 -1142 1147 0
-85 -1141 1147 0
-85 -1147 1142 1141 0
-86 -1147 1142 0
-86 1147 -1142 0
-87 -1147 1142 0
-87 1147 -1142 0
-88 -1147 1142 0
-88 -1147 1143 0
-88 1147 -1142 -1143 0
-89 -1147 1142 0
-89 -1147 1144 0
-89 1147 -1142 -1144 0
-90 -1147 1142 0
-90 1147 -1142 0
-99 -1147 1142 0
-99 1147 -1142 0
-81 -1148 1143 0
-81 1148 -1143 0
-82 -1148 1143 0
-82 1148 -1143 0
-83 -1143 1148 0
-83 -1140 1148 0
-83 -1148 1143 1140 0
-84 -1148 1143 0
-84 1148 -1143 0
-85 -1148 1143 0
-85 1148 -1143 0
-86 -1143 1148 0
-86 -1141 1148 0
-86 -1148 1143 1141 0
-87 -1148 1143 0
-87 1148 -1143 0
-88 -1143 1148 0
-88 -1142 1148 0
-88 -1148 1143 1142 0
-89 -1148 1143 0
-89 1148 -1143 0
-90 -1148 1143 0
-90 -1148 1144 0
-90 1148 -1143 -1144 0
-99 -1148 1143 0
-99 1148 -1143 0
-81 -1149 1144 0
-81 1149 -1144 0
-82 -1149 1144 0
-82 1149 -1144 0
-83 -1149 1144 0
-83 1149 -1144 0
-84 -1144 1149 0
-84 -1140 1149 0
-84 -1149 1144 1140 0
-85 -1149 1144 0
-85 1149 -1144 0
-86 -1149 1144 0
-86 1149 -1144 0
-87 -1144 1149 0
-87 -1141 1149 0
-87 -1149 1144 1141 0
-88 -1149 1144 0
-88 1149 -1144 0
-89 -1144 1149 0
-89 -1142 1149 0
-89 -1149 1144 1142 0
-90 -1144 1149 0
-90 -1143 1149 0
-90 -1149 1144 1143 0
-99 -1149 1144 0
-99 1149 -1144 0
1150 0
-1 -1155 1150 0
-1 -1155 1151 0
-1 1155 -1150 -1151 0
-2 -1155 1150 0
-2 -1155 1152 0
-2 1155 -1150 -1152 0
-3 -1155 1150 0
-3 -1155 1153 0
-3 1155 -1150 -1153 0
-4 -1155 1150 0
-4 -1155 1154 0
-4 1155 -1150 -1154 0
-5 -1155 1150 0
-5 1155 -1150 0
-6 -1155 1150 0
-6 1155 -1150 0
-7 -1155 1150 0
-7 1155 -1150 0
-8 -1155 1150 0
-8 1155 -1150 0
-9 -1155 1150 0
-9 1155 -1150 0
-10 -1155 1150 0
-10 1155 -1150 0
-91 -1155 1150 0
-91 1155 -1150 0
1151 0
-1 -1151 1156 0
-1 -1150 1156 0
-1 -1156 1151 1150 0
-2 -1156 1151 0
-2 1156 -1151 0
-3 -1156 1151 0
-3 1156 -1151 0
-4 -1156 1151 0
-4 1156 -1151 0
-5 -1156 1151 0
-5 -1156 1152 0
-5 1156 -1151 -1152 0
-6 -1156 1151 0
-6 -1156 1153 0
-6 1156 -1151 -1153 0
-7 -1156 1151 0
-7 -1156 1154 0
-7 1156 -1151 -1154 0
-8 -1156 1151 0
-8 1156 -1151 0
-9 -1156 1151 0
-9 1156 -1151 0
-10 -1156 1151 0
-10 1156 -1151 0
-91 -1156 1151 0
-91 1156 -1151 0
-1152 0
-1 -1157 1152 0
-1 1157 -1152 0
-2 -1152 1157 0
-2 -1150 1157 0
-2 -1157 1152 1150 0
-3 -1157 1152 0
-3 1157 -1152 0
-4 -1157 1152 0
-4 1157 -1152 0
-5 -1152 1157 0
-5 -1151 1157 0
-5 -1157 1152 1151 0
-6 -1157 1152 0
-6 1157 -1152 0
-7 -1157 1152 0
-7 1157 -1152 0
-8 -1157 1152 0
-8 -1157 1153 0
-8 1157 -1152 -1153 0
-9 -1157 1152 0
-9 -1157 1154 0
-9 1157 -1152 -1154 0
-10 -1157 1152 0
-10 1157 -1152 0
-91 -1157 1152 0
-91 1157 -1152 0
1153 0
-1 -1158 1153 0
-1 1158 -1153 0
-2 -1158 1153 0
-2 1158 -1153 0
-3 -1153 1158 0
-3 -1150 1158 0
-3 -1158 1153 1150 0
-4 -1158 1153 0
-4 1158 -1153 0
-5 -1158 1153 0
-5 1158 -1153 0
-6 -1153 1158 0
-6 -1151 1158 0
-6 -1158 1153 1151 0
-7 -1158 1153 0
-7 1158 -1153 0
-8 -1153 1158 0
-8 -1152 1158 0
-8 -1158 1153 1152 0
-9 -1158 1153 0
-9 1158 -1153 0
-10 -1158 1153 0
-10 -1158 1154 0
-10 1158 -1153 -1154 0
-91 -1158 1153 0
-91 1158 -1153 0
-1154 0
-1 -1159 1154 0
-1 1159 -1154 0
-2 -1159 1154 0
-2 1159 -1154 0
-3 -1159 1154 0
-3 1159 -1154 0
-4 -1154 1159 0
-4 -1150 1159 0
-4 -1159 1154 1150 0
-5 -1159 1154 0
-5 1159 -1154 0
-6 -1159 1154 0
-6 1159 -1154 0
-7 -1154 1159 0
-7 -1151 1159 0
-7 -1159 1154 1151 0
-8 -1159 1154 0
-8 1159 -1154 0
-9 -1154 1159 0
-9 -1152 1159 0
-9 -1159 1154 1152 0
-10 -1154 1159 0
-10 -1153 1159 0
-10 -1159 1154 1153 0
-91 -1159 1154 0
-91 1159 -1154 0
-11 -1160 1155 0
-11 -1160 1156 0
-11 1160 -1155 -1156 0
-12 -1160 1155 0
-12 -1160 1157 0
-12 1160 -1155 -1157 0
-13 -1160 1155 0
-13 -1160 1158 0
-13 1160 -1155 -1158 0
-14 -1160 1155 0
-14 -1160 1159 0
-14 1160 -1155 -1159 0
-15 -1160 1155 0
-15 1160 -1155 0
-16 -1160 1155 0
-16 1160 -1155 0
-17 -1160 1155 0
-17 1160 -1155 0
-18 -1160 1155 0
-18 1160 -1155 0
-19 -1160 1155 0
-19 1160 -1155 0
-20 -1160 1155 0
-20 1160 -1155 0
-92 -1160 1155 0
-92 1160 -1155 0
-11 -1156 1161 0
-11 -1155 1161 0
-11 -1161 1156 1155 0
-12 -1161 1156 0
-12 1161 -1156 0
-13 -1161 1156 0
-13 1161 -1156 0
-14 -1161 1156 0
-14 1161 -1156 0
-15 -1161 1156 0
-15 -1161 1157 0
-15 1161 -1156 -1157 0
-16 -1161 1156 0
-16 -1161 1158 0
-16 1161 -1156 -1158 0
-17 -1161 1156 0
-17 -1161 1159 0
-17 1161 -1156 -1159 0
-18 -1161 1156 0
-18 1161 -1156 0
-19 -1161 1156 0
-19 1161 -1156 0
-20 -1161 1156 0
-20 1161 -1156 0
-92 -1161 1156 0
-92 1161 -1156 0
-11 -1162 1157 0
-11 1162 -1157 0
-12 -1157 1162 0
-12 -1155 1162 0
-12 -1162 1157 1155 0
-13 -1162 1157 0
-13 1162 -1157 0
-14 -1162 1157 0
-14 1162 -1157 0
-15 -1157 1162 0
-15 -1156 1162 0
-15 -1162 1157 1156 0
-16 -1162 1157 0
-16 1162 -1157 0
-17 -1162 1157 0
-17 1162 -1157 0
-18 -1162 1157 0
-18 -1162 1158 0
-18 1162 -1157 -1158 0
-19 -1162 1157 0
-19 -1162 1159 0
-19 1162 -1157 -1159 0
-20 -1162 1157 0
-20 1162 -1157 0
-92 -1162 1157 0
-92 1162 -1157 0
-11 -1163 1158 0
-11 1163 -1158 0
-12 -1163 1158 0
-12 1163 -1158 0
-13 -1158 1163 0
-13 -1155 1163 0
-13 -1163 1158 1155 0
-14 -1163 1158 0
-14 1163 -1158 0
-15 -1163 1158 0
-15 1163 -1158 0
-16 -1158 1163 0
-16 -1156 1163 0
-16 -1163 1158 1156 0
-17 -1163 1158 0
-17 1163 -1158 0
-18 -1158 1163 0
-18 -1157 1163 0
-18 -1163 1158 1157 0
-19 -1163 1158 0
-19 1163 -1158 0
-20 -1163 1158 0
-20 -1163 1159 0
-20 1163 -1158 -1159 0
-92 -1163 1158 0
-92 1163 -1158 0
-11 -1164 1159 0
-11 1164 -1159 0
-12 -1164 1159 0
-12 1164 -1159 0
-13 -1164 1159 0
-13 1164 -1159 0
-14 -1159 1164 0
-14 -1155 1164 0
-14 -1164 1159 1155 0
-15 -1164 1159 0
-15 1164 -1159 0
-16 -1164 1159 0
-16 1164 -1159 0
-17 -1159 1164 0
-17 -1156 1164 0
-17 -1164 1159 1156 0
-18 -1164 1159 0
-18 1164 -1159 0
-19 -1159 1164 0
-19 -1157 1164 0
-19 -1164 1159 1157 0
-20 -1159 1164 0
-20 -1158 1164 0
-20 -1164 1159 1158 0
-92 -1164 1159 0
-92 1164 -1159 0
-21 -1165 1160 0
-21 -1165 1161 0
-21 1165 -1160 -1161 0
-22 -1165 1160 0
-22 -1165 1162 0
-22 1165 -1160 -1162 0
-23 -1165 1160 0
-23 -1165 1163 0
-23 1165 -1160 -1163 0
-24 -1165 1160 0
-24 -1165 1164 0
-24 1165 -1160 -1164 0
-25 -1165 1160 0
-25 1165 -1160 0
-26 -1165 1160 0
-26 1165 -1160 0
-27 -1165 1160 0
-27 1165 -1160 0
-28 -1165 1160 0
-28 1165 -1160 0
-29 -1165 1160 0
-29 1165 -1160 0
-30 -1165 1160 0
-30 1165 -1160 0
-93 -1165 1160 0
-93 1165 -1160 0
-21 -1161 1166 0
-21 -1160 1166 0
-21 -1166 1161 1160 0
-22 -1166 1161 0
-22 1166 -1161 0
-23 -1166 1161 0
-23 1166 -1161 0
-24 -1166 1161 0
-24 1166 -1161 0
-25 -1166 1161 0
-25 -1166 1162 0
-25 1166 -1161 -1162 0
-26 -1166 1161 0
-26 -1166 1163 0
-26 1166 -1161 -1163 0
-27 -1166 1161 0
-27 -1166 1164 0
-27 1166 -1161 -1164 0
-28 -1166 1161 0
-28 1166 -1161 0
-29 -1166 1161 0
-29 1166 -1161 0
-30 -1166 1161 0
-30 1166 -1161 0
-93 -1166 1161 0
-93 1166 -1161 0
-21 -1167 1162 0
-21 1167 -1162 0
-22 -1162 1167 0
-22 -1160 1167 0
-22 -1167 1162 1160 0
-23 -1167 1162 0
-23 1167 -1162 0
-24 -1167 1162 0
-24 1167 -1162 0
-25 -1162 1167 0
-25 -1161 1167 0
-25 -1167 1162 1161 0
-26 -1167 1162 0
-26 1167 -1162 0
-27 -1167 1162 0
-27 1167 -1162 0
-28 -1167 1162 0
-28 -1167 1163 0
-28 1167 -1162 -1163 0
-29 -1167 1162 0
-29 -1167 1164 0
-29 1167 -1162 -1164 0
-30 -1167 1162 0
-30 1167 -1162 0
-93 -1167 1162 0
-93 1167 -1162 0
-21 -1168 1163 0
-21 1168 -1163 0
-22 -1168 1163 0
-22 1168 -1163 0
-23 -1163 1168 0
-23 -1160 1168 0
-23 -1168 1163 1160 0
-24 -1168 1163 0
-24 1168 -1163 0
-25 -1168 1163 0
-25 1168 -1163 0
-26 -1163 1168 0
-26 -1161 1168 0
-26 -1168 1163 1161 0
-27 -1168 1163 0
-27 1168 -1163 0
-28 -1163 1168 0
-28 -1162 1168 0
-28 -1168 1163 1162 0
-29 -1168 1163 0
-29 1168 -1163 0
-30 -1168 1163 0
-30 -1168 1164 0
-30 1168 -1163 -1164 0
-93 -1168 1163 0
-93 1168 -1163 0
-21 -1169 1164 0
-21 1169 -1164 0
-22 -1169 1164 0
-22 1169 -1164 0
-23 -1169 1164 0
-23 1169 -1164 0
-24 -1164 1169 0
-24 -1160 1169 0
-24 -1169 1164 1160 0
-25 -1169 1164 0
-25 1169 -1164 0
-26 -1169 1164 0
-26 1169 -1164 0
-27 -1164 1169 0
-27 -1161 1169 0
-27 -1169 1164 1161 0
-28 -1169 1164 0
-28 1169 -1164 0
-29 -1164 1169 0
-29 -1162 1169 0
-29 -1169 1164 1162 0
-30 -1164 1169 0
-30 -1163 1169 0
-30 -1169 1164 1163 0
-93 -1169 1164 0
-93 1169 -1164 0
-31 -1170 1165 0
-31 -1170 1166 0
-31 1170 -1165 -1166 0
-32 -1170 1165 0
-32 -1170 1167 0
-32 1170 -1165 -1167 0
-33 -1170 1165 0
-33 -1170 1168 0
-33 1170 -1165 -1168 0
-34 -1170 1165 0
-34 -1170 1169 0
-34 1170 -1165 -1169 0
-35 -1170 1165 0
-35 1170 -1165 0
-36 -1170 1165 0
-36 1170 -1165 0
-37 -1170 1165 0
-37 1170 -1165 0
-38 -1170 1165 0
-38 1170 -1165 0
-39 -1170 1165 0
-39 1170 -1165 0
-40 -1170 1165 0
-40 1170 -1165 0
-94 -1170 1165 0
-94 1170 -1165 0
-31 -1166 1171 0
-31 -1165 1171 0
-31 -1171 1166 1165 0
-32 -1171 1166 0
-32 1171 -1166 0
-33 -1171 1166 0
-33 1171 -1166 0
-34 -1171 1166 0
-34 1171 -1166 0
-35 -1171 1166 0
-35 -1171 1167 0
-35 1171 -1166 -1167 0
-36 -1171 1166 0
-36 -1171 1168 0
-36 1171 -1166 -1168 0
-37 -1171 1166 0
-37 -1171 1169 0
-37 1171 -1166 -1169 0
-38 -1171 1166 0
-38 1171 -1166 0
-39 -1171 1166 0
-39 1171 -1166 0
-40 -1171 1166 0
-40 1171 -1166 0
-94 -1171 1166 0
-94 1171 -1166 0
-31 -1172 1167 0
-31 1172 -1167 0
-32 -1167 1172 0
-32 -1165 1172 0
-32 -1172 1167 1165 0
-33 -1172 1167 0
-33 1172 -1167 0
-34 -1172 1167 0
-34 1172 -1167 0
-35 -1167 1172 0
-35 -1166 1172 0
-35 -1172 1167 1166 0
-36 -1172 1167 0
-36 1172 -1167 0
-37 -1172 1167 0
-37 1172 -1167 0
-38 -1172 1167 0
-38 -1172 1168 0
-38 1172 -1167 -1168 0
-39 -1172 1167 0
-39 -1172 1169 0
-39 1172 -1167 -1169 0
-40 -1172 1167 0
-40 1172 -1167 0
-94 -1172 1167 0
-94 1172 -1167 0
-31 -1173 1168 0
-31 1173 -1168 0
-32 -1173 1168 0
-32 1173 -1168 0
-33 -1168 1173 0
-33 -1165 1173 0
-33 -1173 1168 1165 0
-34 -1173 1168 0
-34 1173 -1168 0
-35 -1173 1168 0
-35 1173 -1168 0
-36 -1168 1173 0
-36 -1166 1173 0
-36 -1173 1168 1166 0
-37 -1173 1168 0
-37 1173 -1168 0
-38 -1168 1173 0
-38 -1167 1173 0
-38 -1173 1168 1167 0
-39 -1173 1168 0
-39 1173 -1168 0
-40 -1173 1168 0
-40 -1173 1169 0
-40 1173 -1168 -1169 0
-94 -1173 1168 0
-94 1173 -1168 0
-31 -1174 1169 0
-31 1174 -1169 0
-32 -1174 1169 0
-32 1174 -1169 0
-33 -1174 1169 0
-33 1174 -1169 0
-34 -1169 1174 0
-34 -1165 1174 0
-34 -1174 1169 1165 0
-35 -1174 1169 0
-35 1174 -1169 0
-36 -1174 1169 0
-36 1174 -1169 0
-37 -1169 1174 0
-37 -1166 1174 0
-37 -1174 1169 1166 0
-38 -1174 1169 0
-38 1174 -1169 0
-39 -1169 1174 0
-39 -1167 1174 0
-39 -1174 1169 1167 0
-40 -1169 1174 0
-40 -1168 1174 0
-40 -1174 1169 1168 0
-94 -1174 1169 0
-94 1174 -1169 0
-41 -1175 1170 0
-41 -1175 1171 0
-41 1175 -1170 -1171 0
-42 -1175 1170 0
-42 -1175 1172 0
-42 1175 -1170 -1172 0
-43 -1175 1170 0
-43 -1175 1173 0
-43 1175 -1170 -1173 0
-44 -1175 1170 0
-44 -1175 1174 0
-44 1175 -1170 -1174 0
-45 -1175 1170 0
-45 1175 -1170 0
-46 -1175 1170 0
-46 1175 -1170 0
-47 -1175 1170 0
-47 1175 -1170 0
-48 -1175 1170 0
-48 1175 -1170 0
-49 -1175 1170 0
-49 1175 -1170 0
-50 -1175 1170 0
-50 1175 -1170 0
-95 -1175 1170 0
-95 1175 -1170 0
-41 -1171 1176 0
-41 -1170 1176 0
-41 -1176 1171 1170 0
-42 -1176 1171 0
-42 1176 -1171 0
-43 -1176 1171 0
-43 1176 -1171 0
-44 -1176 1171 0
-44 1176 -1171 0
-45 -1176 1171 0
-45 -1176 1172 0
-45 1176 -1171 -1172 0
-46 -1176 1171 0
-46 -1176 1173 0
-46 1176 -1171 -1173 0
-47 -1176 1171 0
-47 -1176 1174 0
-47 1176 -1171 -1174 0
-48 -1176 1171 0
-48 1176 -1171 0
-49 -1176 1171 0
-49 1176 -1171 0
-50 -1176 1171 0
-50 1176 -1171 0
-95 -1176 1171 0
-95 1176 -1171 0
-41 -1177 1172 0
-41 1177 -1172 0
-42 -1172 1177 0
-42 -1170 1177 0
-42 -1177 1172 1170 0
-43 -1177 1172 0
-43 1177 -1172 0
-44 -1177 1172 0
-44 1177 -1172 0
-45 -1172 1177 0
-45 -1171 1177 0
-45 -1177 1172 1171 0
-46 -1177 1172 0
-46 1177 -1172 0
-47 -1177 1172 0
-47 1177 -1172 0
-48 -1177 1172 0
-48 -1177 1173 0
-48 1177 -1172 -1173 0
-49 -1177 1172 0
-49 -1177 1174 0
-49 1177 -1172 -1174 0
-50 -1177 1172 0
-50 1177 -1172 0
-95 -1177 1172 0
-95 1177 -1172 0
-41 -1178 1173 0
-41 1178 -1173 0
-42 -1178 1173 0
-42 1178 -1173 0
-43 -1173 1178 0
-43 -1170 1178 0
-43 -1178 1173 1170 0
-44 -1178 1173 0
-44 1178 -1173 0
-45 -1178 1173 0
-45 1178 -1173 0
-46 -1173 1178 0
-46 -1171 1178 0
-46 -1178 1173 1171 0
-47 -1178 1173 0
-47 1178 -1173 0
-48 -1173 1178 0
-48 -1172 1178 0
-48 -1178 1173 1172 0
-49 -1178 1173 0
-49 1178 -1173 0
-50 -1178 1173 0
-50 -1178 1174 0
-50 1178 -1173 -1174 0
-95 -1178 1173 0
-95 1178 -1173 0
-41 -1179 1174 0
-41 1179 -1174 0
-42 -1179 1174 0
-42 1179 -1174 0
-43 -1179 1174 0
-43 1179 -1174 0
-44 -1174 1179 0
-44 -1170 1179 0
-44 -1179 1174 1170 0
-45 -1179 1174 0
-45 1179 -1174 0
-46 -1179 1174 0
-46 1179 -1174 0
-47 -1174 1179 0
-47 -1171 1179 0
-47 -1179 1174 1171 0
-48 -1179 1174 0
-48 1179 -1174 0
-49 -1174 1179 0
-49 -1172 1179 0
-49 -1179 1174 1172 0
-50 -1174 1179 0
-50 -1173 1179 0
-50 -1179 1174 1173 0
-95 -1179 1174 0
-95 1179 -1174 0
-51 -1180 1175 0
-51 -1180 1176 0
-51 1180 -1175 -1176 0
-52 -1180 1175 0
-52 -1180 1177 0
-52 1180 -1175 -1177 0
-53 -1180 1175 0
-53 -1180 1178 0
-53 1180 -1175 -1178 0
-54 -1180 1175 0
-54 -1180 1179 0
-54 1180 -1175 -1179 0
-55 -1180 1175 0
-55 1180 -1175 0
-56 -1180 1175 0
-56 1180 -1175 0
-57 -1180 1175 0
-57 1180 -1175 0
-58 -1180 1175 0
-58 1180 -1175 0
-59 -1180 1175 0
-59 1180 -1175 0
-60 -1180 1175 0
-60 1180 -1175 0
-96 -1180 1175 0
-96 1180 -1175 0
-51 -1176 1181 0
-51 -1175 1181 0
-51 -1181 1176 1175 0
-52 -1181 1176 0
-52 1181 -1176 0
-53 -1181 1176 0
-53 1181 -1176 0
-54 -1181 1176 0
-54 1181 -1176 0
-55 -1181 1176 0
-55 -1181 1177 0
-55 1181 -1176 -1177 0
-56 -1181 1176 0
-56 -1181 1178 0
-56 1181 -1176 -1178 0
-57 -1181 1176 0
-57 -1181 1179 0
-57 1181 -1176 -1179 0
-58 -1181 1176 0
-58 1181 -1176 0
-59 -1181 1176 0
-59 1181 -1176 0
-60 -1181 1176 0
-60 1181 -1176 0
-96 -1181 1176 0
-96 1181 -1176 0
-51 -1182 1177 0
-51 1182 -1177 0
-52 -1177 1182 0
-52 -1175 1182 0
-52 -1182 1177 1175 0
-53 -1182 1177 0
-53 1182 -1177 0
-54 -1182 1177 0
-54 1182 -1177 0
-55 -1177 1182 0
-55 -1176 1182 0
-55 -1182 1177 1176 0
-56 -1182 1177 0
-56 1182 -1177 0
-57 -1182 1177 0
-57 1182 -1177 0
-58 -1182 1177 0
-58 -1182 1178 0
-58 1182 -1177 -1178 0
-59 -1182 1177 0
-59 -1182 1179 0
-59 1182 -1177 -1179 0
-60 -1182 1177 0
-60 1182 -1177 0
-96 -1182 1177 0
-96 1182 -1177 0
-51 -1183 1178 0
-51 1183 -1178 0
-52 -1183 1178 0
-52 1183 -1178 0
-53 -1178 1183 0
-53 -1175 1183 0
-53 -1183 1178 1175 0
-54 -1183 1178 0
-54 1183 -1178 0
-55 -1183 1178 0
-55 1183 -1178 0
-56 -1178 1183 0
-56 -1176 1183 0
-56 -1183 1178 1176 0
-57 -1183 1178 0
-57 1183 -1178 0
-58 -1178 1183 0
-58 -1177 1183 0
-58 -1183 1178 1177 0
-59 -1183 1178 0
-59 1183 -1178 0
-60 -1183 1178 0
-60 -1183 1179 0
-60 1183 -1178 -1179 0
-96 -1183 1178 0
-96 1183 -1178 0
-51 -1184 1179 0
-51 1184 -1179 0
-52 -1184 1179 0
-52 1184 -1179 0
-53 -1184 1179 0
-53 1184 -1179 0
-54 -1179 1184 0
-54 -1175 1184 0
-54 -1184 1179 1175 0
-55 -1184 1179 0
-55 1184 -1179 0
-56 -1184 1179 0
-56 1184 -1179 0
-57 -1179 1184 0
-57 -1176 1184 0
-57 -1184 1179 1176 0
-58 -1184 1179 0
-58 1184 -1179 0
-59 -1179 1184 0
-59 -1177 1184 0
-59 -1184 1179 1177 0
-60 -1179 1184 0
-60 -1178 1184 0
-60 -1184 1179 1178 0
-96 -1184 1179 0
-96 1184 -1179 0
-61 -1185 1180 0
-61 -1185 1181 0
-61 1185 -1180 -1181 0
-62 -1185 1180 0
-62 -1185 1182 0
-62 1185 -1180 -1182 0
-63 -1185 1180 0
-63 -1185 1183 0
-63 1185 -1180 -1183 0
-64 -1185 1180 0
-64 -1185 1184 0
-64 1185 -1180 -1184 0
-65 -1185 1180 0
-65 1185 -1180 0
-66 -1185 1180 0
-66 1185 -1180 0
-67 -1185 1180 0
-67 1185 -1180 0
-68 -1185 1180 0
-68 1185 -1180 0
-69 -1185 1180 0
-69 1185 -1180 0
-70 -1185 1180 0
-70 1185 -1180 0
-97 -1185 1180 0
-97 1185 -1180 0
-61 -1181 1186 0
-61 -1180 1186 0
-61 -1186 1181 1180 0
-62 -1186 1181 0
-62 1186 -1181 0
-63 -1186 1181 0
-63 1186 -1181 0
-64 -1186 1181 0
-64 1186 -1181 0
-65 -1186 1181 0
-65 -1186 1182 0
-65 1186 -1181 -1182 0
-66 -1186 1181 0
-66 -1186 1183 0
-66 1186 -1181 -1183 0
-67 -1186 1181 0
-67 -1186 1184 0
-67 1186 -1181 -1184 0
-68 -1186 1181 0
-68 1186 -1181 0
-69 -1186 1181 0
-69 1186 -1181 0
-70 -1186 1181 0
-70 1186 -1181 0
-97 -1186 1181 0
-97 1186 -1181 0
-61 -1187 1182 0
-61 1187 -1182 0
-62 -1182 1187 0
-62 -1180 1187 0
-62 -1187 1182 1180 0
-63 -1187 1182 0
-63 1187 -1182 0
-64 -1187 1182 0
-64 1187 -1182 0
-65 -1182 1187 0
-65 -1181 1187 0
-65 -1187 1182 1181 0
-66 -1187 1182 0
-66 1187 -1182 0
-67 -1187 1182 0
-67 1187 -1182 0
-68 -1187 1182 0
-68 -1187 1183 0
-68 1187 -1182 -1183 0
-69 -1187 1182 0
-69 -1187 1184 0
-69 1187 -1182 -1184 0
-70 -1187 1182 0
-70 1187 -1182 0
-97 -1187 1182 0
-97 1187 -1182 0
-61 -1188 1183 0
-61 1188 -1183 0
-62 -1188 1183 0
-62 1188 -1183 0
-63 -1183 1188 0
-63 -1180 1188 0
-63 -1188 1183 1180 0
-64 -1188 1183 0
-64 1188 -1183 0
-65 -1188 1183 0
-65 1188 -1183 0
-66 -1183 1188 0
-66 -1181 1188 0
-66 -1188 1183 1181 0
-67 -1188 1183 0
-67 1188 -1183 0
-68 -1183 1188 0
-68 -1182 1188 0
-68 -1188 1183 1182 0
-69 -1188 1183 0
-69 1188 -1183 0
-70 -1188 1183 0
-70 -1188 1184 0
-70 1188 -1183 -1184 0
-97 -1188 1183 0
-97 1188 -1183 0
-61 -1189 1184 0
-61 1189 -1184 0
-62 -1189 1184 0
-62 1189 -1184 0
-63 -1189 1184 0
-63 1189 -1184 0
-64 -1184 1189 0
-64 -1180 1189 0
-64 -1189 1184 1180 0
-65 -1189 1184 0
-65 1189 -1184 0
-66 -1189 1184 0
-66 1189 -1184 0
-67 -1184 1189 0
-67 -1181 1189 0
-67 -1189 1184 1181 0
-68 -1189 1184 0
-68 1189 -1184 0
-69 -1184 1189 0
-69 -1182 1189 0
-69 -1189 1184 1182 0
-70 -1184 1189 0
-70 -1183 1189 0
-70 -1189 1184 1183 0
-97 -1189 1184 0
-97 1189 -1184 0
-71 -1190 1185 0
-71 -1190 1186 0
-71 1190 -1185 -1186 0
-72 -1190 1185 0
-72 -1190 1187 0
-72 1190 -1185 -1187 0
-73 -1190 1185 0
-73 -1190 1188 0
-73 1190 -1185 -1188 0
-74 -1190 1185 0
-74 -1190 1189 0
-74 1190 -1185 -1189 0
-75 -1190 1185 0
-75 1190 -1185 0
-76 -1190 1185 0
-76 1190 -1185 0
-77 -1190 1185 0
-77 1190 -1185 0
-78 -1190 1185 0
-78 1190 -1185 0
-79 -1190 1185 0
-79 1190 -1185 0
-80 -1190 1185 0
-80 1190 -1185 0
-98 -1190 1185 0
-98 1190 -1185 0
-71 -1186 1191 0
-71 -1185 1191 0
-71 -1191 1186 1185 0
-72 -1191 1186 0
-72 1191 -1186 0
-73 -1191 1186 0
-73 1191 -1186 0
-74 -1191 1186 0
-74 1191 -1186 0
-75 -1191 1186 0
-75 -1191 1187 0
-75 1191 -1186 -1187 0
-76 -1191 1186 0
-76 -1191 1188 0
-76 1191 -1186 -1188 0
-77 -1191 1186 0
-77 -1191 1189 0
-77 1191 -1186 -1189 0
-78 -1191 1186 0
-78 1191 -1186 0
-79 -1191 1186 0
-79 1191 -1186 0
-80 -1191 1186 0
-80 1191 -1186 0
-98 -1191 1186 0
-98 1191 -1186 0
-71 -1192 1187 0
-71 1192 -1187 0
-72 -1187 1192 0
-72 -1185 1192 0
-72 -1192 1187 1185 0
-73 -1192 1187 0
-73 1192 -1187 0
-74 -1192 1187 0
-74 1192 -1187 0
-75 -1187 1192 0
-75 -1186 1192 0
-75 -1192 1187 1186 0
-76 -1192 1187 0
-76 1192 -1187 0
-77 -1192 1187 0
-77 1192 -1187 0
-78 -1192 1187 0
-78 -1192 1188 0
-78 1192 -1187 -1188 0
-79 -1192 1187 0
-79 -1192 1189 0
-79 1192 -1187 -1189 0
-80 -1192 1187 0
-80 1192 -1187 0
-98 -1192 1187 0
-98 1192 -1187 0
-71 -1193 1188 0
-71 1193 -1188 0
-72 -1193 1188 0
-72 1193 -1188 0
-73 -1188 1193 0
-73 -1185 1193 0
-73 -1193 1188 1185 0
-74 -1193 1188 0
-74 1193 -1188 0
-75 -1193 1188 0
-75 1193 -1188 0
-76 -1188 1193 0
-76 -1186 1193 0
-76 -1193 1188 1186 0
-77 -1193 1188 0
-77 1193 -1188 0
-78 -1188 1193 0
-78 -1187 1193 0
-78 -1193 1188 1187 0
-79 -1193 1188 0
-79 1193 -1188 0
-80 -1193 1188 0
-80 -1193 1189 0
-80 1193 -1188 -1189 0
-98 -1193 1188 0
-98 1193 -1188 0
-71 -1194 1189 0
-71 1194 -1189 0
-72 -1194 1189 0
-72 1194 -1189 0
-73 -1194 1189 0
-73 1194 -1189 0
-74 -1189 1194 0
-74 -1185 1194 0
-74 -1194 1189 1185 0
-75 -1194 1189 0
-75 1194 -1189 0
-76 -1194 1189 0
-76 1194 -1189 0
-77 -1189 1194 0
-77 -1186 1194 0
-77 -1194 1189 1186 0
-78 -1194 1189 0
-78 1194 -1189 0
-79 -1189 1194 0
-79 -1187 1194 0
-79 -1194 1189 1187 0
-80 -1189 1194 0
-80 -1188 1194 0
-80 -1194 1189 1188 0
-98 -1194 1189 0
-98 1194 -1189 0
-81 -1195 1190 0
-81 -1195 1191 0
-81 1195 -1190 -1191 0
-82 -1195 1190 0
-82 -1195 1192 0
-82 1195 -1190 -1192 0
-83 -1195 1190 0
-83 -1195 1193 0
-83 1195 -1190 -1193 0
-84 -1195 1190 0
-84 -1195 1194 0
-84 1195 -1190 -1194 0
-85 -1195 1190 0
-85 1195 -1190 0
-86 -1195 1190 0
-86 1195 -1190 0
-87 -1195 1190 0
-87 1195 -1190 0
-88 -1195 1190 0
-88 1195 -1190 0
-89 -1195 1190 0
-89 1195 -1190 0
-90 -1195 1190 0
-90 1195 -1190 0
-99 -1195 1190 0
-99 1195 -1190 0
-81 -1191 1196 0
-81 -1190 1196 0
-81 -1196 1191 1190 0
-82 -1196 1191 0
-82 1196 -1191 0
-83 -1196 1191 0
-83 1196 -1191 0
-84 -1196 1191 0
-84 1196 -1191 0
-85 -1196 1191 0
-85 -1196 1192 0
-85 1196 -1191 -1192 0
-86 -1196 1191 0
-86 -1196 1193 0
-86 1196 -1191 -1193 0
-87 -1196 1191 0
-87 -1196 1194 0
-87 1196 -1191 -1194 0
-88 -1196 1191 0
-88 1196 -1191 0
-89 -1196 1191 0
-89 1196 -1191 0
-90 -1196 1191 0
-90 1196 -1191 0
-99 -1196 1191 0
-99 1196 -1191 0
-81 -1197 1192 0
-81 1197 -1192 0
-82 -1192 1197 0
-82 -1190 1197 0
-82 -1197 1192 1190 0
-83 -1197 1192 0
-83 1197 -1192 0
-84 -1197 1192 0
-84 1197 -1192 0
-85 -1192 1197 0
-85 -1191 1197 0
-85 -1197 1192 1191 0
-86 -1197 1192 0
-86 1197 -1192 0
-87 -1197 1192 0
-87 1197 -1192 0
-88 -1197 1192 0
-88 -1197 1193 0
-88 1197 -1192 -1193 0
-89 -1197 1192 0
-89 -1197 1194 0
-89 1197 -1192 -1194 0
-90 -1197 1192 0
-90 1197 -1192 0
-99 -1197 1192 0
-99 1197 -1192 0
-81 -1198 1193 0
-81 1198 -1193 0
-82 -1198 1193 0
-82 1198 -1193 0
-83 -1193 1198 0
-83 -1190 1198 0
-83 -1198 1193 1190 0
-84 -1198 1193 0
-84 1198 -1193 0
-85 -1198 1193 0
-85 1198 -1193 0
-86 -1193 1198 0
-86 -1191 1198 0
-86 -1198 1193 1191 0
-87 -1198 1193 0
-87 1198 -1193 0
-88 -1193 1198 0
-88 -1192 1198 0
-88 -1198 1193 1192 0
-89 -1198 1193 0
-89 1198 -1193 0
-90 -1198 1193 0
-90 -1198 1194 0
-90 1198 -1193 -1194 0
-99 -1198 1193 0
-99 1198 -1193 0
-81 -1199 1194 0
-81 1199 -1194 0
-82 -1199 1194 0
-82 1199 -1194 0
-83 -1199 1194 0
-83 1199 -1194 0
-84 -1194 1199 0
-84 -1190 1199 0
-84 -1199 1194 1190 0
-85 -1199 1194 0
-85 1199 -1194 0
-86 -1199 1194 0
-86 1199 -1194 0
-87 -1194 1199 0
-87 -1191 1199 0
-87 -1199 1194 1191 0
-88 -1199 1194 0
-88 1199 -1194 0
-89 -1194 1199 0
-89 -1192 1199 0
-89 -1199 1194 1192 0
-90 -1194 1199 0
-90 -1193 1199 0
-90 -1199 1194 1193 0
-99 -1199 1194 0
-99 1199 -1194 0
1200 0
-1 -1205 1200 0
-1 -1205 1201 0
-1 1205 -1200 -1201 0
-2 -1205 1200 0
-2 -1205 1202 0
-2 1205 -1200 -1202 0
-3 -1205 1200 0
-3 -1205 1203 0
-3 1205 -1200 -1203 0
-4 -1205 1200 0
-4 -1205 1204 0
-4 1205 -1200 -1204 0
-5 -1205 1200 0
-5 1205 -1200 0
-6 -1205 1200 0
-6 1205 -1200 0
-7 -1205 1200 0
-7 1205 -1200 0
-8 -1205 1200 0
-8 1205 -1200 0
-9 -1205 1200 0
-9 1205 -1200 0
-10 -1205 1200 0
-10 1205 -1200 0
-91 -1205 1200 0
-91 1205 -1200 0
1201 0
-1 -1201 1206 0
-1 -1200 1206 0
-1 -1206 1201 1200 0
-2 -1206 1201 0
-2 1206 -1201 0
-3 -1206 1201 0
-3 1206 -1201 0
-4 -1206 1201 0
-4 1206 -1201 0
-5 -1206 1201 0
-5 -1206 1202 0
-5 1206 -1201 -1202 0
-6 -1206 1201 0
-6 -1206 1203 0
-6 1206 -1201 -1203 0
-7 -1206 1201 0
-7 -1206 1204 0
-7 1206 -1201 -1204 0
-8 -1206 1201 0
-8 1206 -1201 0
-9 -1206 1201 0
-9 1206 -1201 0
-10 -1206 1201 0
-10 1206 -1201 0
-91 -1206 1201 0
-91 1206 -1201 0
-1202 0
-1 -1207 1202 0
-1 1207 -1202 0
-2 -1202 1207 0
-2 -1200 1207 0
-2 -1207 1202 1200 0
-3 -1207 1202 0
-3 1207 -1202 0
-4 -1207 1202 0
-4 1207 -1202 0
-5 -1202 1207 0
-5 -1201 1207 0
-5 -1207 1202 1201 0
-6 -1207 1202 0
-6 1207 -1202 0
-7 -1207 1202 0
-7 1207 -1202 0
-8 -1207 1202 0
-8 -1207 1203 0
-8 1207 -1202 -1203 0
-9 -1207 1202 0
-9 -1207 1204 0
-9 1207 -1202 -1204 0
-10 -1207 1202 0
-10 1207 -1202 0
-91 -1207 1202 0
-91 1207 -1202 0
1203 0
-1 -1208 1203 0
-1 1208 -1203 0
-2 -1208 1203 0
-2 1208 -1203 0
-3 -1203 1208 0
-3 -1200 1208 0
-3 -1208 1203 1200 0
-4 -1208 1203 0
-4 1208 -1203 0
-5 -1208 1203 0
-5 1208 -1203 0
-6 -1203 1208 0
-6 -1201 1208 0
-6 -1208 1203 1201 0
-7 -1208 1203 0
-7 1208 -1203 0
-8 -1203 1208 0
-8 -1202 1208 0
-8 -1208 1203 1202 0
-9 -1208 1203 0
-9 1208 -1203 0
-10 -1208 1203 0
-10 -1208 1204 0
-10 1208 -1203 -1204 0
-91 -1208 1203 0
-91 1208 -1203 0
1204 0
-1 -1209 1204 0
-1 1209 -1204 0
-2 -1209 1204 0
-2 1209 -1204 0
-3 -1209 1204 0
-3 1209 -1204 0
-4 -1204 1209 0
-4 -1200 1209 0
-4 -1209 1204 1200 0
-5 -1209 1204 0
-5 1209 -1204 0
-6 -1209 1204 0
-6 1209 -1204 0
-7 -1204 1209 0
-7 -1201 1209 0
-7 -1209 1204 1201 0
-8 -1209 1204 0
-8 1209 -1204 0
-9 -1204 1209 0
-9 -1202 1209 0
-9 -1209 1204 1202 0
-10 -1204 1209 0
-10 -1203 1209 0
-10 -1209 1204 1203 0
-91 -1209 1204 0
-91 1209 -1204 0
-11 -1210 1205 0
-11 -1210 1206 0
-11 1210 -1205 -1206 0
-12 -1210 1205 0
-12 -1210 1207 0
-12 1210 -1205 -1207 0
-13 -1210 1205 0
-13 -1210 1208 0
-13 1210 -1205 -1208 0
-14 -1210 1205 0
-14 -1210 1209 0
-14 1210 -1205 -1209 0
-15 -1210 1205 0
-15 1210 -1205 0
-16 -1210 1205 0
-16 1210 -1205 0
-17 -1210 1205 0
-17 1210 -1205 0
-18 -1210 1205 0
-18 1210 -1205 0
-19 -1210 1205 0
-19 1210 -1205 0
-20 -1210 1205 0
-20 1210 -1205 0
-92 -1210 1205 0
-92 1210 -1205 0
-11 -1206 1211 0
-11 -1205 1211 0
-11 -1211 1206 1205 0
-12 -1211 1206 0
-12 1211 -1206 0
-13 -1211 1206 0
-13 1211 -1206 0
-14 -1211 1206 0
-14 1211 -1206 0
-15 -1211 1206 0
-15 -1211 1207 0
-15 1211 -1206 -1207 0
-16 -1211 1206 0
-16 -1211 1208 0
-16 1211 -1206 -1208 0
-17 -1211 1206 0
-17 -1211 1209 0
-17 1211 -1206 -1209 0
-18 -1211 1206 0
-18 1211 -1206 0
-19 -1211 1206 0
-19 1211 -1206 0
-20 -1211 1206 0
-20 1211 -1206 0
-92 -1211 1206 0
-92 1211 -1206 0
-11 -1212 1207 0
-11 1212 -1207 0
-12 -1207 1212 0
-12 -1205 1212 0
-12 -1212 1207 1205 0
-13 -1212 1207 0
-13 1212 -1207 0
-14 -1212 1207 0
-14 1212 -1207 0
-15 -1207 1212 0
-15 -1206 1212 0
-15 -1212 1207 1206 0
-16 -1212 1207 0
-16 1212 -1207 0
-17 -1212 1207 0
-17 1212 -1207 0
-18 -1212 1207 0
-18 -1212 1208 0
-18 1212 -1207 -1208 0
-19 -1212 1207 0
-19 -1212 1209 0
-19 1212 -1207 -1209 0
-20 -1212 1207 0
-20 1212 -1207 0
-92 -1212 1207 0
-92 1212 -1207 0
-11 -1213 1208 0
-11 1213 -1208 0
-12 -1213 1208 0
-12 1213 -1208 0
-13 -1208 1213 0
-13 -1205 1213 0
-13 -1213 1208 1205 0
-14 -1213 1208 0
-14 1213 -1208 0
-15 -1213 1208 0
-15 1213 -1208 0
-16 -1208 1213 0
-16 -1206 1213 0
-16 -1213 1208 1206 0
-17 -1213 1208 0
-17 1213 -1208 0
-18 -1208 1213 0
-18 -1207 1213 0
-18 -1213 1208 1207 0
-19 -1213 1208 0
-19 1213 -1208 0
-20 -1213 1208 0
-20 -1213 1209 0
-20 1213 -1208 -1209 0
-92 -1213 1208 0
-92 1213 -1208 0
-11 -1214 1209 0
-11 1214 -1209 0
-12 -1214 1209 0
-12 1214 -1209 0
-13 -1214 1209 0
-13 1214 -1209 0
-14 -1209 1214 0
-14 -1205 1214 0
-14 -1214 1209 1205 0
-15 -1214 1209 0
-15 1214 -1209 0
-16 -1214 1209 0
-16 1214 -1209 0
-17 -1209 1214 0
-17 -1206 1214 0
-17 -1214 1209 1206 0
-18 -1214 1209 0
-18 1214 -1209 0
-19 -1209 1214 0
-19 -1207 1214 0
-19 -1214 1209 1207 0
-20 -1209 1214 0
-20 -1208 1214 0
-20 -1214 1209 1208 0
-92 -1214 1209 0
-92 1214 -1209 0
-21 -1215 1210 0
-21 -1215 1211 0
-21 1215 -1210 -1211 0
-22 -1215 1210 0
-22 -1215 1212 0
-22 1215 -1210 -1212 0
-23 -1215 1210 0
-23 -1215 1213 0
-23 1215 -1210 -1213 0
-24 -1215 1210 0
-24 -1215 1214 0
-24 1215 -1210 -1214 0
-25 -1215 1210 0
-25 1215 -1210 0
-26 -1215 1210 0
-26 1215 -1210 0
-27 -1215 1210 0
-27 1215 -1210 0
-28 -1215 1210 0
-28 1215 -1210 0
-29 -1215 1210 0
-29 1215 -1210 0
-30 -1215 1210 0
-30 1215 -1210 0
-93 -1215 1210 0
-93 1215 -1210 0
-21 -1211 1216 0
-21 -1210 1216 0
-21 -1216 1211 1210 0
-22 -1216 1211 0
-22 1216 -1211 0
-23 -1216 1211 0
-23 1216 -1211 0
-24 -1216 1211 0
-24 1216 -1211 0
-25 -1216 1211 0
-25 -1216 1212 0
-25 1216 -1211 -1212 0
-26 -1216 1211 0
-26 -1216 1213 0
-26 1216 -1211 -1213 0
-27 -1216 1211 0
-27 -1216 1214 0
-27 1216 -1211 -1214 0
-28 -1216 1211 0
-28 1216 -1211 0
-29 -1216 1211 0
-29 1216 -1211 0
-30 -1216 1211 0
-30 1216 -1211 0
-93 -1216 1211 0
-93 1216 -1211 0
-21 -1217 1212 0
-21 1217 -1212 0
-22 -1212 1217 0
-22 -1210 1217 0
-22 -1217 1212 1210 0
-23 -1217 1212 0
-23 1217 -1212 0
-24 -1217 1212 0
-24 1217 -1212 0
-25 -1212 1217 0
-25 -1211 1217 0
-25 -1217 1212 1211 0
-26 -1217 1212 0
-26 1217 -1212 0
-27 -1217 1212 0
-27 1217 -1212 0
-28 -1217 1212 0
-28 -1217 1213 0
-28 1217 -1212 -1213 0
-29 -1217 1212 0
-29 -1217 1214 0
-29 1217 -1212 -1214 0
-30 -1217 1212 0
-30 1217 -1212 0
-93 -1217 1212 0
-93 1217 -1212 0
-21 -1218 1213 0
-21 1218 -1213 0
-22 -1218 1213 0
-22 1218 -1213 0
-23 -1213 1218 0
-23 -1210 1218 0
-23 -1218 1213 1210 0
-24 -1218 1213 0
-24 1218 -1213 0
-25 -1218 1213 0
-25 1218 -1213 0
-26 -1213 1218 0
-26 -1211 1218 0
-26 -1218 1213 1211 0
-27 -1218 1213 0
-27 1218 -1213 0
-28 -1213 1218 0
-28 -1212 1218 0
-28 -1218 1213 1212 0
-29 -1218 1213 0
-29 1218 -1213 0
-30 -1218 1213 0
-30 -1218 1214 0
-30 1218 -1213 -1214 0
-93 -1218 1213 0
-93 1218 -1213 0
-21 -1219 1214 0
-21 1219 -1214 0
-22 -1219 1214 0
-22 1219 -1214 0
-23 -1219 1214 0
-23 1219 -1214 0
-24 -1214 1219 0
-24 -1210 1219 0
-24 -1219 1214 1210 0
-25 -1219 1214 0
-25 1219 -1214 0
-26 -1219 1214 0
-26 1219 -1214 0
-27 -1214 1219 0
-27 -1211 1219 0
-27 -1219 1214 1211 0
-28 -1219 1214 0
-28 1219 -1214 0
-29 -1214 1219 0
-29 -1212 1219 0
-29 -1219 1214 1212 0
-30 -1214 1219 0
-30 -1213 1219 0
-30 -1219 1214 1213 0
-93 -1219 1214 0
-93 1219 -1214 0
-31 -1220 1215 0
-31 -1220 1216 0
-31 1220 -1215 -1216 0
-32 -1220 1215 0
-32 -1220 1217 0
-32 1220 -1215 -1217 0
-33 -1220 1215 0
-33 -1220 1218 0
-33 1220 -1215 -1218 0
-34 -1220 1215 0
-34 -1220 1219 0
-34 1220 -1215 -1219 0
-35 -1220 1215 0
-35 1220 -1215 0
-36 -1220 1215 0
-36 1220 -1215 0
-37 -1220 1215 0
-37 1220 -1215 0
-38 -1220 1215 0
-38 1220 -1215 0
-39 -1220 1215 0
-39 1220 -1215 0
-40 -1220 1215 0
-40 1220 -1215 0
-94 -1220 1215 0
-94 1220 -1215 0
-31 -1216 1221 0
-31 -1215 1221 0
-31 -1221 1216 1215 0
-32 -1221 1216 0
-32 1221 -1216 0
-33 -1221 1216 0
-33 1221 -1216 0
-34 -1221 1216 0
-34 1221 -1216 0
-35 -1221 1216 0
-35 -1221 1217 0
-35 1221 -1216 -1217 0
-36 -1221 1216 0
-36 -1221 1218 0
-36 1221 -1216 -1218 0
-37 -1221 1216 0
-37 -1221 1219 0
-37 1221 -1216 -1219 0
-38 -1221 1216 0
-38 1221 -1216 0
-39 -1221 1216 0
-39 1221 -1216 0
-40 -1221 1216 0
-40 1221 -1216 0
-94 -1221 1216 0
-94 1221 -1216 0
-31 -1222 1217 0
-31 1222 -1217 0
-32 -1217 1222 0
-32 -1215 1222 0
-32 -1222 1217 1215 0
-33 -1222 1217 0
-33 1222 -1217 0
-34 -1222 1217 0
-34 1222 -1217 0
-35 -1217 1222 0
-35 -1216 1222 0
-35 -1222 1217 1216 0
-36 -1222 1217 0
-36 1222 -1217 0
-37 -1222 1217 0
-37 1222 -1217 0
-38 -1222 1217 0
-38 -1222 1218 0
-38 1222 -1217 -1218 0
-39 -1222 1217 0
-39 -1222 1219 0
-39 1222 -1217 -1219 0
-40 -1222 1217 0
-40 1222 -1217 0
-94 -1222 1217 0
-94 1222 -1217 0
-31 -1223 1218 0
-31 1223 -1218 0
-32 -1223 1218 0
-32 1223 -1218 0
-33 -1218 1223 0
-33 -1215 1223 0
-33 -1223 1218 1215 0
-34 -1223 1218 0
-34 1223 -1218 0
-35 -1223 1218 0
-35 1223 -1218 0
-36 -1218 1223 0
-36 -1216 1223 0
-36 -1223 1218 1216 0
-37 -1223 1218 0
-37 1223 -1218 0
-38 -1218 1223 0
-38 -1217 1223 0
-38 -1223 1218 1217 0
-39 -1223 1218 0
-39 1223 -1218 0
-40 -1223 1218 0
-40 -1223 1219 0
-40 1223 -1218 -1219 0
-94 -1223 1218 0
-94 1223 -1218 0
-31 -1224 1219 0
-31 1224 -1219 0
-32 -1224 1219 0
-32 1224 -1219 0
-33 -1224 1219 0
-33 1224 -1219 0
-34 -1219 1224 0
-34 -1215 1224 0
-34 -1224 1219 1215 0
-35 -1224 1219 0
-35 1224 -1219 0
-36 -1224 1219 0
-36 1224 -1219 0
-37 -1219 1224 0
-37 -1216 1224 0
-37 -1224 1219 1216 0
-38 -1224 1219 0
-38 1224 -1219 0
-39 -1219 1224 0
-39 -1217 1224 0
-39 -1224 1219 1217 0
-40 -1219 1224 0
-40 -1218 1224 0
-40 -1224 1219 1218 0
-94 -1224 1219 0
-94 1224 -1219 0
-41 -1225 1220 0
-41 -1225 1221 0
-41 1225 -1220 -1221 0
-42 -1225 1220 0
-42 -1225 1222 0
-42 1225 -1220 -1222 0
-43 -1225 1220 0
-43 -1225 1223 0
-43 1225 -1220 -1223 0
-44 -1225 1220 0
-44 -1225 1224 0
-44 1225 -1220 -1224 0
-45 -1225 1220 0
-45 1225 -1220 0
-46 -1225 1220 0
-46 1225 -1220 0
-47 -1225 1220 0
-47 1225 -1220 0
-48 -1225 1220 0
-48 1225 -1220 0
-49 -1225 1220 0
-49 1225 -1220 0
-50 -1225 1220 0
-50 1225 -1220 0
-95 -1225 1220 0
-95 1225 -1220 0
-41 -1221 1226 0
-41 -1220 1226 0
-41 -1226 1221 1220 0
-42 -1226 1221 0
-42 1226 -1221 0
-43 -1226 1221 0
-43 1226 -1221 0
-44 -1226 1221 0
-44 1226 -1221 0
-45 -1226 1221 0
-45 -1226 1222 0
-45 1226 -1221 -1222 0
-46 -1226 1221 0
-46 -1226 1223 0
-46 1226 -1221 -1223 0
-47 -1226 1221 0
-47 -1226 1224 0
-47 1226 -1221 -1224 0
-48 -1226 1221 0
-48 1226 -1221 0
-49 -1226 1221 0
-49 1226 -1221 0
-50 -1226 1221 0
-50 1226 -1221 0
-95 -1226 1221 0
-95 1226 -1221 0
-41 -1227 1222 0
-41 1227 -1222 0
-42 -1222 1227 0
-42 -1220 1227 0
-42 -1227 1222 1220 0
-43 -1227 1222 0
-43 1227 -1222 0
-44 -1227 1222 0
-44 1227 -1222 0
-45 -1222 1227 0
-45 -1221 1227 0
-45 -1227 1222 1221 0
-46 -1227 1222 0
-46 1227 -1222 0
-47 -1227 1222 0
-47 1227 -1222 0
-48 -1227 1222 0
-48 -1227 1223 0
-48 1227 -1222 -1223 0
-49 -1227 1222 0
-49 -1227 1224 0
-49 1227 -1222 -1224 0
-50 -1227 1222 0
-50 1227 -1222 0
-95 -1227 1222 0
-95 1227 -1222 0
-41 -1228 1223 0
-41 1228 -1223 0
-42 -1228 1223 0
-42 1228 -1223 0
-43 -1223 1228 0
-43 -1220 1228 0
-43 -1228 1223 1220 0
-44 -1228 1223 0
-44 1228 -1223 0
-45 -1228 1223 0
-45 1228 -1223 0
-46 -1223 1228 0
-46 -1221 1228 0
-46 -1228 1223 1221 0
-47 -1228 1223 0
-47 1228 -1223 0
-48 -1223 1228 0
-48 -1222 1228 0
-48 -1228 1223 1222 0
-49 -1228 1223 0
-49 1228 -1223 0
-50 -1228 1223 0
-50 -1228 1224 0
-50 1228 -1223 -1224 0
-95 -1228 1223 0
-95 1228 -1223 0
-41 -1229 1224 0
-41 1229 -1224 0
-42 -1229 1224 0
-42 1229 -1224 0
-43 -1229 1224 0
-43 1229 -1224 0
-44 -1224 1229 0
-44 -1220 1229 0
-44 -1229 1224 1220 0
-45 -1229 1224 0
-45 1229 -1224 0
-46 -1229 1224 0
-46 1229 -1224 0
-47 -1224 1229 0
-47 -1221 1229 0
-47 -1229 1224 1221 0
-48 -1229 1224 0
-48 1229 -1224 0
-49 -1224 1229 0
-49 -1222 1229 0
-49 -1229 1224 1222 0
-50 -1224 1229 0
-50 -1223 1229 0
-50 -1229 1224 1223 0
-95 -1229 1224 0
-95 1229 -1224 0
-51 -1230 1225 0
-51 -1230 1226 0
-51 1230 -1225 -1226 0
-52 -1230 1225 0
-52 -1230 1227 0
-52 1230 -1225 -1227 0
-53 -1230 1225 0
-53 -1230 1228 0
-53 1230 -1225 -1228 0
-54 -1230 1225 0
-54 -1230 1229 0
-54 1230 -1225 -1229 0
-55 -1230 1225 0
-55 1230 -1225 0
-56 -1230 1225 0
-56 1230 -1225 0
-57 -1230 1225 0
-57 1230 -1225 0
-58 -1230 1225 0
-58 1230 -1225 0
-59 -1230 1225 0
-59 1230 -1225 0
-60 -1230 1225 0
-60 1230 -1225 0
-96 -1230 1225 0
-96 1230 -1225 0
-51 -1226 1231 0
-51 -1225 1231 0
-51 -1231 1226 1225 0
-52 -1231 1226 0
-52 1231 -1226 0
-53 -1231 1226 0
-53 1231 -1226 0
-54 -1231 1226 0
-54 1231 -1226 0
-55 -1231 1226 0
-55 -1231 1227 0
-55 1231 -1226 -1227 0
-56 -1231 1226 0
-56 -1231 1228 0
-56 1231 -1226 -1228 0
-57 -1231 1226 0
-57 -1231 1229 0
-57 1231 -1226 -1229 0
-58 -1231 1226 0
-58 1231 -1226 0
-59 -1231 1226 0
-59 1231 -1226 0
-60 -1231 1226 0
-60 1231 -1226 0
-96 -1231 1226 0
-96 1231 -1226 0
-51 -1232 1227 0
-51 1232 -1227 0
-52 -1227 1232 0
-52 -1225 1232 0
-52 -1232 1227 1225 0
-53 -1232 1227 0
-53 1232 -1227 0
-54 -1232 1227 0
-54 1232 -1227 0
-55 -1227 1232 0
-55 -1226 1232 0
-55 -1232 1227 1226 0
-56 -1232 1227 0
-56 1232 -1227 0
-57 -1232 1227 0
-57 1232 -1227 0
-58 -1232 1227 0
-58 -1232 1228 0
-58 1232 -1227 -1228 0
-59 -1232 1227 0
-59 -1232 1229 0
-59 1232 -1227 -1229 0
-60 -1232 1227 0
-60 1232 -1227 0
-96 -1232 1227 0
-96 1232 -1227 0
-51 -1233 1228 0
-51 1233 -1228 0
-52 -1233 1228 0
-52 1233 -1228 0
-53 -1228 1233 0
-53 -1225 1233 0
-53 -1233 1228 1225 0
-54 -1233 1228 0
-54 1233 -1228 0
-55 -1233 1228 0
-55 1233 -1228 0
-56 -1228 1233 0
-56 -1226 1233 0
-56 -1233 1228 1226 0
-57 -1233 1228 0
-57 1233 -1228 0
-58 -1228 1233 0
-58 -1227 1233 0
-58 -1233 1228 1227 0
-59 -1233 1228 0
-59 1233 -1228 0
-60 -1233 1228 0
-60 -1233 1229 0
-60 1233 -1228 -1229 0
-96 -1233 1228 0
-96 1233 -1228 0
-51 -1234 1229 0
-51 1234 -1229 0
-52 -1234 1229 0
-52 1234 -1229 0
-53 -1234 1229 0
-53 1234 -1229 0
-54 -1229 1234 0
-54 -1225 1234 0
-54 -1234 1229 1225 0
-55 -1234 1229 0
-55 1234 -1229 0
-56 -1234 1229 0
-56 1234 -1229 0
-57 -1229 1234 0
-57 -1226 1234 0
-57 -1234 1229 1226 0
-58 -1234 1229 0
-58 1234 -1229 0
-59 -1229 1234 0
-59 -1227 1234 0
-59 -1234 1229 1227 0
-60 -1229 1234 0
-60 -1228 1234 0
-60 -1234 1229 1228 0
-96 -1234 1229 0
-96 1234 -1229 0
-61 -1235 1230 0
-61 -1235 1231 0
-61 1235 -1230 -1231 0
-62 -1235 1230 0
-62 -1235 1232 0
-62 1235 -1230 -1232 0
-63 -1235 1230 0
-63 -1235 1233 0
-63 1235 -1230 -1233 0
-64 -1235 1230 0
-64 -1235 1234 0
-64 1235 -1230 -1234 0
-65 -1235 1230 0
-65 1235 -1230 0
-66 -1235 1230 0
-66 1235 -1230 0
-67 -1235 1230 0
-67 1235 -1230 0
-68 -1235 1230 0
-68 1235 -1230 0
-69 -1235 1230 0
-69 1235 -1230 0
-70 -1235 1230 0
-70 1235 -1230 0
-97 -1235 1230 0
-97 1235 -1230 0
-61 -1231 1236 0
-61 -1230 1236 0
-61 -1236 1231 1230 0
-62 -1236 1231 0
-62 1236 -1231 0
-63 -1236 1231 0
-63 1236 -1231 0
-64 -1236 1231 0
-64 1236 -1231 0
-65 -1236 1231 0
-65 -1236 1232 0
-65 1236 -1231 -1232 0
-66 -1236 1231 0
-66 -1236 1233 0
-66 1236 -1231 -1233 0
-67 -1236 1231 0
-67 -1236 1234 0
-67 1236 -1231 -1234 0
-68 -1236 1231 0
-68 1236 -1231 0
-69 -1236 1231 0
-69 1236 -1231 0
-70 -1236 1231 0
-70 1236 -1231 0
-97 -1236 1231 0
-97 1236 -1231 0
-61 -1237 1232 0
-61 1237 -1232 0
-62 -1232 1237 0
-62 -1230 1237 0
-62 -1237 1232 1230 0
-63 -1237 1232 0
-63 1237 -1232 0
-64 -1237 1232 0
-64 1237 -1232 0
-65 -1232 1237 0
-65 -1231 1237 0
-65 -1237 1232 1231 0
-66 -1237 1232 0
-66 1237 -1232 0
-67 -1237 1232 0
-67 1237 -1232 0
-68 -1237 1232 0
-68 -1237 1233 0
-68 1237 -1232 -1233 0
-69 -1237 1232 0
-69 -1237 1234 0
-69 1237 -1232 -1234 0
-70 -1237 1232 0
-70 1237 -1232 0
-97 -1237 1232 0
-97 1237 -1232 0
-61 -1238 1233 0
-61 1238 -1233 0
-62 -1238 1233 0
-62 1238 -1233 0
-63 -1233 1238 0
-63 -1230 1238 0
-63 -1238 1233 1230 0
-64 -1238 1233 0
-64 1238 -1233 0
-65 -1238 1233 0
-65 1238 -1233 0
-66 -1233 1238 0
-66 -1231 1238 0
-66 -1238 1233 1231 0
-67 -1238 1233 0
-67 1238 -1233 0
-68 -1233 1238 0
-68 -1232 1238 0
-68 -1238 1233 1232 0
-69 -1238 1233 0
-69 1238 -1233 0
-70 -1238 1233 0
-70 -1238 1234 0
-70 1238 -1233 -1234 0
-97 -1238 1233 0
-97 1238 -1233 0
-61 -1239 1234 0
-61 1239 -1234 0
-62 -1239 1234 0
-62 1239 -1234 0
-63 -1239 1234 0
-63 1239 -1234 0
-64 -1234 1239 0
-64 -1230 1239 0
-64 -1239 1234 1230 0
-65 -1239 1234 0
-65 1239 -1234 0
-66 -1239 1234 0
-66 1239 -1234 0
-67 -1234 1239 0
-67 -1231 1239 0
-67 -1239 1234 1231 0
-68 -1239 1234 0
-68 1239 -1234 0
-69 -1234 1239 0
-69 -1232 1239 0
-69 -1239 1234 1232 0
-70 -1234 1239 0
-70 -1233 1239 0
-70 -1239 1234 1233 0
-97 -1239 1234 0
-97 1239 -1234 0
-71 -1240 1235 0
-71 -1240 1236 0
-71 1240 -1235 -1236 0
-72 -1240 1235 0
-72 -1240 1237 0
-72 1240 -1235 -1237 0
-73 -1240 1235 0
-73 -1240 1238 0
-73 1240 -1235 -1238 0
-74 -1240 1235 0
-74 -1240 1239 0
-74 1240 -1235 -1239 0
-75 -1240 1235 0
-75 1240 -1235 0
-76 -1240 1235 0
-76 1240 -1235 0
-77 -1240 1235 0
-77 1240 -1235 0
-78 -1240 1235 0
-78 1240 -1235 0
-79 -1240 1235 0
-79 1240 -1235 0
-80 -1240 1235 0
-80 1240 -1235 0
-98 -1240 1235 0
-98 1240 -1235 0
-71 -1236 1241 0
-71 -1235 1241 0
-71 -1241 1236 1235 0
-72 -1241 1236 0
-72 1241 -1236 0
-73 -1241 1236 0
-73 1241 -1236 0
-74 -1241 1236 0
-74 1241 -1236 0
-75 -1241 1236 0
-75 -1241 1237 0
-75 1241 -1236 -1237 0
-76 -1241 1236 0
-76 -1241 1238 0
-76 1241 -1236 -1238 0
-77 -1241 1236 0
-77 -1241 1239 0
-77 1241 -1236 -1239 0
-78 -1241 1236 0
-78 1241 -1236 0
-79 -1241 1236 0
-79 1241 -1236 0
-80 -1241 1236 0
-80 1241 -1236 0
-98 -1241 1236 0
-98 1241 -1236 0
-71 -1242 1237 0
-71 1242 -1237 0
-72 -1237 1242 0
-72 -1235 1242 0
-72 -1242 1237 1235 0
-73 -1242 1237 0
-73 1242 -1237 0
-74 -1242 1237 0
-74 1242 -1237 0
-75 -1237 1242 0
-75 -1236 1242 0
-75 -1242 1237 1236 0
-76 -1242 1237 0
-76 1242 -1237 0
-77 -1242 1237 0
-77 1242 -1237 0
-78 -1242 1237 0
-78 -1242 1238 0
-78 1242 -1237 -1238 0
-79 -1242 1237 0
-79 -1242 1239 0
-79 1242 -1237 -1239 0
-80 -1242 1237 0
-80 1242 -1237 0
-98 -1242 1237 0
-98 1242 -1237 0
-71 -1243 1238 0
-71 1243 -1238 0
-72 -1243 1238 0
-72 1243 -1238 0
-73 -1238 1243 0
-73 -1235 1243 0
-73 -1243 1238 1235 0
-74 -1243 1238 0
-74 1243 -1238 0
-75 -1243 1238 0
-75 1243 -1238 0
-76 -1238 1243 0
-76 -1236 1243 0
-76 -1243 1238 1236 0
-77 -1243 1238 0
-77 1243 -1238 0
-78 -1238 1243 0
-78 -1237 1243 0
-78 -1243 1238 1237 0
-79 -1243 1238 0
-79 1243 -1238 0
-80 -1243 1238 0
-80 -1243 1239 0
-80 1243 -1238 -1239 0
-98 -1243 1238 0
-98 1243 -1238 0
-71 -1244 1239 0
-71 1244 -1239 0
-72 -1244 1239 0
-72 1244 -1239 0
-73 -1244 1239 0
-73 1244 -1239 0
-74 -1239 1244 0
-74 -1235 1244 0
-74 -1244 1239 1235 0
-75 -1244 1239 0
-75 1244 -1239 0
-76 -1244 1239 0
-76 1244 -1239 0
-77 -1239 1244 0
-77 -1236 1244 0
-77 -1244 1239 1236 0
-78 -1244 1239 0
-78 1244 -1239 0
-79 -1239 1244 0
-79 -1237 1244 0
-79 -1244 1239 1237 0
-80 -1239 1244 0
-80 -1238 1244 0
-80 -1244 1239 1238 0
-98 -1244 1239 0
-98 1244 -1239 0
-81 -1245 1240 0
-81 -1245 1241 0
-81 1245 -1240 -1241 0
-82 -1245 1240 0
-82 -1245 1242 0
-82 1245 -1240 -1242 0
-83 -1245 1240 0
-83 -1245 1243 0
-83 1245 -1240 -1243 0
-84 -1245 1240 0
-84 -1245 1244 0
-84 1245 -1240 -1244 0
-85 -1245 1240 0
-85 1245 -1240 0
-86 -1245 1240 0
-86 1245 -1240 0
-87 -1245 1240 0
-87 1245 -1240 0
-88 -1245 1240 0
-88 1245 -1240 0
-89 -1245 1240 0
-89 1245 -1240 0
-90 -1245 1240 0
-90 1245 -1240 0
-99 -1245 1240 0
-99 1245 -1240 0
-81 -1241 1246 0
-81 -1240 1246 0
-81 -1246 1241 1240 0
-82 -1246 1241 0
-82 1246 -1241 0
-83 -1246 1241 0
-83 1246 -1241 0
-84 -1246 1241 0
-84 1246 -1241 0
-85 -1246 1241 0
-85 -1246 1242 0
-85 1246 -1241 -1242 0
-86 -1246 1241 0
-86 -1246 1243 0
-86 1246 -1241 -1243 0
-87 -1246 1241 0
-87 -1246 1244 0
-87 1246 -1241 -1244 0
-88 -1246 1241 0
-88 1246 -1241 0
-89 -1246 1241 0
-89 1246 -1241 0
-90 -1246 1241 0
-90 1246 -1241 0
-99 -1246 1241 0
-99 1246 -1241 0
-81 -1247 1242 0
-81 1247 -1242 0
-82 -1242 1247 0
-82 -1240 1247 0
-82 -1247 1242 1240 0
-83 -1247 1242 0
-83 1247 -1242 0
-84 -1247 1242 0
-84 1247 -1242 0
-85 -1242 1247 0
-85 -1241 1247 0
-85 -1247 1242 1241 0
-86 -1247 1242 0
-86 1247 -1242 0
-87 -1247 1242 0
-87 1247 -1242 0
-88 -1247 1242 0
-88 -1247 1243 0
-88 1247 -1242 -1243 0
-89 -1247 1242 0
-89 -1247 1244 0
-89 1247 -1242 -1244 0
-90 -1247 1242 0
-90 1247 -1242 0
-99 -1247 1242 0
-99 1247 -1242 0
-81 -1248 1243 0
-81 1248 -1243 0
-82 -1248 1243 0
-82 1248 -1243 0
-83 -1243 1248 0
-83 -1240 1248 0
-83 -1248 1243 1240 0
-84 -1248 1243 0
-84 1248 -1243 0
-85 -1248 1243 0
-85 1248 -1243 0
-86 -1243 1248 0
-86 -1241 1248 0
-86 -1248 1243 1241 0
-87 -1248 1243 0
-87 1248 -1243 0
-88 -1243 1248 0
-88 -1242 1248 0
-88 -1248 1243 1242 0
-89 -1248 1243 0
-89 1248 -1243 0
-90 -1248 1243 0
-90 -1248 1244 0
-90 1248 -1243 -1244 0
-99 -1248 1243 0
-99 1248 -1243 0
-81 -1249 1244 0
-81 1249 -1244 0
-82 -1249 1244 0
-82 1249 -1244 0
-83 -1249 1244 0
-83 1249 -1244 0
-84 -1244 1249 0
-84 -1240 1249 0
-84 -1249 1244 1240 0
-85 -1249 1244 0
-85 1249 -1244 0
-86 -1249 1244 0
-86 1249 -1244 0
-87 -1244 1249 0
-87 -1241 1249 0
-87 -1249 1244 1241 0
-88 -1249 1244 0
-88 1249 -1244 0
-89 -1244 1249 0
-89 -1242 1249 0
-89 -1249 1244 1242 0
-90 -1244 1249 0
-90 -1243 1249 0
-90 -1249 1244 1243 0
-99 -1249 1244 0
-99 1249 -1244 0
1250 0
-1 -1255 1250 0
-1 -1255 1251 0
-1 1255 -1250 -1251 0
-2 -1255 1250 0
-2 -1255 1252 0
-2 1255 -1250 -1252 0
-3 -1255 1250 0
-3 -1255 1253 0
-3 1255 -1250 -1253 0
-4 -1255 1250 0
-4 -1255 1254 0
-4 1255 -1250 -1254 0
-5 -1255 1250 0
-5 1255 -1250 0
-6 -1255 1250 0
-6 1255 -1250 0
-7 -1255 1250 0
-7 1255 -1250 0
-8 -1255 1250 0
-8 1255 -1250 0
-9 -1255 1250 0
-9 1255 -1250 0
-10 -1255 1250 0
-10 1255 -1250 0
-91 -1255 1250 0
-91 1255 -1250 0
1251 0
-1 -1251 1256 0
-1 -1250 1256 0
-1 -1256 1251 1250 0
-2 -1256 1251 0
-2 1256 -1251 0
-3 -1256 1251 0
-3 1256 -1251 0
-4 -1256 1251 0
-4 1256 -1251 0
-5 -1256 1251 0
-5 -1256 1252 0
-5 1256 -1251 -1252 0
-6 -1256 1251 0
-6 -1256 1253 0
-6 1256 -1251 -1253 0
-7 -1256 1251 0
-7 -1256 1254 0
-7 1256 -1251 -1254 0
-8 -1256 1251 0
-8 1256 -1251 0
-9 -1256 1251 0
-9 1256 -1251 0
-10 -1256 1251 0
-10 1256 -1251 0
-91 -1256 1251 0
-91 1256 -1251 0
1252 0
-1 -1257 1252 0
-1 1257 -1252 0
-2 -1252 1257 0
-2 -1250 1257 0
-2 -1257 1252 1250 0
-3 -1257 1252 0
-3 1257 -1252 0
-4 -1257 1252 0
-4 1257 -1252 0
-5 -1252 1257 0
-5 -1251 1257 0
-5 -1257 1252 1251 0
-6 -1257 1252 0
-6 1257 -1252 0
-7 -1257 1252 0
-7 1257 -1252 0
-8 -1257 1252 0
-8 -1257 1253 0
-8 1257 -1252 -1253 0
-9 -1257 1252 0
-9 -1257 1254 0
-9 1257 -1252 -1254 0
-10 -1257 1252 0
-10 1257 -1252 0
-91 -1257 1252 0
-91 1257 -1252 0
-1253 0
-1 -1258 1253 0
-1 1258 -1253 0
-2 -1258 1253 0
-2 1258 -1253 0
-3 -1253 1258 0
-3 -1250 1258 0
-3 -1258 1253 1250 0
-4 -1258 1253 0
-4 1258 -1253 0
-5 -1258 1253 0
-5 1258 -1253 0
-6 -1253 1258 0
-6 -1251 1258 0
-6 -1258 1253 1251 0
-7 -1258 1253 0
-7 1258 -1253 0
-8 -1253 1258 0
-8 -1252 1258 0
-8 -1258 1253 1252 0
-9 -1258 1253 0
-9 1258 -1253 0
-10 -1258 1253 0
-10 -1258 1254 0
-10 1258 -1253 -1254 0
-91 -1258 1253 0
-91 1258 -1253 0
-1254 0
-1 -1259 1254 0
-1 1259 -1254 0
-2 -1259 1254 0
-2 1259 -1254 0
-3 -1259 1254 0
-3 1259 -1254 0
-4 -1254 1259 0
-4 -1250 1259 0
-4 -1259 1254 1250 0
-5 -1259 1254 0
-5 1259 -1254 0
-6 -1259 1254 0
-6 1259 -1254 0
-7 -1254 1259 0
-7 -1251 1259 0
-7 -1259 1254 1251 0
-8 -1259 1254 0
-8 1259 -1254 0
-9 -1254 1259 0
-9 -1252 1259 0
-9 -1259 1254 1252 0
-10 -1254 1259 0
-10 -1253 1259 0
-10 -1259 1254 1253 0
-91 -1259 1254 0
-91 1259 -1254 0
-11 -1260 1255 0
-11 -1260 1256 0
-11 1260 -1255 -1256 0
-12 -1260 1255 0
-12 -1260 1257 0
-12 1260 -1255 -1257 0
-13 -1260 1255 0
-13 -1260 1258 0
-13 1260 -1255 -1258 0
-14 -1260 1255 0
-14 -1260 1259 0
-14 1260 -1255 -1259 0
-15 -1260 1255 0
-15 1260 -1255 0
-16 -1260 1255 0
-16 1260 -1255 0
-17 -1260 1255 0
-17 1260 -1255 0
-18 -1260 1255 0
-18 1260 -1255 0
-19 -1260 1255 0
-19 1260 -1255 0
-20 -1260 1255 0
-20 1260 -1255 0
-92 -1260 1255 0
-92 1260 -1255 0
-11 -1256 1261 0
-11 -1255 1261 0
-11 -1261 1256 1255 0
-12 -1261 1256 0
-12 1261 -1256 0
-13 -1261 1256 0
-13 1261 -1256 0
-14 -1261 1256 0
-14 1261 -1256 0
-15 -1261 1256 0
-15 -1261 1257 0
-15 1261 -1256 -1257 0
-16 -1261 1256 0
-16 -1261 1258 0
-16 1261 -1256 -1258 0
-17 -1261 1256 0
-17 -1261 1259 0
-17 1261 -1256 -1259 0
-18 -1261 1256 0
-18 1261 -1256 0
-19 -1261 1256 0
-19 1261 -1256 0
-20 -1261 1256 0
-20 1261 -1256 0
-92 -1261 1256 0
-92 1261 -1256 0
-11 -1262 1257 0
-11 1262 -1257 0
-12 -1257 1262 0
-12 -1255 1262 0
-12 -1262 1257 1255 0
-13 -1262 1257 0
-13 1262 -1257 0
-14 -1262 1257 0
-14 1262 -1257 0
-15 -1257 1262 0
-15 -1256 1262 0
-15 -1262 1257 1256 0
-16 -1262 1257 0
-16 1262 -1257 0
-17 -1262 1257 0
-17 1262 -1257 0
-18 -1262 1257 0
-18 -1262 1258 0
-18 1262 -1257 -1258 0
-19 -1262 1257 0
-19 -1262 1259 0
-19 1262 -1257 -1259 0
-20 -1262 1257 0
-20 1262 -1257 0
-92 -1262 1257 0
-92 1262 -1257 0
-11 -1263 1258 0
-11 1263 -1258 0
-12 -1263 1258 0
-12 1263 -1258 0
-13 -1258 1263 0
-13 -1255 1263 0
-13 -1263 1258 1255 0
-14 -1263 1258 0
-14 1263 -1258 0
-15 -1263 1258 0
-15 1263 -1258 0
-16 -1258 1263 0
-16 -1256 1263 0
-16 -1263 1258 1256 0
-17 -1263 1258 0
-17 1263 -1258 0
-18 -1258 1263 0
-18 -1257 1263 0
-18 -1263 1258 1257 0
-19 -1263 1258 0
-19 1263 -1258 0
-20 -1263 1258 0
-20 -1263 1259 0
-20 1263 -1258 -1259 0
-92 -1263 1258 0
-92 1263 -1258 0
-11 -1264 1259 0
-11 1264 -1259 0
-12 -1264 1259 0
-12 1264 -1259 0
-13 -1264 1259 0
-13 1264 -1259 0
-14 -1259 1264 0
-14 -1255 1264 0
-14 -1264 1259 1255 0
-15 -1264 1259 0
-15 1264 -1259 0
-16 -1264 1259 0
-16 1264 -1259 0
-17 -1259 1264 0
-17 -1256 1264 0
-17 -1264 1259 1256 0
-18 -1264 1259 0
-18 1264 -1259 0
-19 -1259 1264 0
-19 -1257 1264 0
-19 -1264 1259 1257 0
-20 -1259 1264 0
-20 -1258 1264 0
-20 -1264 1259 1258 0
-92 -1264 1259 0
-92 1264 -1259 0
-21 -1265 1260 0
-21 -1265 1261 0
-21 1265 -1260 -1261 0
-22 -1265 1260 0
-22 -1265 1262 0
-22 1265 -1260 -1262 0
-23 -1265 1260 0
-23 -1265 1263 0
-23 1265 -1260 -1263 0
-24 -1265 1260 0
-24 -1265 1264 0
-24 1265 -1260 -1264 0
-25 -1265 1260 0
-25 1265 -1260 0
-26 -1265 1260 0
-26 1265 -1260 0
-27 -1265 1260 0
-27 1265 -1260 0
-28 -1265 1260 0
-28 1265 -1260 0
-29 -1265 1260 0
-29 1265 -1260 0
-30 -1265 1260 0
-30 1265 -1260 0
-93 -1265 1260 0
-93 1265 -1260 0
-21 -1261 1266 0
-21 -1260 1266 0
-21 -1266 1261 1260 0
-22 -1266 1261 0
-22 1266 -1261 0
-23 -1266 1261 0
-23 1266 -1261 0
-24 -1266 1261 0
-24 1266 -1261 0
-25 -1266 1261 0
-25 -1266 1262 0
-25 1266 -1261 -1262 0
-26 -1266 1261 0
-26 -1266 1263 0
-26 1266 -1261 -1263 0
-27 -1266 1261 0
-27 -1266 1264 0
-27 1266 -1261 -1264 0
-28 -1266 1261 0
-28 1266 -1261 0
-29 -1266 1261 0
-29 1266 -1261 0
-30 -1266 1261 0
-30 1266 -1261 0
-93 -1266 1261 0
-93 1266 -1261 0
-21 -1267 1262 0
-21 1267 -1262 0
-22 -1262 1267 0
-22 -1260 1267 0
-22 -1267 1262 1260 0
-23 -1267 1262 0
-23 1267 -1262 0
-24 -1267 1262 0
-24 1267 -1262 0
-25 -1262 1267 0
-25 -1261 1267 0
-25 -1267 1262 1261 0
-26 -1267 1262 0
-26 1267 -1262 0
-27 -1267 1262 0
-27 1267 -1262 0
-28 -1267 1262 0
-28 -1267 1263 0
-28 1267 -1262 -1263 0
-29 -1267 1262 0
-29 -1267 1264 0
-29 1267 -1262 -1264 0
-30 -1267 1262 0
-30 1267 -1262 0
-93 -1267 1262 0
-93 1267 -1262 0
-21 -1268 1263 0
-21 1268 -1263 0
-22 -1268 1263 0
-22 1268 -1263 0
-23 -1263 1268 0
-23 -1260 1268 0
-23 -1268 1263 1260 0
-24 -1268 1263 0
-24 1268 -1263 0
-25 -1268 1263 0
-25 1268 -1263 0
-26 -1263 1268 0
-26 -1261 1268 0
-26 -1268 1263 1261 0
-27 -1268 1263 0
-27 1268 -1263 0
-28 -1263 1268 0
-28 -1262 1268 0
-28 -1268 1263 1262 0
-29 -1268 1263 0
-29 1268 -1263 0
-30 -1268 1263 0
-30 -1268 1264 0
-30 1268 -1263 -1264 0
-93 -1268 1263 0
-93 1268 -1263 0
-21 -1269 1264 0
-21 1269 -1264 0
-22 -1269 1264 0
-22 1269 -1264 0
-23 -1269 1264 0
-23 1269 -1264 0
-24 -1264 1269 0
-24 -1260 1269 0
-24 -1269 1264 1260 0
-25 -1269 1264 0
-25 1269 -1264 0
-26 -1269 1264 0
-26 1269 -1264 0
-27 -1264 1269 0
-27 -1261 1269 0
-27 -1269 1264 1261 0
-28 -1269 1264 0
-28 1269 -1264 0
-29 -1264 1269 0
-29 -1262 1269 0
-29 -1269 1264 1262 0
-30 -1264 1269 0
-30 -1263 1269 0
-30 -1269 1264 1263 0
-93 -1269 1264 0
-93 1269 -1264 0
-31 -1270 1265 0
-31 -1270 1266 0
-31 1270 -1265 -1266 0
-32 -1270 1265 0
-32 -1270 1267 0
-32 1270 -1265 -1267 0
-33 -1270 1265 0
-33 -1270 1268 0
-33 1270 -1265 -1268 0
-34 -1270 1265 0
-34 -1270 1269 0
-34 1270 -1265 -1269 0
-35 -1270 1265 0
-35 1270 -1265 0
-36 -1270 1265 0
-36 1270 -1265 0
-37 -1270 1265 0
-37 1270 -1265 0
-38 -1270 1265 0
-38 1270 -1265 0
-39 -1270 1265 0
-39 1270 -1265 0
-40 -1270 1265 0
-40 1270 -1265 0
-94 -1270 1265 0
-94 1270 -1265 0
-31 -1266 1271 0
-31 -1265 1271 0
-31 -1271 1266 1265 0
-32 -1271 1266 0
-32 1271 -1266 0
-33 -1271 1266 0
-33 1271 -1266 0
-34 -1271 1266 0
-34 1271 -1266 0
-35 -1271 1266 0
-35 -1271 1267 0
-35 1271 -1266 -1267 0
-36 -1271 1266 0
-36 -1271 1268 0
-36 1271 -1266 -1268 0
-37 -1271 1266 0
-37 -1271 1269 0
-37 1271 -1266 -1269 0
-38 -1271 1266 0
-38 1271 -1266 0
-39 -1271 1266 0
-39 1271 -1266 0
-40 -1271 1266 0
-40 1271 -1266 0
-94 -1271 1266 0
-94 1271 -1266 0
-31 -1272 1267 0
-31 1272 -1267 0
-32 -1267 1272 0
-32 -1265 1272 0
-32 -1272 1267 1265 0
-33 -1272 1267 0
-33 1272 -1267 0
-34 -1272 1267 0
-34 1272 -1267 0
-35 -1267 1272 0
-35 -1266 1272 0
-35 -1272 1267 1266 0
-36 -1272 1267 0
-36 1272 -1267 0
-37 -1272 1267 0
-37 1272 -1267 0
-38 -1272 1267 0
-38 -1272 1268 0
-38 1272 -1267 -1268 0
-39 -1272 1267 0
-39 -1272 1269 0
-39 1272 -1267 -1269 0
-40 -1272 1267 0
-40 1272 -1267 0
-94 -1272 1267 0
-94 1272 -1267 0
-31 -1273 1268 0
-31 1273 -1268 0
-32 -1273 1268 0
-32 1273 -1268 0
-33 -1268 1273 0
-33 -1265 1273 0
-33 -1273 1268 1265 0
-34 -1273 1268 0
-34 1273 -1268 0
-35 -1273 1268 0
-35 1273 -1268 0
-36 -1268 1273 0
-36 -1266 1273 0
-36 -1273 1268 1266 0
-37 -1273 1268 0
-37 1273 -1268 0
-38 -1268 1273 0
-38 -1267 1273 0
-38 -1273 1268 1267 0
-39 -1273 1268 0
-39 1273 -1268 0
-40 -1273 1268 0
-40 -1273 1269 0
-40 1273 -1268 -1269 0
-94 -1273 1268 0
-94 1273 -1268 0
-31 -1274 1269 0
-31 1274 -1269 0
-32 -1274 1269 0
-32 1274 -1269 0
-33 -1274 1269 0
-33 1274 -1269 0
-34 -1269 1274 0
-34 -1265 1274 0
-34 -1274 1269 1265 0
-35 -1274 1269 0
-35 1274 -1269 0
-36 -1274 1269 0
-36 1274 -1269 0
-37 -1269 1274 0
-37 -1266 1274 0
-37 -1274 1269 1266 0
-38 -1274 1269 0
-38 1274 -1269 0
-39 -1269 1274 0
-39 -1267 1274 0
-39 -1274 1269 1267 0
-40 -1269 1274 0
-40 -1268 1274 0
-40 -1274 1269 1268 0
-94 -1274 1269 0
-94 1274 -1269 0
-41 -1275 1270 0
-41 -1275 1271 0
-41 1275 -1270 -1271 0
-42 -1275 1270 0
-42 -1275 1272 0
-42 1275 -1270 -1272 0
-43 -1275 1270 0
-43 -1275 1273 0
-43 1275 -1270 -1273 0
-44 -1275 1270 0
-44 -1275 1274 0
-44 1275 -1270 -1274 0
-45 -1275 1270 0
-45 1275 -1270 0
-46 -1275 1270 0
-46 1275 -1270 0
-47 -1275 1270 0
-47 1275 -1270 0
-48 -1275 1270 0
-48 1275 -1270 0
-49 -1275 1270 0
-49 1275 -1270 0
-50 -1275 1270 0
-50 1275 -1270 0
-95 -1275 1270 0
-95 1275 -1270 0
-41 -1271 1276 0
-41 -1270 1276 0
-41 -1276 1271 1270 0
-42 -1276 1271 0
-42 1276 -1271 0
-43 -1276 1271 0
-43 1276 -1271 0
-44 -1276 1271 0
-44 1276 -1271 0
-45 -1276 1271 0
-45 -1276 1272 0
-45 1276 -1271 -1272 0
-46 -1276 1271 0
-46 -1276 1273 0
-46 1276 -1271 -1273 0
-47 -1276 1271 0
-47 -1276 1274 0
-47 1276 -1271 -1274 0
-48 -1276 1271 0
-48 1276 -1271 0
-49 -1276 1271 0
-49 1276 -1271 0
-50 -1276 1271 0
-50 1276 -1271 0
-95 -1276 1271 0
-95 1276 -1271 0
-41 -1277 1272 0
-41 1277 -1272 0
-42 -1272 1277 0
-42 -1270 1277 0
-42 -1277 1272 1270 0
-43 -1277 1272 0
-43 1277 -1272 0
-44 -1277 1272 0
-44 1277 -1272 0
-45 -1272 1277 0
-45 -1271 1277 0
-45 -1277 1272 1271 0
-46 -1277 1272 0
-46 1277 -1272 0
-47 -1277 1272 0
-47 1277 -1272 0
-48 -1277 1272 0
-48 -1277 1273 0
-48 1277 -1272 -1273 0
-49 -1277 1272 0
-49 -1277 1274 0
-49 1277 -1272 -1274 0
-50 -1277 1272 0
-50 1277 -1272 0
-95 -1277 1272 0
-95 1277 -1272 0
-41 -1278 1273 0
-41 1278 -1273 0
-42 -1278 1273 0
-42 1278 -1273 0
-43 -1273 1278 0
-43 -1270 1278 0
-43 -1278 1273 1270 0
-44 -1278 1273 0
-44 1278 -1273 0
-45 -1278 1273 0
-45 1278 -1273 0
-46 -1273 1278 0
-46 -1271 1278 0
-46 -1278 1273 1271 0
-47 -1278 1273 0
-47 1278 -1273 0
-48 -1273 1278 0
-48 -1272 1278 0
-48 -1278 1273 1272 0
-49 -1278 1273 0
-49 1278 -1273 0
-50 -1278 1273 0
-50 -1278 1274 0
-50 1278 -1273 -1274 0
-95 -1278 1273 0
-95 1278 -1273 0
-41 -1279 1274 0
-41 1279 -1274 0
-42 -1279 1274 0
-42 1279 -1274 0
-43 -1279 1274 0
-43 1279 -1274 0
-44 -1274 1279 0
-44 -1270 1279 0
-44 -1279 1274 1270 0
-45 -1279 1274 0
-45 1279 -1274 0
-46 -1279 1274 0
-46 1279 -1274 0
-47 -1274 1279 0
-47 -1271 1279 0
-47 -1279 1274 1271 0
-48 -1279 1274 0
-48 1279 -1274 0
-49 -1274 1279 0
-49 -1272 1279 0
-49 -1279 1274 1272 0
-50 -1274 1279 0
-50 -1273 1279 0
-50 -1279 1274 1273 0
-95 -1279 1274 0
-95 1279 -1274 0
-51 -1280 1275 0
-51 -1280 1276 0
-51 1280 -1275 -1276 0
-52 -1280 1275 0
-52 -1280 1277 0
-52 1280 -1275 -1277 0
-53 -1280 1275 0
-53 -1280 1278 0
-53 1280 -1275 -1278 0
-54 -1280 1275 0
-54 -1280 1279 0
-54 1280 -1275 -1279 0
-55 -1280 1275 0
-55 1280 -1275 0
-56 -1280 1275 0
-56 1280 -1275 0
-57 -1280 1275 0
-57 1280 -1275 0
-58 -1280 1275 0
-58 1280 -1275 0
-59 -1280 1275 0
-59 1280 -1275 0
-60 -1280 1275 0
-60 1280 -1275 0
-96 -1280 1275 0
-96 1280 -1275 0
-51 -1276 1281 0
-51 -1275 1281 0
-51 -1281 1276 1275 0
-52 -1281 1276 0
-52 1281 -1276 0
-53 -1281 1276 0
-53 1281 -1276 0
-54 -1281 1276 0
-54 1281 -1276 0
-55 -1281 1276 0
-55 -1281 1277 0
-55 1281 -1276 -1277 0
-56 -1281 1276 0
-56 -1281 1278 0
-56 1281 -1276 -1278 0
-57 -1281 1276 0
-57 -1281 1279 0
-57 1281 -1276 -1279 0
-58 -1281 1276 0
-58 1281 -1276 0
-59 -1281 1276 0
-59 1281 -1276 0
-60 -1281 1276 0
-60 1281 -1276 0
-96 -1281 1276 0
-96 1281 -1276 0
-51 -1282 1277 0
-51 1282 -1277 0
-52 -1277 1282 0
-52 -1275 1282 0
-52 -1282 1277 1275 0
-53 -1282 1277 0
-53 1282 -1277 0
-54 -1282 1277 0
-54 1282 -1277 0
-55 -1277 1282 0
-55 -1276 1282 0
-55 -1282 1277 1276 0
-56 -1282 1277 0
-56 1282 -1277 0
-57 -1282 1277 0
-57 1282 -1277 0
-58 -1282 1277 0
-58 -1282 1278 0
-58 1282 -1277 -1278 0
-59 -1282 1277 0
-59 -1282 1279 0
-59 1282 -1277 -1279 0
-60 -1282 1277 0
-60 1282 -1277 0
-96 -1282 1277 0
-96 1282 -1277 0
-51 -1283 1278 0
-51 1283 -1278 0
-52 -1283 1278 0
-52 1283 -1278 0
-53 -1278 1283 0
-53 -1275 1283 0
-53 -1283 1278 1275 0
-54 -1283 1278 0
-54 1283 -1278 0
-55 -1283 1278 0
-55 1283 -1278 0
-56 -1278 1283 0
-56 -1276 1283 0
-56 -1283 1278 1276 0
-57 -1283 1278 0
-57 1283 -1278 0
-58 -1278 1283 0
-58 -1277 1283 0
-58 -1283 1278 1277 0
-59 -1283 1278 0
-59 1283 -1278 0
-60 -1283 1278 0
-60 -1283 1279 0
-60 1283 -1278 -1279 0
-96 -1283 1278 0
-96 1283 -1278 0
-51 -1284 1279 0
-51 1284 -1279 0
-52 -1284 1279 0
-52 1284 -1279 0
-53 -1284 1279 0
-53 1284 -1279 0
-54 -1279 1284 0
-54 -1275 1284 0
-54 -1284 1279 1275 0
-55 -1284 1279 0
-55 1284 -1279 0
-56 -1284 1279 0
-56 1284 -1279 0
-57 -1279 1284 0
-57 -1276 1284 0
-57 -1284 1279 1276 0
-58 -1284 1279 0
-58 1284 -1279 0
-59 -1279 1284 0
-59 -1277 1284 0
-59 -1284 1279 1277 0
-60 -1279 1284 0
-60 -1278 1284 0
-60 -1284 1279 1278 0
-96 -1284 1279 0
-96 1284 -1279 0
-61 -1285 1280 0
-61 -1285 1281 0
-61 1285 -1280 -1281 0
-62 -1285 1280 0
-62 -1285 1282 0
-62 1285 -1280 -1282 0
-63 -1285 1280 0
-63 -1285 1283 0
-63 1285 -1280 -1283 0
-64 -1285 1280 0
-64 -1285 1284 0
-64 1285 -1280 -1284 0
-65 -1285 1280 0
-65 1285 -1280 0
-66 -1285 1280 0
-66 1285 -1280 0
-67 -1285 1280 0
-67 1285 -1280 0
-68 -1285 1280 0
-68 1285 -1280 0
-69 -1285 1280 0
-69 1285 -1280 0
-70 -1285 1280 0
-70 1285 -1280 0
-97 -1285 1280 0
-97 1285 -1280 0
-61 -1281 1286 0
-61 -1280 1286 0
-61 -1286 1281 1280 0
-62 -1286 1281 0
-62 1286 -1281 0
-63 -1286 1281 0
-63 1286 -1281 0
-64 -1286 1281 0
-64 1286 -1281 0
-65 -1286 1281 0
-65 -1286 1282 0
-65 1286 -1281 -1282 0
-66 -1286 1281 0
-66 -1286 1283 0
-66 1286 -1281 -1283 0
-67 -1286 1281 0
-67 -1286 1284 0
-67 1286 -1281 -1284 0
-68 -1286 1281 0
-68 1286 -1281 0
-69 -1286 1281 0
-69 1286 -1281 0
-70 -1286 1281 0
-70 1286 -1281 0
-97 -1286 1281 0
-97 1286 -1281 0
-61 -1287 1282 0
-61 1287 -1282 0
-62 -1282 1287 0
-62 -1280 1287 0
-62 -1287 1282 1280 0
-63 -1287 1282 0
-63 1287 -1282 0
-64 -1287 1282 0
-64 1287 -1282 0
-65 -1282 1287 0
-65 -1281 1287 0
-65 -1287 1282 1281 0
-66 -1287 1282 0
-66 1287 -1282 0
-67 -1287 1282 0
-67 1287 -1282 0
-68 -1287 1282 0
-68 -1287 1283 0
-68 1287 -1282 -1283 0
-69 -1287 1282 0
-69 -1287 1284 0
-69 1287 -1282 -1284 0
-70 -1287 1282 0
-70 1287 -1282 0
-97 -1287 1282 0
-97 1287 -1282 0
-61 -1288 1283 0
-61 1288 -1283 0
-62 -1288 1283 0
-62 1288 -1283 0
-63 -1283 1288 0
-63 -1280 1288 0
-63 -1288 1283 1280 0
-64 -1288 1283 0
-64 1288 -1283 0
-65 -1288 1283 0
-65 1288 -1283 0
-66 -1283 1288 0
-66 -1281 1288 0
-66 -1288 1283 1281 0
-67 -1288 1283 0
-67 1288 -1283 0
-68 -1283 1288 0
-68 -1282 1288 0
-68 -1288 1283 1282 0
-69 -1288 1283 0
-69 1288 -1283 0
-70 -1288 1283 0
-70 -1288 1284 0
-70 1288 -1283 -1284 0
-97 -1288 1283 0
-97 1288 -1283 0
-61 -1289 1284 0
-61 1289 -1284 0
-62 -1289 1284 0
-62 1289 -1284 0
-63 -1289 1284 0
-63 1289 -1284 0
-64 -1284 1289 0
-64 -1280 1289 0
-64 -1289 1284 1280 0
-65 -1289 1284 0
-65 1289 -1284 0
-66 -1289 1284 0
-66 1289 -1284 0
-67 -1284 1289 0
-67 -1281 1289 0
-67 -1289 1284 1281 0
-68 -1289 1284 0
-68 1289 -1284 0
-69 -1284 1289 0
-69 -1282 1289 0
-69 -1289 1284 1282 0
-70 -1284 1289 0
-70 -1283 1289 0
-70 -1289 1284 1283 0
-97 -1289 1284 0
-97 1289 -1284 0
-71 -1290 1285 0
-71 -1290 1286 0
-71 1290 -1285 -1286 0
-72 -1290 1285 0
-72 -1290 1287 0
-72 1290 -1285 -1287 0
-73 -1290 1285 0
-73 -1290 1288 0
-73 1290 -1285 -1288 0
-74 -1290 1285 0
-74 -1290 1289 0
-74 1290 -1285 -1289 0
-75 -1290 1285 0
-75 1290 -1285 0
-76 -1290 1285 0
-76 1290 -1285 0
-77 -1290 1285 0
-77 1290 -1285 0
-78 -1290 1285 0
-78 1290 -1285 0
-79 -1290 1285 0
-79 1290 -1285 0
-80 -1290 1285 0
-80 1290 -1285 0
-98 -1290 1285 0
-98 1290 -1285 0
-71 -1286 1291 0
-71 -1285 1291 0
-71 -1291 1286 1285 0
-72 -1291 1286 0
-72 1291 -1286 0
-73 -1291 1286 0
-73 1291 -1286 0
-74 -1291 1286 0
-74 1291 -1286 0
-75 -1291 1286 0
-75 -1291 1287 0
-75 1291 -1286 -1287 0
-76 -1291 1286 0
-76 -1291 1288 0
-76 1291 -1286 -1288 0
-77 -1291 1286 0
-77 -1291 1289 0
-77 1291 -1286 -1289 0
-78 -1291 1286 0
-78 1291 -1286 0
-79 -1291 1286 0
-79 1291 -1286 0
-80 -1291 1286 0
-80 1291 -1286 0
-98 -1291 1286 0
-98 1291 -1286 0
-71 -1292 1287 0
-71 1292 -1287 0
-72 -1287 1292 0
-72 -1285 1292 0
-72 -1292 1287 1285 0
-73 -1292 1287 0
-73 1292 -1287 0
-74 -1292 1287 0
-74 1292 -1287 0
-75 -1287 1292 0
-75 -1286 1292 0
-75 -1292 1287 1286 0
-76 -1292 1287 0
-76 1292 -1287 0
-77 -1292 1287 0
-77 1292 -1287 0
-78 -1292 1287 0
-78 -1292 1288 0
-78 1292 -1287 -1288 0
-79 -1292 1287 0
-79 -1292 1289 0
-79 1292 -1287 -1289 0
-80 -1292 1287 0
-80 1292 -1287 0
-98 -1292 1287 0
-98 1292 -1287 0
-71 -1293 1288 0
-71 1293 -1288 0
-72 -1293 1288 0
-72 1293 -1288 0
-73 -1288 1293 0
-73 -1285 1293 0
-73 -1293 1288 1285 0
-74 -1293 1288 0
-74 1293 -1288 0
-75 -1293 1288 0
-75 1293 -1288 0
-76 -1288 1293 0
-76 -1286 1293 0
-76 -1293 1288 1286 0
-77 -1293 1288 0
-77 1293 -1288 0
-78 -1288 1293 0
-78 -1287 1293 0
-78 -1293 1288 1287 0
-79 -1293 1288 0
-79 1293 -1288 0
-80 -1293 1288 0
-80 -1293 1289 0
-80 1293 -1288 -1289 0
-98 -1293 1288 0
-98 1293 -1288 0
-71 -1294 1289 0
-71 1294 -1289 0
-72 -1294 1289 0
-72 1294 -1289 0
-73 -1294 1289 0
-73 1294 -1289 0
-74 -1289 1294 0
-74 -1285 1294 0
-74 -1294 1289 1285 0
-75 -1294 1289 0
-75 1294 -1289 0
-76 -1294 1289 0
-76 1294 -1289 0
-77 -1289 1294 0
-77 -1286 1294 0
-77 -1294 1289 1286 0
-78 -1294 1289 0
-78 1294 -1289 0
-79 -1289 1294 0
-79 -1287 1294 0
-79 -1294 1289 1287 0
-80 -1289 1294 0
-80 -1288 1294 0
-80 -1294 1289 1288 0
-98 -1294 1289 0
-98 1294 -1289 0
-81 -1295 1290 0
-81 -1295 1291 0
-81 1295 -1290 -1291 0
-82 -1295 1290 0
-82 -1295 1292 0
-82 1295 -1290 -1292 0
-83 -1295 1290 0
-83 -1295 1293 0
-83 1295 -1290 -1293 0
-84 -1295 1290 0
-84 -1295 1294 0
-84 1295 -1290 -1294 0
-85 -1295 1290 0
-85 1295 -1290 0
-86 -1295 1290 0
-86 1295 -1290 0
-87 -1295 1290 0
-87 1295 -1290 0
-88 -1295 1290 0
-88 1295 -1290 0
-89 -1295 1290 0
-89 1295 -1290 0
-90 -1295 1290 0
-90 1295 -1290 0
-99 -1295 1290 0
-99 1295 -1290 0
-81 -1291 1296 0
-81 -1290 1296 0
-81 -1296 1291 1290 0
-82 -1296 1291 0
-82 1296 -1291 0
-83 -1296 1291 0
-83 1296 -1291 0
-84 -1296 1291 0
-84 1296 -1291 0
-85 -1296 1291 0
-85 -1296 1292 0
-85 1296 -1291 -1292 0
-86 -1296 1291 0
-86 -1296 1293 0
-86 1296 -1291 -1293 0
-87 -1296 1291 0
-87 -1296 1294 0
-87 1296 -1291 -1294 0
-88 -1296 1291 0
-88 1296 -1291 0
-89 -1296 1291 0
-89 1296 -1291 0
-90 -1296 1291 0
-90 1296 -1291 0
-99 -1296 1291 0
-99 1296 -1291 0
-81 -1297 1292 0
-81 1297 -1292 0
-82 -1292 1297 0
-82 -1290 1297 0
-82 -1297 1292 1290 0
-83 -1297 1292 0
-83 1297 -1292 0
-84 -1297 1292 0
-84 1297 -1292 0
-85 -1292 1297 0
-85 -1291 1297 0
-85 -1297 1292 1291 0
-86 -1297 1292 0
-86 1297 -1292 0
-87 -1297 1292 0
-87 1297 -1292 0
-88 -1297 1292 0
-88 -1297 1293 0
-88 1297 -1292 -1293 0
-89 -1297 1292 0
-89 -1297 1294 0
-89 1297 -1292 -1294 0
-90 -1297 1292 0
-90 1297 -1292 0
-99 -1297 1292 0
-99 1297 -1292 0
-81 -1298 1293 0
-81 1298 -1293 0
-82 -1298 1293 0
-82 1298 -1293 0
-83 -1293 1298 0
-83 -1290 1298 0
-83 -1298 1293 1290 0
-84 -1298 1293 0
-84 1298 -1293 0
-85 -1298 1293 0
-85 1298 -1293 0
-86 -1293 1298 0
-86 -1291 1298 0
-86 -1298 1293 1291 0
-87 -1298 1293 0
-87 1298 -1293 0
-88 -1293 1298 0
-88 -1292 1298 0
-88 -1298 1293 1292 0
-89 -1298 1293 0
-89 1298 -1293 0
-90 -1298 1293 0
-90 -1298 1294 0
-90 1298 -1293 -1294 0
-99 -1298 1293 0
-99 1298 -1293 0
-81 -1299 1294 0
-81 1299 -1294 0
-82 -1299 1294 0
-82 1299 -1294 0
-83 -1299 1294 0
-83 1299 -1294 0
-84 -1294 1299 0
-84 -1290 1299 0
-84 -1299 1294 1290 0
-85 -1299 1294 0
-85 1299 -1294 0
-86 -1299 1294 0
-86 1299 -1294 0
-87 -1294 1299 0
-87 -1291 1299 0
-87 -1299 1294 1291 0
-88 -1299 1294 0
-88 1299 -1294 0
-89 -1294 1299 0
-89 -1292 1299 0
-89 -1299 1294 1292 0
-90 -1294 1299 0
-90 -1293 1299 0
-90 -1299 1294 1293 0
-99 -1299 1294 0
-99 1299 -1294 0
1300 0
-1 -1305 1300 0
-1 -1305 1301 0
-1 1305 -1300 -1301 0
-2 -1305 1300 0
-2 -1305 1302 0
-2 1305 -1300 -1302 0
-3 -1305 1300 0
-3 -1305 1303 0
-3 1305 -1300 -1303 0
-4 -1305 1300 0
-4 -1305 1304 0
-4 1305 -1300 -1304 0
-5 -1305 1300 0
-5 1305 -1300 0
-6 -1305 1300 0
-6 1305 -1300 0
-7 -1305 1300 0
-7 1305 -1300 0
-8 -1305 1300 0
-8 1305 -1300 0
-9 -1305 1300 0
-9 1305 -1300 0
-10 -1305 1300 0
-10 1305 -1300 0
-91 -1305 1300 0
-91 1305 -1300 0
1301 0
-1 -1301 1306 0
-1 -1300 1306 0
-1 -1306 1301 1300 0
-2 -1306 1301 0
-2 1306 -1301 0
-3 -1306 1301 0
-3 1306 -1301 0
-4 -1306 1301 0
-4 1306 -1301 0
-5 -1306 1301 0
-5 -1306 1302 0
-5 1306 -1301 -1302 0
-6 -1306 1301 0
-6 -1306 1303 0
-6 1306 -1301 -1303 0
-7 -1306 1301 0
-7 -1306 1304 0
-7 1306 -1301 -1304 0
-8 -1306 1301 0
-8 1306 -1301 0
-9 -1306 1301 0
-9 1306 -1301 0
-10 -1306 1301 0
-10 1306 -1301 0
-91 -1306 1301 0
-91 1306 -1301 0
1302 0
-1 -1307 1302 0
-1 1307 -1302 0
-2 -1302 1307 0
-2 -1300 1307 0
-2 -1307 1302 1300 0
-3 -1307 1302 0
-3 1307 -1302 0
-4 -1307 1302 0
-4 1307 -1302 0
-5 -1302 1307 0
-5 -1301 1307 0
-5 -1307 1302 1301 0
-6 -1307 1302 0
-6 1307 -1302 0
-7 -1307 1302 0
-7 1307 -1302 0
-8 -1307 1302 0
-8 -1307 1303 0
-8 1307 -1302 -1303 0
-9 -1307 1302 0
-9 -1307 1304 0
-9 1307 -1302 -1304 0
-10 -1307 1302 0
-10 1307 -1302 0
-91 -1307 1302 0
-91 1307 -1302 0
-1303 0
-1 -1308 1303 0
-1 1308 -1303 0
-2 -1308 1303 0
-2 1308 -1303 0
-3 -1303 1308 0
-3 -1300 1308 0
-3 -1308 1303 1300 0
-4 -1308 1303 0
-4 1308 -1303 0
-5 -1308 1303 0
-5 1308 -1303 0
-6 -1303 1308 0
-6 -1301 1308 0
-6 -1308 1303 1301 0
-7 -1308 1303 0
-7 1308 -1303 0
-8 -1303 1308 0
-8 -1302 1308 0
-8 -1308 1303 1302 0
-9 -1308 1303 0
-9 1308 -1303 0
-10 -1308 1303 0
-10 -1308 1304 0
-10 1308 -1303 -1304 0
-91 -1308 1303 0
-91 1308 -1303 0
1304 0
-1 -1309 1304 0
-1 1309 -1304 0
-2 -1309 1304 0
-2 1309 -1304 0
-3 -1309 1304 0
-3 1309 -1304 0
-4 -1304 1309 0
-4 -1300 1309 0
-4 -1309 1304 1300 0
-5 -1309 1304 0
-5 1309 -1304 0
-6 -1309 1304 0
-6 1309 -1304 0
-7 -1304 1309 0
-7 -1301 1309 0
-7 -1309 1304 1301 0
-8 -1309 1304 0
-8 1309 -1304 0
-9 -1304 1309 0
-9 -1302 1309 0
-9 -1309 1304 1302 0
-10 -1304 1309 0
-10 -1303 1309 0
-10 -1309 1304 1303 0
-91 -1309 1304 0
-91 1309 -1304 0
-11 -1310 1305 0
-11 -1310 1306 0
-11 1310 -1305 -1306 0
-12 -1310 1305 0
-12 -1310 1307 0
-12 1310 -1305 -1307 0
-13 -1310 1305 0
-13 -1310 1308 0
-13 1310 -1305 -1308 0
-14 -1310 1305 0
-14 -1310 1309 0
-14 1310 -1305 -1309 0
-15 -1310 1305 0
-15 1310 -1305 0
-16 -1310 1305 0
-16 1310 -1305 0
-17 -1310 1305 0
-17 1310 -1305 0
-18 -1310 1305 0
-18 1310 -1305 0
-19 -1310 1305 0
-19 1310 -1305 0
-20 -1310 1305 0
-20 1310 -1305 0
-92 -1310 1305 0
-92 1310 -1305 0
-11 -1306 1311 0
-11 -1305 1311 0
-11 -1311 1306 1305 0
-12 -1311 1306 0
-12 1311 -1306 0
-13 -1311 1306 0
-13 1311 -1306 0
-14 -1311 1306 0
-14 1311 -1306 0
-15 -1311 1306 0
-15 -1311 1307 0
-15 1311 -1306 -1307 0
-16 -1311 1306 0
-16 -1311 1308 0
-16 1311 -1306 -1308 0
-17 -1311 1306 0
-17 -1311 1309 0
-17 1311 -1306 -1309 0
-18 -1311 1306 0
-18 1311 -1306 0
-19 -1311 1306 0
-19 1311 -1306 0
-20 -1311 1306 0
-20 1311 -1306 0
-92 -1311 1306 0
-92 1311 -1306 0
-11 -1312 1307 0
-11 1312 -1307 0
-12 -1307 1312 0
-12 -1305 1312 0
-12 -1312 1307 1305 0
-13 -1312 1307 0
-13 1312 -1307 0
-14 -1312 1307 0
-14 1312 -1307 0
-15 -1307 1312 0
-15 -1306 1312 0
-15 -1312 1307 1306 0
-16 -1312 1307 0
-16 1312 -1307 0
-17 -1312 1307 0
-17 1312 -1307 0
-18 -1312 1307 0
-18 -1312 1308 0
-18 1312 -1307 -1308 0
-19 -1312 1307 0
-19 -1312 1309 0
-19 1312 -1307 -1309 0
-20 -1312 1307 0
-20 1312 -1307 0
-92 -1312 1307 0
-92 1312 -1307 0
-11 -1313 1308 0
-11 1313 -1308 0
-12 -1313 1308 0
-12 1313 -1308 0
-13 -1308 1313 0
-13 -1305 1313 0
-13 -1313 1308 1305 0
-14 -1313 1308 0
-14 1313 -1308 0
-15 -1313 1308 0
-15 1313 -1308 0
-16 -1308 1313 0
-16 -1306 1313 0
-16 -1313 1308 1306 0
-17 -1313 1308 0
-17 1313 -1308 0
-18 -1308 1313 0
-18 -1307 1313 0
-18 -1313 1308 1307 0
-19 -1313 1308 0
-19 1313 -1308 0
-20 -1313 1308 0
-20 -1313 1309 0
-20 1313 -1308 -1309 0
-92 -1313 1308 0
-92 1313 -1308 0
-11 -1314 1309 0
-11 1314 -1309 0
-12 -1314 1309 0
-12 1314 -1309 0
-13 -1314 1309 0
-13 1314 -1309 0
-14 -1309 1314 0
-14 -1305 1314 0
-14 -1314 1309 1305 0
-15 -1314 1309 0
-15 1314 -1309 0
-16 -1314 1309 0
-16 1314 -1309 0
-17 -1309 1314 0
-17 -1306 1314 0
-17 -1314 1309 1306 0
-18 -1314 1309 0
-18 1314 -1309 0
-19 -1309 1314 0
-19 -1307 1314 0
-19 -1314 1309 1307 0
-20 -1309 1314 0
-20 -1308 1314 0
-20 -1314 1309 1308 0
-92 -1314 1309 0
-92 1314 -1309 0
-21 -1315 1310 0
-21 -1315 1311 0
-21 1315 -1310 -1311 0
-22 -1315 1310 0
-22 -1315 1312 0
-22 1315 -1310 -1312 0
-23 -1315 1310 0
-23 -1315 1313 0
-23 1315 -1310 -1313 0
-24 -1315 1310 0
-24 -1315 1314 0
-24 1315 -1310 -1314 0
-25 -1315 1310 0
-25 1315 -1310 0
-26 -1315 1310 0
-26 1315 -1310 0
-27 -1315 1310 0
-27 1315 -1310 0
-28 -1315 1310 0
-28 1315 -1310 0
-29 -1315 1310 0
-29 1315 -1310 0
-30 -1315 1310 0
-30 1315 -1310 0
-93 -1315 1310 0
-93 1315 -1310 0
-21 -1311 1316 0
-21 -1310 1316 0
-21 -1316 1311 1310 0
-22 -1316 1311 0
-22 1316 -1311 0
-23 -1316 1311 0
-23 1316 -1311 0
-24 -1316 1311 0
-24 1316 -1311 0
-25 -1316 1311 0
-25 -1316 1312 0
-25 1316 -1311 -1312 0
-26 -1316 1311 0
-26 -1316 1313 0
-26 1316 -1311 -1313 0
-27 -1316 1311 0
-27 -1316 1314 0
-27 1316 -1311 -1314 0
-28 -1316 1311 0
-28 1316 -1311 0
-29 -1316 1311 0
-29 1316 -1311 0
-30 -1316 1311 0
-30 1316 -1311 0
-93 -1316 1311 0
-93 1316 -1311 0
-21 -1317 1312 0
-21 1317 -1312 0
-22 -1312 1317 0
-22 -1310 1317 0
-22 -1317 1312 1310 0
-23 -1317 1312 0
-23 1317 -1312 0
-24 -1317 1312 0
-24 1317 -1312 0
-25 -1312 1317 0
-25 -1311 1317 0
-25 -1317 1312 1311 0
-26 -1317 1312 0
-26 1317 -1312 0
-27 -1317 1312 0
-27 1317 -1312 0
-28 -1317 1312 0
-28 -1317 1313 0
-28 1317 -1312 -1313 0
-29 -1317 1312 0
-29 -1317 1314 0
-29 1317 -1312 -1314 0
-30 -1317 1312 0
-30 1317 -1312 0
-93 -1317 1312 0
-93 1317 -1312 0
-21 -1318 1313 0
-21 1318 -1313 0
-22 -1318 1313 0
-22 1318 -1313 0
-23 -1313 1318 0
-23 -1310 1318 0
-23 -1318 1313 1310 0
-24 -1318 1313 0
-24 1318 -1313 0
-25 -1318 1313 0
-25 1318 -1313 0
-26 -1313 1318 0
-26 -1311 1318 0
-26 -1318 1313 1311 0
-27 -1318 1313 0
-27 1318 -1313 0
-28 -1313 1318 0
-28 -1312 1318 0
-28 -1318 1313 1312 0
-29 -1318 1313 0
-29 1318 -1313 0
-30 -1318 1313 0
-30 -1318 1314 0
-30 1318 -1313 -1314 0
-93 -1318 1313 0
-93 1318 -1313 0
-21 -1319 1314 0
-21 1319 -1314 0
-22 -1319 1314 0
-22 1319 -1314 0
-23 -1319 1314 0
-23 1319 -1314 0
-24 -1314 1319 0
-24 -1310 1319 0
-24 -1319 1314 1310 0
-25 -1319 1314 0
-25 1319 -1314 0
-26 -1319 1314 0
-26 1319 -1314 0
-27 -1314 1319 0
-27 -1311 1319 0
-27 -1319 1314 1311 0
-28 -1319 1314 0
-28 1319 -1314 0
-29 -1314 1319 0
-29 -1312 1319 0
-29 -1319 1314 1312 0
-30 -1314 1319 0
-30 -1313 1319 0
-30 -1319 1314 1313 0
-93 -1319 1314 0
-93 1319 -1314 0
-31 -1320 1315 0
-31 -1320 1316 0
-31 1320 -1315 -1316 0
-32 -1320 1315 0
-32 -1320 1317 0
-32 1320 -1315 -1317 0
-33 -1320 1315 0
-33 -1320 1318 0
-33 1320 -1315 -1318 0
-34 -1320 1315 0
-34 -1320 1319 0
-34 1320 -1315 -1319 0
-35 -1320 1315 0
-35 1320 -1315 0
-36 -1320 1315 0
-36 1320 -1315 0
-37 -1320 1315 0
-37 1320 -1315 0
-38 -1320 1315 0
-38 1320 -1315 0
-39 -1320 1315 0
-39 1320 -1315 0
-40 -1320 1315 0
-40 1320 -1315 0
-94 -1320 1315 0
-94 1320 -1315 0
-31 -1316 1321 0
-31 -1315 1321 0
-31 -1321 1316 1315 0
-32 -1321 1316 0
-32 1321 -1316 0
-33 -1321 1316 0
-33 1321 -1316 0
-34 -1321 1316 0
-34 1321 -1316 0
-35 -1321 1316 0
-35 -1321 1317 0
-35 1321 -1316 -1317 0
-36 -1321 1316 0
-36 -1321 1318 0
-36 1321 -1316 -1318 0
-37 -1321 1316 0
-37 -1321 1319 0
-37 1321 -1316 -1319 0
-38 -1321 1316 0
-38 1321 -1316 0
-39 -1321 1316 0
-39 1321 -1316 0
-40 -1321 1316 0
-40 1321 -1316 0
-94 -1321 1316 0
-94 1321 -1316 0
-31 -1322 1317 0
-31 1322 -1317 0
-32 -1317 1322 0
-32 -1315 1322 0
-32 -1322 1317 1315 0
-33 -1322 1317 0
-33 1322 -1317 0
-34 -1322 1317 0
-34 1322 -1317 0
-35 -1317 1322 0
-35 -1316 1322 0
-35 -1322 1317 1316 0
-36 -1322 1317 0
-36 1322 -1317 0
-37 -1322 1317 0
-37 1322 -1317 0
-38 -1322 1317 0
-38 -1322 1318 0
-38 1322 -1317 -1318 0
-39 -1322 1317 0
-39 -1322 1319 0
-39 1322 -1317 -1319 0
-40 -1322 1317 0
-40 1322 -1317 0
-94 -1322 1317 0
-94 1322 -1317 0
-31 -1323 1318 0
-31 1323 -1318 0
-32 -1323 1318 0
-32 1323 -1318 0
-33 -1318 1323 0
-33 -1315 1323 0
-33 -1323 1318 1315 0
-34 -1323 1318 0
-34 1323 -1318 0
-35 -1323 1318 0
-35 1323 -1318 0
-36 -1318 1323 0
-36 -1316 1323 0
-36 -1323 1318 1316 0
-37 -1323 1318 0
-37 1323 -1318 0
-38 -1318 1323 0
-38 -1317 1323 0
-38 -1323 1318 1317 0
-39 -1323 1318 0
-39 1323 -1318 0
-40 -1323 1318 0
-40 -1323 1319 0
-40 1323 -1318 -1319 0
-94 -1323 1318 0
-94 1323 -1318 0
-31 -1324 1319 0
-31 1324 -1319 0
-32 -1324 1319 0
-32 1324 -1319 0
-33 -1324 1319 0
-33 1324 -1319 0
-34 -1319 1324 0
-34 -1315 1324 0
-34 -1324 1319 1315 0
-35 -1324 1319 0
-35 1324 -1319 0
-36 -1324 1319 0
-36 1324 -1319 0
-37 -1319 1324 0
-37 -1316 1324 0
-37 -1324 1319 1316 0
-38 -1324 1319 0
-38 1324 -1319 0
-39 -1319 1324 0
-39 -1317 1324 0
-39 -1324 1319 1317 0
-40 -1319 1324 0
-40 -1318 1324 0
-40 -1324 1319 1318 0
-94 -1324 1319 0
-94 1324 -1319 0
-41 -1325 1320 0
-41 -1325 1321 0
-41 1325 -1320 -1321 0
-42 -1325 1320 0
-42 -1325 1322 0
-42 1325 -1320 -1322 0
-43 -1325 1320 0
-43 -1325 1323 0
-43 1325 -1320 -1323 0
-44 -1325 1320 0
-44 -1325 1324 0
-44 1325 -1320 -1324 0
-45 -1325 1320 0
-45 1325 -1320 0
-46 -1325 1320 0
-46 1325 -1320 0
-47 -1325 1320 0
-47 1325 -1320 0
-48 -1325 1320 0
-48 1325 -1320 0
-49 -1325 1320 0
-49 1325 -1320 0
-50 -1325 1320 0
-50 1325 -1320 0
-95 -1325 1320 0
-95 1325 -1320 0
-41 -1321 1326 0
-41 -1320 1326 0
-41 -1326 1321 1320 0
-42 -1326 1321 0
-42 1326 -1321 0
-43 -1326 1321 0
-43 1326 -1321 0
-44 -1326 1321 0
-44 1326 -1321 0
-45 -1326 1321 0
-45 -1326 1322 0
-45 1326 -1321 -1322 0
-46 -1326 1321 0
-46 -1326 1323 0
-46 1326 -1321 -1323 0
-47 -1326 1321 0
-47 -1326 1324 0
-47 1326 -1321 -1324 0
-48 -1326 1321 0
-48 1326 -1321 0
-49 -1326 1321 0
-49 1326 -1321 0
-50 -1326 1321 0
-50 1326 -1321 0
-95 -1326 1321 0
-95 1326 -1321 0
-41 -1327 1322 0
-41 1327 -1322 0
-42 -1322 1327 0
-42 -1320 1327 0
-42 -1327 1322 1320 0
-43 -1327 1322 0
-43 1327 -1322 0
-44 -1327 1322 0
-44 1327 -1322 0
-45 -1322 1327 0
-45 -1321 1327 0
-45 -1327 1322 1321 0
-46 -1327 1322 0
-46 1327 -1322 0
-47 -1327 1322 0
-47 1327 -1322 0
-48 -1327 1322 0
-48 -1327 1323 0
-48 1327 -1322 -1323 0
-49 -1327 1322 0
-49 -1327 1324 0
-49 1327 -1322 -1324 0
-50 -1327 1322 0
-50 1327 -1322 0
-95 -1327 1322 0
-95 1327 -1322 0
-41 -1328 1323 0
-41 1328 -1323 0
-42 -1328 1323 0
-42 1328 -1323 0
-43 -1323 1328 0
-43 -1320 1328 0
-43 -1328 1323 1320 0
-44 -1328 1323 0
-44 1328 -1323 0
-45 -1328 1323 0
-45 1328 -1323 0
-46 -1323 1328 0
-46 -1321 1328 0
-46 -1328 1323 1321 0
-47 -1328 1323 0
-47 1328 -1323 0
-48 -1323 1328 0
-48 -1322 1328 0
-48 -1328 1323 1322 0
-49 -1328 1323 0
-49 1328 -1323 0
-50 -1328 1323 0
-50 -1328 1324 0
-50 1328 -1323 -1324 0
-95 -1328 1323 0
-95 1328 -1323 0
-41 -1329 1324 0
-41 1329 -1324 0
-42 -1329 1324 0
-42 1329 -1324 0
-43 -1329 1324 0
-43 1329 -1324 0
-44 -1324 1329 0
-44 -1320 1329 0
-44 -1329 1324 1320 0
-45 -1329 1324 0
-45 1329 -1324 0
-46 -1329 1324 0
-46 1329 -1324 0
-47 -1324 1329 0
-47 -1321 1329 0
-47 -1329 1324 1321 0
-48 -1329 1324 0
-48 1329 -1324 0
-49 -1324 1329 0
-49 -1322 1329 0
-49 -1329 1324 1322 0
-50 -1324 1329 0
-50 -1323 1329 0
-50 -1329 1324 1323 0
-95 -1329 1324 0
-95 1329 -1324 0
-51 -1330 1325 0
-51 -1330 1326 0
-51 1330 -1325 -1326 0
-52 -1330 1325 0
-52 -1330 1327 0
-52 1330 -1325 -1327 0
-53 -1330 1325 0
-53 -1330 1328 0
-53 1330 -1325 -1328 0
-54 -1330 1325 0
-54 -1330 1329 0
-54 1330 -1325 -1329 0
-55 -1330 1325 0
-55 1330 -1325 0
-56 -1330 1325 0
-56 1330 -1325 0
-57 -1330 1325 0
-57 1330 -1325 0
-58 -1330 1325 0
-58 1330 -1325 0
-59 -1330 1325 0
-59 1330 -1325 0
-60 -1330 1325 0
-60 1330 -1325 0
-96 -1330 1325 0
-96 1330 -1325 0
-51 -1326 1331 0
-51 -1325 1331 0
-51 -1331 1326 1325 0
-52 -1331 1326 0
-52 1331 -1326 0
-53 -1331 1326 0
-53 1331 -1326 0
-54 -1331 1326 0
-54 1331 -1326 0
-55 -1331 1326 0
-55 -1331 1327 0
-55 1331 -1326 -1327 0
-56 -1331 1326 0
-56 -1331 1328 0
-56 1331 -1326 -1328 0
-57 -1331 1326 0
-57 -1331 1329 0
-57 1331 -1326 -1329 0
-58 -1331 1326 0
-58 1331 -1326 0
-59 -1331 1326 0
-59 1331 -1326 0
-60 -1331 1326 0
-60 1331 -1326 0
-96 -1331 1326 0
-96 1331 -1326 0
-51 -1332 1327 0
-51 1332 -1327 0
-52 -1327 1332 0
-52 -1325 1332 0
-52 -1332 1327 1325 0
-53 -1332 1327 0
-53 1332 -1327 0
-54 -1332 1327 0
-54 1332 -1327 0
-55 -1327 1332 0
-55 -1326 1332 0
-55 -1332 1327 1326 0
-56 -1332 1327 0
-56 1332 -1327 0
-57 -1332 1327 0
-57 1332 -1327 0
-58 -1332 1327 0
-58 -1332 1328 0
-58 1332 -1327 -1328 0
-59 -1332 1327 0
-59 -1332 1329 0
-59 1332 -1327 -1329 0
-60 -1332 1327 0
-60 1332 -1327 0
-96 -1332 1327 0
-96 1332 -1327 0
-51 -1333 1328 0
-51 1333 -1328 0
-52 -1333 1328 0
-52 1333 -1328 0
-53 -1328 1333 0
-53 -1325 1333 0
-53 -1333 1328 1325 0
-54 -1333 1328 0
-54 1333 -1328 0
-55 -1333 1328 0
-55 1333 -1328 0
-56 -1328 1333 0
-56 -1326 1333 0
-56 -1333 1328 1326 0
-57 -1333 1328 0
-57 1333 -1328 0
-58 -1328 1333 0
-58 -1327 1333 0
-58 -1333 1328 1327 0
-59 -1333 1328 0
-59 1333 -1328 0
-60 -1333 1328 0
-60 -1333 1329 0
-60 1333 -1328 -1329 0
-96 -1333 1328 0
-96 1333 -1328 0
-51 -1334 1329 0
-51 1334 -1329 0
-52 -1334 1329 0
-52 1334 -1329 0
-53 -1334 1329 0
-53 1334 -1329 0
-54 -1329 1334 0
-54 -1325 1334 0
-54 -1334 1329 1325 0
-55 -1334 1329 0
-55 1334 -1329 0
-56 -1334 1329 0
-56 1334 -1329 0
-57 -1329 1334 0
-57 -1326 1334 0
-57 -1334 1329 1326 0
-58 -1334 1329 0
-58 1334 -1329 0
-59 -1329 1334 0
-59 -1327 1334 0
-59 -1334 1329 1327 0
-60 -1329 1334 0
-60 -1328 1334 0
-60 -1334 1329 1328 0
-96 -1334 1329 0
-96 1334 -1329 0
-61 -1335 1330 0
-61 -1335 1331 0
-61 1335 -1330 -1331 0
-62 -1335 1330 0
-62 -1335 1332 0
-62 1335 -1330 -1332 0
-63 -1335 1330 0
-63 -1335 1333 0
-63 1335 -1330 -1333 0
-64 -1335 1330 0
-64 -1335 1334 0
-64 1335 -1330 -1334 0
-65 -1335 1330 0
-65 1335 -1330 0
-66 -1335 1330 0
-66 1335 -1330 0
-67 -1335 1330 0
-67 1335 -1330 0
-68 -1335 1330 0
-68 1335 -1330 0
-69 -1335 1330 0
-69 1335 -1330 0
-70 -1335 1330 0
-70 1335 -1330 0
-97 -1335 1330 0
-97 1335 -1330 0
-61 -1331 1336 0
-61 -1330 1336 0
-61 -1336 1331 1330 0
-62 -1336 1331 0
-62 1336 -1331 0
-63 -1336 1331 0
-63 1336 -1331 0
-64 -1336 1331 0
-64 1336 -1331 0
-65 -1336 1331 0
-65 -1336 1332 0
-65 1336 -1331 -1332 0
-66 -1336 1331 0
-66 -1336 1333 0
-66 1336 -1331 -1333 0
-67 -1336 1331 0
-67 -1336 1334 0
-67 1336 -1331 -1334 0
-68 -1336 1331 0
-68 1336 -1331 0
-69 -1336 1331 0
-69 1336 -1331 0
-70 -1336 1331 0
-70 1336 -1331 0
-97 -1336 1331 0
-97 1336 -1331 0
-61 -1337 1332 0
-61 1337 -1332 0
-62 -1332 1337 0
-62 -1330 1337 0
-62 -1337 1332 1330 0
-63 -1337 1332 0
-63 1337 -1332 0
-64 -1337 1332 0
-64 1337 -1332 0
-65 -1332 1337 0
-65 -1331 1337 0
-65 -1337 1332 1331 0
-66 -1337 1332 0
-66 1337 -1332 0
-67 -1337 1332 0
-67 1337 -1332 0
-68 -1337 1332 0
-68 -1337 1333 0
-68 1337 -1332 -1333 0
-69 -1337 1332 0
-69 -1337 1334 0
-69 1337 -1332 -1334 0
-70 -1337 1332 0
-70 1337 -1332 0
-97 -1337 1332 0
-97 1337 -1332 0
-61 -1338 1333 0
-61 1338 -1333 0
-62 -1338 1333 0
-62 1338 -1333 0
-63 -1333 1338 0
-63 -1330 1338 0
-63 -1338 1333 1330 0
-64 -1338 1333 0
-64 1338 -1333 0
-65 -1338 1333 0
-65 1338 -1333 0
-66 -1333 1338 0
-66 -1331 1338 0
-66 -1338 1333 1331 0
-67 -1338 1333 0
-67 1338 -1333 0
-68 -1333 1338 0
-68 -1332 1338 0
-68 -1338 1333 1332 0
-69 -1338 1333 0
-69 1338 -1333 0
-70 -1338 1333 0
-70 -1338 1334 0
-70 1338 -1333 -1334 0
-97 -1338 1333 0
-97 1338 -1333 0
-61 -1339 1334 0
-61 1339 -1334 0
-62 -1339 1334 0
-62 1339 -1334 0
-63 -1339 1334 0
-63 1339 -1334 0
-64 -1334 1339 0
-64 -1330 1339 0
-64 -1339 1334 1330 0
-65 -1339 1334 0
-65 1339 -1334 0
-66 -1339 1334 0
-66 1339 -1334 0
-67 -1334 1339 0
-67 -1331 1339 0
-67 -1339 1334 1331 0
-68 -1339 1334 0
-68 1339 -1334 0
-69 -1334 1339 0
-69 -1332 1339 0
-69 -1339 1334 1332 0
-70 -1334 1339 0
-70 -1333 1339 0
-70 -1339 1334 1333 0
-97 -1339 1334 0
-97 1339 -1334 0
-71 -1340 1335 0
-71 -1340 1336 0
-71 1340 -1335 -1336 0
-72 -1340 1335 0
-72 -1340 1337 0
-72 1340 -1335 -1337 0
-73 -1340 1335 0
-73 -1340 1338 0
-73 1340 -1335 -1338 0
-74 -1340 1335 0
-74 -1340 1339 0
-74 1340 -1335 -1339 0
-75 -1340 1335 0
-75 1340 -1335 0
-76 -1340 1335 0
-76 1340 -1335 0
-77 -1340 1335 0
-77 1340 -1335 0
-78 -1340 1335 0
-78 1340 -1335 0
-79 -1340 1335 0
-79 1340 -1335 0
-80 -1340 1335 0
-80 1340 -1335 0
-98 -1340 1335 0
-98 1340 -1335 0
-71 -1336 1341 0
-71 -1335 1341 0
-71 -1341 1336 1335 0
-72 -1341 1336 0
-72 1341 -1336 0
-73 -1341 1336 0
-73 1341 -1336 0
-74 -1341 1336 0
-74 1341 -1336 0
-75 -1341 1336 0
-75 -1341 1337 0
-75 1341 -1336 -1337 0
-76 -1341 1336 0
-76 -1341 1338 0
-76 1341 -1336 -1338 0
-77 -1341 1336 0
-77 -1341 1339 0
-77 1341 -1336 -1339 0
-78 -1341 1336 0
-78 1341 -1336 0
-79 -1341 1336 0
-79 1341 -1336 0
-80 -1341 1336 0
-80 1341 -1336 0
-98 -1341 1336 0
-98 1341 -1336 0
-71 -1342 1337 0
-71 1342 -1337 0
-72 -1337 1342 0
-72 -1335 1342 0
-72 -1342 1337 1335 0
-73 -1342 1337 0
-73 1342 -1337 0
-74 -1342 1337 0
-74 1342 -1337 0
-75 -1337 1342 0
-75 -1336 1342 0
-75 -1342 1337 1336 0
-76 -1342 1337 0
-76 1342 -1337 0
-77 -1342 1337 0
-77 1342 -1337 0
-78 -1342 1337 0
-78 -1342 1338 0
-78 1342 -1337 -1338 0
-79 -1342 1337 0
-79 -1342 1339 0
-79 1342 -1337 -1339 0
-80 -1342 1337 0
-80 1342 -1337 0
-98 -1342 1337 0
-98 1342 -1337 0
-71 -1343 1338 0
-71 1343 -1338 0
-72 -1343 1338 0
-72 1343 -1338 0
-73 -1338 1343 0
-73 -1335 1343 0
-73 -1343 1338 1335 0
-74 -1343 1338 0
-74 1343 -1338 0
-75 -1343 1338 0
-75 1343 -1338 0
-76 -1338 1343 0
-76 -1336 1343 0
-76 -1343 1338 1336 0
-77 -1343 1338 0
-77 1343 -1338 0
-78 -1338 1343 0
-78 -1337 1343 0
-78 -1343 1338 1337 0
-79 -1343 1338 0
-79 1343 -1338 0
-80 -1343 1338 0
-80 -1343 1339 0
-80 1343 -1338 -1339 0
-98 -1343 1338 0
-98 1343 -1338 0
-71 -1344 1339 0
-71 1344 -1339 0
-72 -1344 1339 0
-72 1344 -1339 0
-73 -1344 1339 0
-73 1344 -1339 0
-74 -1339 1344 0
-74 -1335 1344 0
-74 -1344 1339 1335 0
-75 -1344 1339 0
-75 1344 -1339 0
-76 -1344 1339 0
-76 1344 -1339 0
-77 -1339 1344 0
-77 -1336 1344 0
-77 -1344 1339 1336 0
-78 -1344 1339 0
-78 1344 -1339 0
-79 -1339 1344 0
-79 -1337 1344 0
-79 -1344 1339 1337 0
-80 -1339 1344 0
-80 -1338 1344 0
-80 -1344 1339 1338 0
-98 -1344 1339 0
-98 1344 -1339 0
-81 -1345 1340 0
-81 -1345 1341 0
-81 1345 -1340 -1341 0
-82 -1345 1340 0
-82 -1345 1342 0
-82 1345 -1340 -1342 0
-83 -1345 1340 0
-83 -1345 1343 0
-83 1345 -1340 -1343 0
-84 -1345 1340 0
-84 -1345 1344 0
-84 1345 -1340 -1344 0
-85 -1345 1340 0
-85 1345 -1340 0
-86 -1345 1340 0
-86 1345 -1340 0
-87 -1345 1340 0
-87 1345 -1340 0
-88 -1345 1340 0
-88 1345 -1340 0
-89 -1345 1340 0
-89 1345 -1340 0
-90 -1345 1340 0
-90 1345 -1340 0
-99 -1345 1340 0
-99 1345 -1340 0
-81 -1341 1346 0
-81 -1340 1346 0
-81 -1346 1341 1340 0
-82 -1346 1341 0
-82 1346 -1341 0
-83 -1346 1341 0
-83 1346 -1341 0
-84 -1346 1341 0
-84 1346 -1341 0
-85 -1346 1341 0
-85 -1346 1342 0
-85 1346 -1341 -1342 0
-86 -1346 1341 0
-86 -1346 1343 0
-86 1346 -1341 -1343 0
-87 -1346 1341 0
-87 -1346 1344 0
-87 1346 -1341 -1344 0
-88 -1346 1341 0
-88 1346 -1341 0
-89 -1346 1341 0
-89 1346 -1341 0
-90 -1346 1341 0
-90 1346 -1341 0
-99 -1346 1341 0
-99 1346 -1341 0
-81 -1347 1342 0
-81 1347 -1342 0
-82 -1342 1347 0
-82 -1340 1347 0
-82 -1347 1342 1340 0
-83 -1347 1342 0
-83 1347 -1342 0
-84 -1347 1342 0
-84 1347 -1342 0
-85 -1342 1347 0
-85 -1341 1347 0
-85 -1347 1342 1341 0
-86 -1347 1342 0
-86 1347 -1342 0
-87 -1347 1342 0
-87 1347 -1342 0
-88 -1347 1342 0
-88 -1347 1343 0
-88 1347 -1342 -1343 0
-89 -1347 1342 0
-89 -1347 1344 0
-89 1347 -1342 -1344 0
-90 -1347 1342 0
-90 1347 -1342 0
-99 -1347 1342 0
-99 1347 -1342 0
-81 -1348 1343 0
-81 1348 -1343 0
-82 -1348 1343 0
-82 1348 -1343 0
-83 -1343 1348 0
-83 -1340 1348 0
-83 -1348 1343 1340 0
-84 -1348 1343 0
-84 1348 -1343 0
-85 -1348 1343 0
-85 1348 -1343 0
-86 -1343 1348 0
-86 -1341 1348 0
-86 -1348 1343 1341 0
-87 -1348 1343 0
-87 1348 -1343 0
-88 -1343 1348 0
-88 -1342 1348 0
-88 -1348 1343 1342 0
-89 -1348 1343 0
-89 1348 -1343 0
-90 -1348 1343 0
-90 -1348 1344 0
-90 1348 -1343 -1344 0
-99 -1348 1343 0
-99 1348 -1343 0
-81 -1349 1344 0
-81 1349 -1344 0
-82 -1349 1344 0
-82 1349 -1344 0
-83 -1349 1344 0
-83 1349 -1344 0
-84 -1344 1349 0
-84 -1340 1349 0
-84 -1349 1344 1340 0
-85 -1349 1344 0
-85 1349 -1344 0
-86 -1349 1344 0
-86 1349 -1344 0
-87 -1344 1349 0
-87 -1341 1349 0
-87 -1349 1344 1341 0
-88 -1349 1344 0
-88 1349 -1344 0
-89 -1344 1349 0
-89 -1342 1349 0
-89 -1349 1344 1342 0
-90 -1344 1349 0
-90 -1343 1349 0
-90 -1349 1344 1343 0
-99 -1349 1344 0
-99 1349 -1344 0
1350 0
-1 -1355 1350 0
-1 -1355 1351 0
-1 1355 -1350 -1351 0
-2 -1355 1350 0
-2 -1355 1352 0
-2 1355 -1350 -1352 0
-3 -1355 1350 0
-3 -1355 1353 0
-3 1355 -1350 -1353 0
-4 -1355 1350 0
-4 -1355 1354 0
-4 1355 -1350 -1354 0
-5 -1355 1350 0
-5 1355 -1350 0
-6 -1355 1350 0
-6 1355 -1350 0
-7 -1355 1350 0
-7 1355 -1350 0
-8 -1355 1350 0
-8 1355 -1350 0
-9 -1355 1350 0
-9 1355 -1350 0
-10 -1355 1350 0
-10 1355 -1350 0
-91 -1355 1350 0
-91 1355 -1350 0
1351 0
-1 -1351 1356 0
-1 -1350 1356 0
-1 -1356 1351 1350 0
-2 -1356 1351 0
-2 1356 -1351 0
-3 -1356 1351 0
-3 1356 -1351 0
-4 -1356 1351 0
-4 1356 -1351 0
-5 -1356 1351 0
-5 -1356 1352 0
-5 1356 -1351 -1352 0
-6 -1356 1351 0
-6 -1356 1353 0
-6 1356 -1351 -1353 0
-7 -1356 1351 0
-7 -1356 1354 0
-7 1356 -1351 -1354 0
-8 -1356 1351 0
-8 1356 -1351 0
-9 -1356 1351 0
-9 1356 -1351 0
-10 -1356 1351 0
-10 1356 -1351 0
-91 -1356 1351 0
-91 1356 -1351 0
1352 0
-1 -1357 1352 0
-1 1357 -1352 0
-2 -1352 1357 0
-2 -1350 1357 0
-2 -1357 1352 1350 0
-3 -1357 1352 0
-3 1357 -1352 0
-4 -1357 1352 0
-4 1357 -1352 0
-5 -1352 1357 0
-5 -1351 1357 0
-5 -1357 1352 1351 0
-6 -1357 1352 0
-6 1357 -1352 0
-7 -1357 1352 0
-7 1357 -1352 0
-8 -1357 1352 0
-8 -1357 1353 0
-8 1357 -1352 -1353 0
-9 -1357 1352 0
-9 -1357 1354 0
-9 1357 -1352 -1354 0
-10 -1357 1352 0
-10 1357 -1352 0
-91 -1357 1352 0
-91 1357 -1352 0
1353 0
-1 -1358 1353 0
-1 1358 -1353 0
-2 -1358 1353 0
-2 1358 -1353 0
-3 -1353 1358 0
-3 -1350 1358 0
-3 -1358 1353 1350 0
-4 -1358 1353 0
-4 1358 -1353 0
-5 -1358 1353 0
-5 1358 -1353 0
-6 -1353 1358 0
-6 -1351 1358 0
-6 -1358 1353 1351 0
-7 -1358 1353 0
-7 1358 -1353 0
-8 -1353 1358 0
-8 -1352 1358 0
-8 -1358 1353 1352 0
-9 -1358 1353 0
-9 1358 -1353 0
-10 -1358 1353 0
-10 -1358 1354 0
-10 1358 -1353 -1354 0
-91 -1358 1353 0
-91 1358 -1353 0
-1354 0
-1 -1359 1354 0
-1 1359 -1354 0
-2 -1359 1354 0
-2 1359 -1354 0
-3 -1359 1354 0
-3 1359 -1354 0
-4 -1354 1359 0
-4 -1350 1359 0
-4 -1359 1354 1350 0
-5 -1359 1354 0
-5 1359 -1354 0
-6 -1359 1354 0
-6 1359 -1354 0
-7 -1354 1359 0
-7 -1351 1359 0
-7 -1359 1354 1351 0
-8 -1359 1354 0
-8 1359 -1354 0
-9 -1354 1359 0
-9 -1352 1359 0
-9 -1359 1354 1352 0
-10 -1354 1359 0
-10 -1353 1359 0
-10 -1359 1354 1353 0
-91 -1359 1354 0
-91 1359 -1354 0
-11 -1360 1355 0
-11 -1360 1356 0
-11 1360 -1355 -1356 0
-12 -1360 1355 0
-12 -1360 1357 0
-12 1360 -1355 -1357 0
-13 -1360 1355 0
-13 -1360 1358 0
-13 1360 -1355 -1358 0
-14 -1360 1355 0
-14 -1360 1359 0
-14 1360 -1355 -1359 0
-15 -1360 1355 0
-15 1360 -1355 0
-16 -1360 1355 0
-16 1360 -1355 0
-17 -1360 1355 0
-17 1360 -1355 0
-18 -1360 1355 0
-18 1360 -1355 0
-19 -1360 1355 0
-19 1360 -1355 0
-20 -1360 1355 0
-20 1360 -1355 0
-92 -1360 1355 0
-92 1360 -1355 0
-11 -1356 1361 0
-11 -1355 1361 0
-11 -1361 1356 1355 0
-12 -1361 1356 0
-12 1361 -1356 0
-13 -1361 1356 0
-13 1361 -1356 0
-14 -1361 1356 0
-14 1361 -1356 0
-15 -1361 1356 0
-15 -1361 1357 0
-15 1361 -1356 -1357 0
-16 -1361 1356 0
-16 -1361 1358 0
-16 1361 -1356 -1358 0
-17 -1361 1356 0
-17 -1361 1359 0
-17 1361 -1356 -1359 0
-18 -1361 1356 0
-18 1361 -1356 0
-19 -1361 1356 0
-19 1361 -1356 0
-20 -1361 1356 0
-20 1361 -1356 0
-92 -1361 1356 0
-92 1361 -1356 0
-11 -1362 1357 0
-11 1362 -1357 0
-12 -1357 1362 0
-12 -1355 1362 0
-12 -1362 1357 1355 0
-13 -1362 1357 0
-13 1362 -1357 0
-14 -1362 1357 0
-14 1362 -1357 0
-15 -1357 1362 0
-15 -1356 1362 0
-15 -1362 1357 1356 0
-16 -1362 1357 0
-16 1362 -1357 0
-17 -1362 1357 0
-17 1362 -1357 0
-18 -1362 1357 0
-18 -1362 1358 0
-18 1362 -1357 -1358 0
-19 -1362 1357 0
-19 -1362 1359 0
-19 1362 -1357 -1359 0
-20 -1362 1357 0
-20 1362 -1357 0
-92 -1362 1357 0
-92 1362 -1357 0
-11 -1363 1358 0
-11 1363 -1358 0
-12 -1363 1358 0
-12 1363 -1358 0
-13 -1358 1363 0
-13 -1355 1363 0
-13 -1363 1358 1355 0
-14 -1363 1358 0
-14 1363 -1358 0
-15 -1363 1358 0
-15 1363 -1358 0
-16 -1358 1363 0
-16 -1356 1363 0
-16 -1363 1358 1356 0
-17 -1363 1358 0
-17 1363 -1358 0
-18 -1358 1363 0
-18 -1357 1363 0
-18 -1363 1358 1357 0
-19 -1363 1358 0
-19 1363 -1358 0
-20 -1363 1358 0
-20 -1363 1359 0
-20 1363 -1358 -1359 0
-92 -1363 1358 0
-92 1363 -1358 0
-11 -1364 1359 0
-11 1364 -1359 0
-12 -1364 1359 0
-12 1364 -1359 0
-13 -1364 1359 0
-13 1364 -1359 0
-14 -1359 1364 0
-14 -1355 1364 0
-14 -1364 1359 1355 0
-15 -1364 1359 0
-15 1364 -1359 0
-16 -1364 1359 0
-16 1364 -1359 0
-17 -1359 1364 0
-17 -1356 1364 0
-17 -1364 1359 1356 0
-18 -1364 1359 0
-18 1364 -1359 0
-19 -1359 1364 0
-19 -1357 1364 0
-19 -1364 1359 1357 0
-20 -1359 1364 0
-20 -1358 1364 0
-20 -1364 1359 1358 0
-92 -1364 1359 0
-92 1364 -1359 0
-21 -1365 1360 0
-21 -1365 1361 0
-21 1365 -1360 -1361 0
-22 -1365 1360 0
-22 -1365 1362 0
-22 1365 -1360 -1362 0
-23 -1365 1360 0
-23 -1365 1363 0
-23 1365 -1360 -1363 0
-24 -1365 1360 0
-24 -1365 1364 0
-24 1365 -1360 -1364 0
-25 -1365 1360 0
-25 1365 -1360 0
-26 -1365 1360 0
-26 1365 -1360 0
-27 -1365 1360 0
-27 1365 -1360 0
-28 -1365 1360 0
-28 1365 -1360 0
-29 -1365 1360 0
-29 1365 -1360 0
-30 -1365 1360 0
-30 1365 -1360 0
-93 -1365 1360 0
-93 1365 -1360 0
-21 -1361 1366 0
-21 -1360 1366 0
-21 -1366 1361 1360 0
-22 -1366 1361 0
-22 1366 -1361 0
-23 -1366 1361 0
-23 1366 -1361 0
-24 -1366 1361 0
-24 1366 -1361 0
-25 -1366 1361 0
-25 -1366 1362 0
-25 1366 -1361 -1362 0
-26 -1366 1361 0
-26 -1366 1363 0
-26 1366 -1361 -1363 0
-27 -1366 1361 0
-27 -1366 1364 0
-27 1366 -1361 -1364 0
-28 -1366 1361 0
-28 1366 -1361 0
-29 -1366 1361 0
-29 1366 -1361 0
-30 -1366 1361 0
-30 1366 -1361 0
-93 -1366 1361 0
-93 1366 -1361 0
-21 -1367 1362 0
-21 1367 -1362 0
-22 -1362 1367 0
-22 -1360 1367 0
-22 -1367 1362 1360 0
-23 -1367 1362 0
-23 1367 -1362 0
-24 -1367 1362 0
-24 1367 -1362 0
-25 -1362 1367 0
-25 -1361 1367 0
-25 -1367 1362 1361 0
-26 -1367 1362 0
-26 1367 -1362 0
-27 -1367 1362 0
-27 1367 -1362 0
-28 -1367 1362 0
-28 -1367 1363 0
-28 1367 -1362 -1363 0
-29 -1367 1362 0
-29 -1367 1364 0
-29 1367 -1362 -1364 0
-30 -1367 1362 0
-30 1367 -1362 0
-93 -1367 1362 0
-93 1367 -1362 0
-21 -1368 1363 0
-21 1368 -1363 0
-22 -1368 1363 0
-22 1368 -1363 0
-23 -1363 1368 0
-23 -1360 1368 0
-23 -1368 1363 1360 0
-24 -1368 1363 0
-24 1368 -1363 0
-25 -1368 1363 0
-25 1368 -1363 0
-26 -1363 1368 0
-26 -1361 1368 0
-26 -1368 1363 1361 0
-27 -1368 1363 0
-27 1368 -1363 0
-28 -1363 1368 0
-28 -1362 1368 0
-28 -1368 1363 1362 0
-29 -1368 1363 0
-29 1368 -1363 0
-30 -1368 1363 0
-30 -1368 1364 0
-30 1368 -1363 -1364 0
-93 -1368 1363 0
-93 1368 -1363 0
-21 -1369 1364 0
-21 1369 -1364 0
-22 -1369 1364 0
-22 1369 -1364 0
-23 -1369 1364 0
-23 1369 -1364 0
-24 -1364 1369 0
-24 -1360 1369 0
-24 -1369 1364 1360 0
-25 -1369 1364 0
-25 1369 -1364 0
-26 -1369 1364 0
-26 1369 -1364 0
-27 -1364 1369 0
-27 -1361 1369 0
-27 -1369 1364 1361 0
-28 -1369 1364 0
-28 1369 -1364 0
-29 -1364 1369 0
-29 -1362 1369 0
-29 -1369 1364 1362 0
-30 -1364 1369 0
-30 -1363 1369 0
-30 -1369 1364 1363 0
-93 -1369 1364 0
-93 1369 -1364 0
-31 -1370 1365 0
-31 -1370 1366 0
-31 1370 -1365 -1366 0
-32 -1370 1365 0
-32 -1370 1367 0
-32 1370 -1365 -1367 0
-33 -1370 1365 0
-33 -1370 1368 0
-33 1370 -1365 -1368 0
-34 -1370 1365 0
-34 -1370 1369 0
-34 1370 -1365 -1369 0
-35 -1370 1365 0
-35 1370 -1365 0
-36 -1370 1365 0
-36 1370 -1365 0
-37 -1370 1365 0
-37 1370 -1365 0
-38 -1370 1365 0
-38 1370 -1365 0
-39 -1370 1365 0
-39 1370 -1365 0
-40 -1370 1365 0
-40 1370 -1365 0
-94 -1370 1365 0
-94 1370 -1365 0
-31 -1366 1371 0
-31 -1365 1371 0
-31 -1371 1366 1365 0
-32 -1371 1366 0
-32 1371 -1366 0
-33 -1371 1366 0
-33 1371 -1366 0
-34 -1371 1366 0
-34 1371 -1366 0
-35 -1371 1366 0
-35 -1371 1367 0
-35 1371 -1366 -1367 0
-36 -1371 1366 0
-36 -1371 1368 0
-36 1371 -1366 -1368 0
-37 -1371 1366 0
-37 -1371 1369 0
-37 1371 -1366 -1369 0
-38 -1371 1366 0
-38 1371 -1366 0
-39 -1371 1366 0
-39 1371 -1366 0
-40 -1371 1366 0
-40 1371 -1366 0
-94 -1371 1366 0
-94 1371 -1366 0
-31 -1372 1367 0
-31 1372 -1367 0
-32 -1367 1372 0
-32 -1365 1372 0
-32 -1372 1367 1365 0
-33 -1372 1367 0
-33 1372 -1367 0
-34 -1372 1367 0
-34 1372 -1367 0
-35 -1367 1372 0
-35 -1366 1372 0
-35 -1372 1367 1366 0
-36 -1372 1367 0
-36 1372 -1367 0
-37 -1372 1367 0
-37 1372 -1367 0
-38 -1372 1367 0
-38 -1372 1368 0
-38 1372 -1367 -1368 0
-39 -1372 1367 0
-39 -1372 1369 0
-39 1372 -1367 -1369 0
-40 -1372 1367 0
-40 1372 -1367 0
-94 -1372 1367 0
-94 1372 -1367 0
-31 -1373 1368 0
-31 1373 -1368 0
-32 -1373 1368 0
-32 1373 -1368 0
-33 -1368 1373 0
-33 -1365 1373 0
-33 -1373 1368 1365 0
-34 -1373 1368 0
-34 1373 -1368 0
-35 -1373 1368 0
-35 1373 -1368 0
-36 -1368 1373 0
-36 -1366 1373 0
-36 -1373 1368 1366 0
-37 -1373 1368 0
-37 1373 -1368 0
-38 -1368 1373 0
-38 -1367 1373 0
-38 -1373 1368 1367 0
-39 -1373 1368 0
-39 1373 -1368 0
-40 -1373 1368 0
-40 -1373 1369 0
-40 1373 -1368 -1369 0
-94 -1373 1368 0
-94 1373 -1368 0
-31 -1374 1369 0
-31 1374 -1369 0
-32 -1374 1369 0
-32 1374 -1369 0
-33 -1374 1369 0
-33 1374 -1369 0
-34 -1369 1374 0
-34 -1365 1374 0
-34 -1374 1369 1365 0
-35 -1374 1369 0
-35 1374 -1369 0
-36 -1374 1369 0
-36 1374 -1369 0
-37 -1369 1374 0
-37 -1366 1374 0
-37 -1374 1369 1366 0
-38 -1374 1369 0
-38 1374 -1369 0
-39 -1369 1374 0
-39 -1367 1374 0
-39 -1374 1369 1367 0
-40 -1369 1374 0
-40 -1368 1374 0
-40 -1374 1369 1368 0
-94 -1374 1369 0
-94 1374 -1369 0
-41 -1375 1370 0
-41 -1375 1371 0
-41 1375 -1370 -1371 0
-42 -1375 1370 0
-42 -1375 1372 0
-42 1375 -1370 -1372 0
-43 -1375 1370 0
-43 -1375 1373 0
-43 1375 -1370 -1373 0
-44 -1375 1370 0
-44 -1375 1374 0
-44 1375 -1370 -1374 0
-45 -1375 1370 0
-45 1375 -1370 0
-46 -1375 1370 0
-46 1375 -1370 0
-47 -1375 1370 0
-47 1375 -1370 0
-48 -1375 1370 0
-48 1375 -1370 0
-49 -1375 1370 0
-49 1375 -1370 0
-50 -1375 1370 0
-50 1375 -1370 0
-95 -1375 1370 0
-95 1375 -1370 0
-41 -1371 1376 0
-41 -1370 1376 0
-41 -1376 1371 1370 0
-42 -1376 1371 0
-42 1376 -1371 0
-43 -1376 1371 0
-43 1376 -1371 0
-44 -1376 1371 0
-44 1376 -1371 0
-45 -1376 1371 0
-45 -1376 1372 0
-45 1376 -1371 -1372 0
-46 -1376 1371 0
-46 -1376 1373 0
-46 1376 -1371 -1373 0
-47 -1376 1371 0
-47 -1376 1374 0
-47 1376 -1371 -1374 0
-48 -1376 1371 0
-48 1376 -1371 0
-49 -1376 1371 0
-49 1376 -1371 0
-50 -1376 1371 0
-50 1376 -1371 0
-95 -1376 1371 0
-95 1376 -1371 0
-41 -1377 1372 0
-41 1377 -1372 0
-42 -1372 1377 0
-42 -1370 1377 0
-42 -1377 1372 1370 0
-43 -1377 1372 0
-43 1377 -1372 0
-44 -1377 1372 0
-44 1377 -1372 0
-45 -1372 1377 0
-45 -1371 1377 0
-45 -1377 1372 1371 0
-46 -1377 1372 0
-46 1377 -1372 0
-47 -1377 1372 0
-47 1377 -1372 0
-48 -1377 1372 0
-48 -1377 1373 0
-48 1377 -1372 -1373 0
-49 -1377 1372 0
-49 -1377 1374 0
-49 1377 -1372 -1374 0
-50 -1377 1372 0
-50 1377 -1372 0
-95 -1377 1372 0
-95 1377 -1372 0
-41 -1378 1373 0
-41 1378 -1373 0
-42 -1378 1373 0
-42 1378 -1373 0
-43 -1373 1378 0
-43 -1370 1378 0
-43 -1378 1373 1370 0
-44 -1378 1373 0
-44 1378 -1373 0
-45 -1378 1373 0
-45 1378 -1373 0
-46 -1373 1378 0
-46 -1371 1378 0
-46 -1378 1373 1371 0
-47 -1378 1373 0
-47 1378 -1373 0
-48 -1373 1378 0
-48 -1372 1378 0
-48 -1378 1373 1372 0
-49 -1378 1373 0
-49 1378 -1373 0
-50 -1378 1373 0
-50 -1378 1374 0
-50 1378 -1373 -1374 0
-95 -1378 1373 0
-95 1378 -1373 0
-41 -1379 1374 0
-41 1379 -1374 0
-42 -1379 1374 0
-42 1379 -1374 0
-43 -1379 1374 0
-43 1379 -1374 0
-44 -1374 1379 0
-44 -1370 1379 0
-44 -1379 1374 1370 0
-45 -1379 1374 0
-45 1379 -1374 0
-46 -1379 1374 0
-46 1379 -1374 0
-47 -1374 1379 0
-47 -1371 1379 0
-47 -1379 1374 1371 0
-48 -1379 1374 0
-48 1379 -1374 0
-49 -1374 1379 0
-49 -1372 1379 0
-49 -1379 1374 1372 0
-50 -1374 1379 0
-50 -1373 1379 0
-50 -1379 1374 1373 0
-95 -1379 1374 0
-95 1379 -1374 0
-51 -1380 1375 0
-51 -1380 1376 0
-51 1380 -1375 -1376 0
-52 -1380 1375 0
-52 -1380 1377 0
-52 1380 -1375 -1377 0
-53 -1380 1375 0
-53 -1380 1378 0
-53 1380 -1375 -1378 0
-54 -1380 1375 0
-54 -1380 1379 0
-54 1380 -1375 -1379 0
-55 -1380 1375 0
-55 1380 -1375 0
-56 -1380 1375 0
-56 1380 -1375 0
-57 -1380 1375 0
-57 1380 -1375 0
-58 -1380 1375 0
-58 1380 -1375 0
-59 -1380 1375 0
-59 1380 -1375 0
-60 -1380 1375 0
-60 1380 -1375 0
-96 -1380 1375 0
-96 1380 -1375 0
-51 -1376 1381 0
-51 -1375 1381 0
-51 -1381 1376 1375 0
-52 -1381 1376 0
-52 1381 -1376 0
-53 -1381 1376 0
-53 1381 -1376 0
-54 -1381 1376 0
-54 1381 -1376 0
-55 -1381 1376 0
-55 -1381 1377 0
-55 1381 -1376 -1377 0
-56 -1381 1376 0
-56 -1381 1378 0
-56 1381 -1376 -1378 0
-57 -1381 1376 0
-57 -1381 1379 0
-57 1381 -1376 -1379 0
-58 -1381 1376 0
-58 1381 -1376 0
-59 -1381 1376 0
-59 1381 -1376 0
-60 -1381 1376 0
-60 1381 -1376 0
-96 -1381 1376 0
-96 1381 -1376 0
-51 -1382 1377 0
-51 1382 -1377 0
-52 -1377 1382 0
-52 -1375 1382 0
-52 -1382 1377 1375 0
-53 -1382 1377 0
-53 1382 -1377 0
-54 -1382 1377 0
-54 1382 -1377 0
-55 -1377 1382 0
-55 -1376 1382 0
-55 -1382 1377 1376 0
-56 -1382 1377 0
-56 1382 -1377 0
-57 -1382 1377 0
-57 1382 -1377 0
-58 -1382 1377 0
-58 -1382 1378 0
-58 1382 -1377 -1378 0
-59 -1382 1377 0
-59 -1382 1379 0
-59 1382 -1377 -1379 0
-60 -1382 1377 0
-60 1382 -1377 0
-96 -1382 1377 0
-96 1382 -1377 0
-51 -1383 1378 0
-51 1383 -1378 0
-52 -1383 1378 0
-52 1383 -1378 0
-53 -1378 1383 0
-53 -1375 1383 0
-53 -1383 1378 1375 0
-54 -1383 1378 0
-54 1383 -1378 0
-55 -1383 1378 0
-55 1383 -1378 0
-56 -1378 1383 0
-56 -1376 1383 0
-56 -1383 1378 1376 0
-57 -1383 1378 0
-57 1383 -1378 0
-58 -1378 1383 0
-58 -1377 1383 0
-58 -1383 1378 1377 0
-59 -1383 1378 0
-59 1383 -1378 0
-60 -1383 1378 0
-60 -1383 1379 0
-60 1383 -1378 -1379 0
-96 -1383 1378 0
-96 1383 -1378 0
-51 -1384 1379 0
-51 1384 -1379 0
-52 -1384 1379 0
-52 1384 -1379 0
-53 -1384 1379 0
-53 1384 -1379 0
-54 -1379 1384 0
-54 -1375 1384 0
-54 -1384 1379 1375 0
-55 -1384 1379 0
-55 1384 -1379 0
-56 -1384 1379 0
-56 1384 -1379 0
-57 -1379 1384 0
-57 -1376 1384 0
-57 -1384 1379 1376 0
-58 -1384 1379 0
-58 1384 -1379 0
-59 -1379 1384 0
-59 -1377 1384 0
-59 -1384 1379 1377 0
-60 -1379 1384 0
-60 -1378 1384 0
-60 -1384 1379 1378 0
-96 -1384 1379 0
-96 1384 -1379 0
-61 -1385 1380 0
-61 -1385 1381 0
-61 1385 -1380 -1381 0
-62 -1385 1380 0
-62 -1385 1382 0
-62 1385 -1380 -1382 0
-63 -1385 1380 0
-63 -1385 1383 0
-63 1385 -1380 -1383 0
-64 -1385 1380 0
-64 -1385 1384 0
-64 1385 -1380 -1384 0
-65 -1385 1380 0
-65 1385 -1380 0
-66 -1385 1380 0
-66 1385 -1380 0
-67 -1385 1380 0
-67 1385 -1380 0
-68 -1385 1380 0
-68 1385 -1380 0
-69 -1385 1380 0
-69 1385 -1380 0
-70 -1385 1380 0
-70 1385 -1380 0
-97 -1385 1380 0
-97 1385 -1380 0
-61 -1381 1386 0
-61 -1380 1386 0
-61 -1386 1381 1380 0
-62 -1386 1381 0
-62 1386 -1381 0
-63 -1386 1381 0
-63 1386 -1381 0
-64 -1386 1381 0
-64 1386 -1381 0
-65 -1386 1381 0
-65 -1386 1382 0
-65 1386 -1381 -1382 0
-66 -1386 1381 0
-66 -1386 1383 0
-66 1386 -1381 -1383 0
-67 -1386 1381 0
-67 -1386 1384 0
-67 1386 -1381 -1384 0
-68 -1386 1381 0
-68 1386 -1381 0
-69 -1386 1381 0
-69 1386 -1381 0
-70 -1386 1381 0
-70 1386 -1381 0
-97 -1386 1381 0
-97 1386 -1381 0
-61 -1387 1382 0
-61 1387 -1382 0
-62 -1382 1387 0
-62 -1380 1387 0
-62 -1387 1382 1380 0
-63 -1387 1382 0
-63 1387 -1382 0
-64 -1387 1382 0
-64 1387 -1382 0
-65 -1382 1387 0
-65 -1381 1387 0
-65 -1387 1382 1381 0
-66 -1387 1382 0
-66 1387 -1382 0
-67 -1387 1382 0
-67 1387 -1382 0
-68 -1387 1382 0
-68 -1387 1383 0
-68 1387 -1382 -1383 0
-69 -1387 1382 0
-69 -1387 1384 0
-69 1387 -1382 -1384 0
-70 -1387 1382 0
-70 1387 -1382 0
-97 -1387 1382 0
-97 1387 -1382 0
-61 -1388 1383 0
-61 1388 -1383 0
-62 -1388 1383 0
-62 1388 -1383 0
-63 -1383 1388 0
-63 -1380 1388 0
-63 -1388 1383 1380 0
-64 -1388 1383 0
-64 1388 -1383 0
-65 -1388 1383 0
-65 1388 -1383 0
-66 -1383 1388 0
-66 -1381 1388 0
-66 -1388 1383 1381 0
-67 -1388 1383 0
-67 1388 -1383 0
-68 -1383 1388 0
-68 -1382 1388 0
-68 -1388 1383 1382 0
-69 -1388 1383 0
-69 1388 -1383 0
-70 -1388 1383 0
-70 -1388 1384 0
-70 1388 -1383 -1384 0
-97 -1388 1383 0
-97 1388 -1383 0
-61 -1389 1384 0
-61 1389 -1384 0
-62 -1389 1384 0
-62 1389 -1384 0
-63 -1389 1384 0
-63 1389 -1384 0
-64 -1384 1389 0
-64 -1380 1389 0
-64 -1389 1384 1380 0
-65 -1389 1384 0
-65 1389 -1384 0
-66 -1389 1384 0
-66 1389 -1384 0
-67 -1384 1389 0
-67 -1381 1389 0
-67 -1389 1384 1381 0
-68 -1389 1384 0
-68 1389 -1384 0
-69 -1384 1389 0
-69 -1382 1389 0
-69 -1389 1384 1382 0
-70 -1384 1389 0
-70 -1383 1389 0
-70 -1389 1384 1383 0
-97 -1389 1384 0
-97 1389 -1384 0
-71 -1390 1385 0
-71 -1390 1386 0
-71 1390 -1385 -1386 0
-72 -1390 1385 0
-72 -1390 1387 0
-72 1390 -1385 -1387 0
-73 -1390 1385 0
-73 -1390 1388 0
-73 1390 -1385 -1388 0
-74 -1390 1385 0
-74 -1390 1389 0
-74 1390 -1385 -1389 0
-75 -1390 1385 0
-75 1390 -1385 0
-76 -1390 1385 0
-76 1390 -1385 0
-77 -1390 1385 0
-77 1390 -1385 0
-78 -1390 1385 0
-78 1390 -1385 0
-79 -1390 1385 0
-79 1390 -1385 0
-80 -1390 1385 0
-80 1390 -1385 0
-98 -1390 1385 0
-98 1390 -1385 0
-71 -1386 1391 0
-71 -1385 1391 0
-71 -1391 1386 1385 0
-72 -1391 1386 0
-72 1391 -1386 0
-73 -1391 1386 0
-73 1391 -1386 0
-74 -1391 1386 0
-74 1391 -1386 0
-75 -1391 1386 0
-75 -1391 1387 0
-75 1391 -1386 -1387 0
-76 -1391 1386 0
-76 -1391 1388 0
-76 1391 -1386 -1388 0
-77 -1391 1386 0
-77 -1391 1389 0
-77 1391 -1386 -1389 0
-78 -1391 1386 0
-78 1391 -1386 0
-79 -1391 1386 0
-79 1391 -1386 0
-80 -1391 1386 0
-80 1391 -1386 0
-98 -1391 1386 0
-98 1391 -1386 0
-71 -1392 1387 0
-71 1392 -1387 0
-72 -1387 1392 0
-72 -1385 1392 0
-72 -1392 1387 1385 0
-73 -1392 1387 0
-73 1392 -1387 0
-74 -1392 1387 0
-74 1392 -1387 0
-75 -1387 1392 0
-75 -1386 1392 0
-75 -1392 1387 1386 0
-76 -1392 1387 0
-76 1392 -1387 0
-77 -1392 1387 0
-77 1392 -1387 0
-78 -1392 1387 0
-78 -1392 1388 0
-78 1392 -1387 -1388 0
-79 -1392 1387 0
-79 -1392 1389 0
-79 1392 -1387 -1389 0
-80 -1392 1387 0
-80 1392 -1387 0
-98 -1392 1387 0
-98 1392 -1387 0
-71 -1393 1388 0
-71 1393 -1388 0
-72 -1393 1388 0
-72 1393 -1388 0
-73 -1388 1393 0
-73 -1385 1393 0
-73 -1393 1388 1385 0
-74 -1393 1388 0
-74 1393 -1388 0
-75 -1393 1388 0
-75 1393 -1388 0
-76 -1388 1393 0
-76 -1386 1393 0
-76 -1393 1388 1386 0
-77 -1393 1388 0
-77 1393 -1388 0
-78 -1388 1393 0
-78 -1387 1393 0
-78 -1393 1388 1387 0
-79 -1393 1388 0
-79 1393 -1388 0
-80 -1393 1388 0
-80 -1393 1389 0
-80 1393 -1388 -1389 0
-98 -1393 1388 0
-98 1393 -1388 0
-71 -1394 1389 0
-71 1394 -1389 0
-72 -1394 1389 0
-72 1394 -1389 0
-73 -1394 1389 0
-73 1394 -1389 0
-74 -1389 1394 0
-74 -1385 1394 0
-74 -1394 1389 1385 0
-75 -1394 1389 0
-75 1394 -1389 0
-76 -1394 1389 0
-76 1394 -1389 0
-77 -1389 1394 0
-77 -1386 1394 0
-77 -1394 1389 1386 0
-78 -1394 1389 0
-78 1394 -1389 0
-79 -1389 1394 0
-79 -1387 1394 0
-79 -1394 1389 1387 0
-80 -1389 1394 0
-80 -1388 1394 0
-80 -1394 1389 1388 0
-98 -1394 1389 0
-98 1394 -1389 0
-81 -1395 1390 0
-81 -1395 1391 0
-81 1395 -1390 -1391 0
-82 -1395 1390 0
-82 -1395 1392 0
-82 1395 -1390 -1392 0
-83 -1395 1390 0
-83 -1395 1393 0
-83 1395 -1390 -1393 0
-84 -1395 1390 0
-84 -1395 1394 0
-84 1395 -1390 -1394 0
-85 -1395 1390 0
-85 1395 -1390 0
-86 -1395 1390 0
-86 1395 -1390 0
-87 -1395 1390 0
-87 1395 -1390 0
-88 -1395 1390 0
-88 1395 -1390 0
-89 -1395 1390 0
-89 1395 -1390 0
-90 -1395 1390 0
-90 1395 -1390 0
-99 -1395 1390 0
-99 1395 -1390 0
-81 -1391 1396 0
-81 -1390 1396 0
-81 -1396 1391 1390 0
-82 -1396 1391 0
-82 1396 -1391 0
-83 -1396 1391 0
-83 1396 -1391 0
-84 -1396 1391 0
-84 1396 -1391 0
-85 -1396 1391 0
-85 -1396 1392 0
-85 1396 -1391 -1392 0
-86 -1396 1391 0
-86 -1396 1393 0
-86 1396 -1391 -1393 0
-87 -1396 1391 0
-87 -1396 1394 0
-87 1396 -1391 -1394 0
-88 -1396 1391 0
-88 1396 -1391 0
-89 -1396 1391 0
-89 1396 -1391 0
-90 -1396 1391 0
-90 1396 -1391 0
-99 -1396 1391 0
-99 1396 -1391 0
-81 -1397 1392 0
-81 1397 -1392 0
-82 -1392 1397 0
-82 -1390 1397 0
-82 -1397 1392 1390 0
-83 -1397 1392 0
-83 1397 -1392 0
-84 -1397 1392 0
-84 1397 -1392 0
-85 -1392 1397 0
-85 -1391 1397 0
-85 -1397 1392 1391 0
-86 -1397 1392 0
-86 1397 -1392 0
-87 -1397 1392 0
-87 1397 -1392 0
-88 -1397 1392 0
-88 -1397 1393 0
-88 1397 -1392 -1393 0
-89 -1397 1392 0
-89 -1397 1394 0
-89 1397 -1392 -1394 0
-90 -1397 1392 0
-90 1397 -1392 0
-99 -1397 1392 0
-99 1397 -1392 0
-81 -1398 1393 0
-81 1398 -1393 0
-82 -1398 1393 0
-82 1398 -1393 0
-83 -1393 1398 0
-83 -1390 1398 0
-83 -1398 1393 1390 0
-84 -1398 1393 0
-84 1398 -1393 0
-85 -1398 1393 0
-85 1398 -1393 0
-86 -1393 1398 0
-86 -1391 1398 0
-86 -1398 1393 1391 0
-87 -1398 1393 0
-87 1398 -1393 0
-88 -1393 1398 0
-88 -1392 1398 0
-88 -1398 1393 1392 0
-89 -1398 1393 0
-89 1398 -1393 0
-90 -1398 1393 0
-90 -1398 1394 0
-90 1398 -1393 -1394 0
-99 -1398 1393 0
-99 1398 -1393 0
-81 -1399 1394 0
-81 1399 -1394 0
-82 -1399 1394 0
-82 1399 -1394 0
-83 -1399 1394 0
-83 1399 -1394 0
-84 -1394 1399 0
-84 -1390 1399 0
-84 -1399 1394 1390 0
-85 -1399 1394 0
-85 1399 -1394 0
-86 -1399 1394 0
-86 1399 -1394 0
-87 -1394 1399 0
-87 -1391 1399 0
-87 -1399 1394 1391 0
-88 -1399 1394 0
-88 1399 -1394 0
-89 -1394 1399 0
-89 -1392 1399 0
-89 -1399 1394 1392 0
-90 -1394 1399 0
-90 -1393 1399 0
-90 -1399 1394 1393 0
-99 -1399 1394 0
-99 1399 -1394 0
-145 146 0
-146 147 0
-147 148 0
-148 149 0
-195 196 0
-196 197 0
-197 198 0
-198 199 0
-245 246 0
-246 247 0
-247 248 0
-248 249 0
-295 296 0
-296 297 0
-297 298 0
-298 299 0
-345 346 0
-346 347 0
-347 348 0
-348 349 0
-395 396 0
-396 397 0
-397 398 0
-398 399 0
-445 446 0
-446 447 0
-447 448 0
-448 449 0
-495 496 0
-496 497 0
-497 498 0
-498 499 0
-545 546 0
-546 547 0
-547 548 0
-548 549 0
-595 596 0
-596 597 0
-597 598 0
-598 599 0
-645 646 0
-646 647 0
-647 648 0
-648 649 0
-695 696 0
-696 697 0
-697 698 0
-698 699 0
-745 746 0
-746 747 0
-747 748 0
-748 749 0
-795 796 0
-796 797 0
-797 798 0
-798 799 0
-845 846 0
-846 847 0
-847 848 0
-848 849 0
-895 896 0
-896 897 0
-897 898 0
-898 899 0
-945 946 0
-946 947 0
-947 948 0
-948 949 0
-995 996 0
-996 997 0
-997 998 0
-998 999 0
-1045 1046 0
-1046 1047 0
-1047 1048 0
-1048 1049 0
-1095 1096 0
-1096 1097 0
-1097 1098 0
-1098 1099 0
-1145 1146 0
-1146 1147 0
-1147 1148 0
-1148 1149 0
-1195 1196 0
-1196 1197 0
-1197 1198 0
-1198 1199 0
-1245 1246 0
-1246 1247 0
-1247 1248 0
-1248 1249 0
-1295 1296 0
-1296 1297 0
-1297 1298 0
-1298 1299 0
-1345 1346 0
-1346 1347 0
-1347 1348 0
-1348 1349 0
-1395 1396 0
-1396 1397 0
-1397 1398 0
-1398 1399 0
