p cnf 976 20897
1 2 3 4 5 6 7 8 9 10 61 0
-1 -2 0
-1 -3 0
-1 -4 0
-1 -5 0
-1 -6 0
-1 -7 0
-1 -8 0
-1 -9 0
-1 -10 0
-1 -61 0
-2 -3 0
-2 -4 0
-2 -5 0
-2 -6 0
-2 -7 0
-2 -8 0
-2 -9 0
-2 -10 0
-2 -61 0
-3 -4 0
-3 -5 0
-3 -6 0
-3 -7 0
-3 -8 0
-3 -9 0
-3 -10 0
-3 -61 0
-4 -5 0
-4 -6 0
-4 -7 0
-4 -8 0
-4 -9 0
-4 -10 0
-4 -61 0
-5 -6 0
-5 -7 0
-5 -8 0
-5 -9 0
-5 -10 0
-5 -61 0
-6 -7 0
-6 -8 0
-6 -9 0
-6 -10 0
-6 -61 0
-7 -8 0
-7 -9 0
-7 -10 0
-7 -61 0
-8 -9 0
-8 -10 0
-8 -61 0
-9 -10 0
-9 -61 0
-10 -61 0
11 12 13 14 15 16 17 18 19 20 62 0
-11 -12 0
-11 -13 0
-11 -14 0
-11 -15 0
-11 -16 0
-11 -17 0
-11 -18 0
-11 -19 0
-11 -20 0
-11 -62 0
-12 -13 0
-12 -14 0
-12 -15 0
-12 -16 0
-12 -17 0
-12 -18 0
-12 -19 0
-12 -20 0
-12 -62 0
-13 -14 0
-13 -15 0
-13 -16 0
-13 -17 0
-13 -18 0
-13 -19 0
-13 -20 0
-13 -62 0
-14 -15 0
-14 -16 0
-14 -17 0
-14 -18 0
-14 -19 0
-14 -20 0
-14 -62 0
-15 -16 0
-15 -17 0
-15 -18 0
-15 -19 0
-15 -20 0
-15 -62 0
-16 -17 0
-16 -18 0
-16 -19 0
-16 -20 0
-16 -62 0
-17 -18 0
-17 -19 0
-17 -20 0
-17 -62 0
-18 -19 0
-18 -20 0
-18 -62 0
-19 -20 0
-19 -62 0
-20 -62 0
21 22 23 24 25 26 27 28 29 30 63 0
-21 -22 0
-21 -23 0
-21 -24 0
-21 -25 0
-21 -26 0
-21 -27 0
-21 -28 0
-21 -29 0
-21 -30 0
-21 -63 0
-22 -23 0
-22 -24 0
-22 -25 0
-22 -26 0
-22 -27 0
-22 -28 0
-22 -29 0
-22 -30 0
-22 -63 0
-23 -24 0
-23 -25 0
-23 -26 0
-23 -27 0
-23 -28 0
-23 -29 0
-23 -30 0
-23 -63 0
-24 -25 0
-24 -26 0
-24 -27 0
-24 -28 0
-24 -29 0
-24 -30 0
-24 -63 0
-25 -26 0
-25 -27 0
-25 -28 0
-25 -29 0
-25 -30 0
-25 -63 0
-26 -27 0
-26 -28 0
-26 -29 0
-26 -30 0
-26 -63 0
-27 -28 0
-27 -29 0
-27 -30 0
-27 -63 0
-28 -29 0
-28 -30 0
-28 -63 0
-29 -30 0
-29 -63 0
-30 -63 0
31 32 33 34 35 36 37 38 39 40 64 0
-31 -32 0
-31 -33 0
-31 -34 0
-31 -35 0
-31 -36 0
-31 -37 0
-31 -38 0
-31 -39 0
-31 -40 0
-31 -64 0
-32 -33 0
-32 -34 0
-32 -35 0
-32 -36 0
-32 -37 0
-32 -38 0
-32 -39 0
-32 -40 0
-32 -64 0
-33 -34 0
-33 -35 0
-33 -36 0
-33 -37 0
-33 -38 0
-33 -39 0
-33 -40 0
-33 -64 0
-34 -35 0
-34 -36 0
-34 -37 0
-34 -38 0
-34 -39 0
-34 -40 0
-34 -64 0
-35 -36 0
-35 -37 0
-35 -38 0
-35 -39 0
-35 -40 0
-35 -64 0
-36 -37 0
-36 -38 0
-36 -39 0
-36 -40 0
-36 -64 0
-37 -38 0
-37 -39 0
-37 -40 0
-37 -64 0
-38 -39 0
-38 -40 0
-38 -64 0
-39 -40 0
-39 -64 0
-40 -64 0
41 42 43 44 45 46 47 48 49 50 65 0
-41 -42 0
-41 -43 0
-41 -44 0
-41 -45 0
-41 -46 0
-41 -47 0
-41 -48 0
-41 -49 0
-41 -50 0
-41 -65 0
-42 -43 0
-42 -44 0
-42 -45 0
-42 -46 0
-42 -47 0
-42 -48 0
-42 -49 0
-42 -50 0
-42 -65 0
-43 -44 0
-43 -45 0
-43 -46 0
-43 -47 0
-43 -48 0
-43 -49 0
-43 -50 0
-43 -65 0
-44 -45 0
-44 -46 0
-44 -47 0
-44 -48 0
-44 -49 0
-44 -50 0
-44 -65 0
-45 -46 0
-45 -47 0
-45 -48 0
-45 -49 0
-45 -50 0
-45 -65 0
-46 -47 0
-46 -48 0
-46 -49 0
-46 -50 0
-46 -65 0
-47 -48 0
-47 -49 0
-47 -50 0
-47 -65 0
-48 -49 0
-48 -50 0
-48 -65 0
-49 -50 0
-49 -65 0
-50 -65 0
51 52 53 54 55 56 57 58 59 60 66 0
-51 -52 0
-51 -53 0
-51 -54 0
-51 -55 0
-51 -56 0
-51 -57 0
-51 -58 0
-51 -59 0
-51 -60 0
-51 -66 0
-52 -53 0
-52 -54 0
-52 -55 0
-52 -56 0
-52 -57 0
-52 -58 0
-52 -59 0
-52 -60 0
-52 -66 0
-53 -54 0
-53 -55 0
-53 -56 0
-53 -57 0
-53 -58 0
-53 -59 0
-53 -60 0
-53 -66 0
-54 -55 0
-54 -56 0
-54 -57 0
-54 -58 0
-54 -59 0
-54 -60 0
-54 -66 0
-55 -56 0
-55 -57 0
-55 -58 0
-55 -59 0
-55 -60 0
-55 -66 0
-56 -57 0
-56 -58 0
-56 -59 0
-56 -60 0
-56 -66 0
-57 -58 0
-57 -59 0
-57 -60 0
-57 -66 0
-58 -59 0
-58 -60 0
-58 -66 0
-59 -60 0
-59 -66 0
-60 -66 0
-1 -11 0
-2 -12 0
-3 -13 0
-4 -14 0
-5 -15 0
-6 -16 0
-7 -17 0
-8 -18 0
-9 -19 0
-10 -20 0
-11 -21 0
-12 -22 0
-13 -23 0
-14 -24 0
-15 -25 0
-16 -26 0
-17 -27 0
-18 -28 0
-19 -29 0
-20 -30 0
-21 -31 0
-22 -32 0
-23 -33 0
-24 -34 0
-25 -35 0
-26 -36 0
-27 -37 0
-28 -38 0
-29 -39 0
-30 -40 0
-31 -41 0
-32 -42 0
-33 -43 0
-34 -44 0
-35 -45 0
-36 -46 0
-37 -47 0
-38 -48 0
-39 -49 0
-40 -50 0
-41 -51 0
-42 -52 0
-43 -53 0
-44 -54 0
-45 -55 0
-46 -56 0
-47 -57 0
-48 -58 0
-49 -59 0
-50 -60 0
-5 -13 0
-5 -14 0
-6 -12 0
-6 -14 0
-7 -12 0
-7 -13 0
-8 -11 0
-8 -14 0
-8 -17 0
-9 -11 0
-9 -13 0
-9 -16 0
-10 -11 0
-10 -12 0
-10 -15 0
-15 -23 0
-15 -24 0
-16 -22 0
-16 -24 0
-17 -22 0
-17 -23 0
-18 -21 0
-18 -24 0
-18 -27 0
-19 -21 0
-19 -23 0
-19 -26 0
-20 -21 0
-20 -22 0
-20 -25 0
-25 -33 0
-25 -34 0
-26 -32 0
-26 -34 0
-27 -32 0
-27 -33 0
-28 -31 0
-28 -34 0
-28 -37 0
-29 -31 0
-29 -33 0
-29 -36 0
-30 -31 0
-30 -32 0
-30 -35 0
-35 -43 0
-35 -44 0
-36 -42 0
-36 -44 0
-37 -42 0
-37 -43 0
-38 -41 0
-38 -44 0
-38 -47 0
-39 -41 0
-39 -43 0
-39 -46 0
-40 -41 0
-40 -42 0
-40 -45 0
-45 -53 0
-45 -54 0
-46 -52 0
-46 -54 0
-47 -52 0
-47 -53 0
-48 -51 0
-48 -54 0
-48 -57 0
-49 -51 0
-49 -53 0
-49 -56 0
-50 -51 0
-50 -52 0
-50 -55 0
-67 0
-1 -72 67 0
-1 -72 68 0
-1 72 -67 -68 0
-2 -72 67 0
-2 -72 69 0
-2 72 -67 -69 0
-3 -72 67 0
-3 -72 70 0
-3 72 -67 -70 0
-4 -72 67 0
-4 -72 71 0
-4 72 -67 -71 0
-5 -72 67 0
-5 72 -67 0
-6 -72 67 0
-6 72 -67 0
-7 -72 67 0
-7 72 -67 0
-8 -72 67 0
-8 72 -67 0
-9 -72 67 0
-9 72 -67 0
-10 -72 67 0
-10 72 -67 0
-61 -72 67 0
-61 72 -67 0
-68 0
-1 -68 73 0
-1 -67 73 0
-1 -73 68 67 0
-2 -73 68 0
-2 73 -68 0
-3 -73 68 0
-3 73 -68 0
-4 -73 68 0
-4 73 -68 0
-5 -73 68 0
-5 -73 69 0
-5 73 -68 -69 0
-6 -73 68 0
-6 -73 70 0
-6 73 -68 -70 0
-7 -73 68 0
-7 -73 71 0
-7 73 -68 -71 0
-8 -73 68 0
-8 73 -68 0
-9 -73 68 0
-9 73 -68 0
-10 -73 68 0
-10 73 -68 0
-61 -73 68 0
-61 73 -68 0
-69 0
-1 -74 69 0
-1 74 -69 0
-2 -69 74 0
-2 -67 74 0
-2 -74 69 67 0
-3 -74 69 0
-3 74 -69 0
-4 -74 69 0
-4 74 -69 0
-5 -69 74 0
-5 -68 74 0
-5 -74 69 68 0
-6 -74 69 0
-6 74 -69 0
-7 -74 69 0
-7 74 -69 0
-8 -74 69 0
-8 -74 70 0
-8 74 -69 -70 0
-9 -74 69 0
-9 -74 71 0
-9 74 -69 -71 0
-10 -74 69 0
-10 74 -69 0
-61 -74 69 0
-61 74 -69 0
70 0
-1 -75 70 0
-1 75 -70 0
-2 -75 70 0
-2 75 -70 0
-3 -70 75 0
-3 -67 75 0
-3 -75 70 67 0
-4 -75 70 0
-4 75 -70 0
-5 -75 70 0
-5 75 -70 0
-6 -70 75 0
-6 -68 75 0
-6 -75 70 68 0
-7 -75 70 0
-7 75 -70 0
-8 -70 75 0
-8 -69 75 0
-8 -75 70 69 0
-9 -75 70 0
-9 75 -70 0
-10 -75 70 0
-10 -75 71 0
-10 75 -70 -71 0
-61 -75 70 0
-61 75 -70 0
-71 0
-1 -76 71 0
-1 76 -71 0
-2 -76 71 0
-2 76 -71 0
-3 -76 71 0
-3 76 -71 0
-4 -71 76 0
-4 -67 76 0
-4 -76 71 67 0
-5 -76 71 0
-5 76 -71 0
-6 -76 71 0
-6 76 -71 0
-7 -71 76 0
-7 -68 76 0
-7 -76 71 68 0
-8 -76 71 0
-8 76 -71 0
-9 -71 76 0
-9 -69 76 0
-9 -76 71 69 0
-10 -71 76 0
-10 -70 76 0
-10 -76 71 70 0
-61 -76 71 0
-61 76 -71 0
-11 -77 72 0
-11 -77 73 0
-11 77 -72 -73 0
-12 -77 72 0
-12 -77 74 0
-12 77 -72 -74 0
-13 -77 72 0
-13 -77 75 0
-13 77 -72 -75 0
-14 -77 72 0
-14 -77 76 0
-14 77 -72 -76 0
-15 -77 72 0
-15 77 -72 0
-16 -77 72 0
-16 77 -72 0
-17 -77 72 0
-17 77 -72 0
-18 -77 72 0
-18 77 -72 0
-19 -77 72 0
-19 77 -72 0
-20 -77 72 0
-20 77 -72 0
-62 -77 72 0
-62 77 -72 0
-11 -73 78 0
-11 -72 78 0
-11 -78 73 72 0
-12 -78 73 0
-12 78 -73 0
-13 -78 73 0
-13 78 -73 0
-14 -78 73 0
-14 78 -73 0
-15 -78 73 0
-15 -78 74 0
-15 78 -73 -74 0
-16 -78 73 0
-16 -78 75 0
-16 78 -73 -75 0
-17 -78 73 0
-17 -78 76 0
-17 78 -73 -76 0
-18 -78 73 0
-18 78 -73 0
-19 -78 73 0
-19 78 -73 0
-20 -78 73 0
-20 78 -73 0
-62 -78 73 0
-62 78 -73 0
-11 -79 74 0
-11 79 -74 0
-12 -74 79 0
-12 -72 79 0
-12 -79 74 72 0
-13 -79 74 0
-13 79 -74 0
-14 -79 74 0
-14 79 -74 0
-15 -74 79 0
-15 -73 79 0
-15 -79 74 73 0
-16 -79 74 0
-16 79 -74 0
-17 -79 74 0
-17 79 -74 0
-18 -79 74 0
-18 -79 75 0
-18 79 -74 -75 0
-19 -79 74 0
-19 -79 76 0
-19 79 -74 -76 0
-20 -79 74 0
-20 79 -74 0
-62 -79 74 0
-62 79 -74 0
-11 -80 75 0
-11 80 -75 0
-12 -80 75 0
-12 80 -75 0
-13 -75 80 0
-13 -72 80 0
-13 -80 75 72 0
-14 -80 75 0
-14 80 -75 0
-15 -80 75 0
-15 80 -75 0
-16 -75 80 0
-16 -73 80 0
-16 -80 75 73 0
-17 -80 75 0
-17 80 -75 0
-18 -75 80 0
-18 -74 80 0
-18 -80 75 74 0
-19 -80 75 0
-19 80 -75 0
-20 -80 75 0
-20 -80 76 0
-20 80 -75 -76 0
-62 -80 75 0
-62 80 -75 0
-11 -81 76 0
-11 81 -76 0
-12 -81 76 0
-12 81 -76 0
-13 -81 76 0
-13 81 -76 0
-14 -76 81 0
-14 -72 81 0
-14 -81 76 72 0
-15 -81 76 0
-15 81 -76 0
-16 -81 76 0
-16 81 -76 0
-17 -76 81 0
-17 -73 81 0
-17 -81 76 73 0
-18 -81 76 0
-18 81 -76 0
-19 -76 81 0
-19 -74 81 0
-19 -81 76 74 0
-20 -76 81 0
-20 -75 81 0
-20 -81 76 75 0
-62 -81 76 0
-62 81 -76 0
-21 -82 77 0
-21 -82 78 0
-21 82 -77 -78 0
-22 -82 77 0
-22 -82 79 0
-22 82 -77 -79 0
-23 -82 77 0
-23 -82 80 0
-23 82 -77 -80 0
-24 -82 77 0
-24 -82 81 0
-24 82 -77 -81 0
-25 -82 77 0
-25 82 -77 0
-26 -82 77 0
-26 82 -77 0
-27 -82 77 0
-27 82 -77 0
-28 -82 77 0
-28 82 -77 0
-29 -82 77 0
-29 82 -77 0
-30 -82 77 0
-30 82 -77 0
-63 -82 77 0
-63 82 -77 0
-21 -78 83 0
-21 -77 83 0
-21 -83 78 77 0
-22 -83 78 0
-22 83 -78 0
-23 -83 78 0
-23 83 -78 0
-24 -83 78 0
-24 83 -78 0
-25 -83 78 0
-25 -83 79 0
-25 83 -78 -79 0
-26 -83 78 0
-26 -83 80 0
-26 83 -78 -80 0
-27 -83 78 0
-27 -83 81 0
-27 83 -78 -81 0
-28 -83 78 0
-28 83 -78 0
-29 -83 78 0
-29 83 -78 0
-30 -83 78 0
-30 83 -78 0
-63 -83 78 0
-63 83 -78 0
-21 -84 79 0
-21 84 -79 0
-22 -79 84 0
-22 -77 84 0
-22 -84 79 77 0
-23 -84 79 0
-23 84 -79 0
-24 -84 79 0
-24 84 -79 0
-25 -79 84 0
-25 -78 84 0
-25 -84 79 78 0
-26 -84 79 0
-26 84 -79 0
-27 -84 79 0
-27 84 -79 0
-28 -84 79 0
-28 -84 80 0
-28 84 -79 -80 0
-29 -84 79 0
-29 -84 81 0
-29 84 -79 -81 0
-30 -84 79 0
-30 84 -79 0
-63 -84 79 0
-63 84 -79 0
-21 -85 80 0
-21 85 -80 0
-22 -85 80 0
-22 85 -80 0
-23 -80 85 0
-23 -77 85 0
-23 -85 80 77 0
-24 -85 80 0
-24 85 -80 0
-25 -85 80 0
-25 85 -80 0
-26 -80 85 0
-26 -78 85 0
-26 -85 80 78 0
-27 -85 80 0
-27 85 -80 0
-28 -80 85 0
-28 -79 85 0
-28 -85 80 79 0
-29 -85 80 0
-29 85 -80 0
-30 -85 80 0
-30 -85 81 0
-30 85 -80 -81 0
-63 -85 80 0
-63 85 -80 0
-21 -86 81 0
-21 86 -81 0
-22 -86 81 0
-22 86 -81 0
-23 -86 81 0
-23 86 -81 0
-24 -81 86 0
-24 -77 86 0
-24 -86 81 77 0
-25 -86 81 0
-25 86 -81 0
-26 -86 81 0
-26 86 -81 0
-27 -81 86 0
-27 -78 86 0
-27 -86 81 78 0
-28 -86 81 0
-28 86 -81 0
-29 -81 86 0
-29 -79 86 0
-29 -86 81 79 0
-30 -81 86 0
-30 -80 86 0
-30 -86 81 80 0
-63 -86 81 0
-63 86 -81 0
-31 -87 82 0
-31 -87 83 0
-31 87 -82 -83 0
-32 -87 82 0
-32 -87 84 0
-32 87 -82 -84 0
-33 -87 82 0
-33 -87 85 0
-33 87 -82 -85 0
-34 -87 82 0
-34 -87 86 0
-34 87 -82 -86 0
-35 -87 82 0
-35 87 -82 0
-36 -87 82 0
-36 87 -82 0
-37 -87 82 0
-37 87 -82 0
-38 -87 82 0
-38 87 -82 0
-39 -87 82 0
-39 87 -82 0
-40 -87 82 0
-40 87 -82 0
-64 -87 82 0
-64 87 -82 0
-31 -83 88 0
-31 -82 88 0
-31 -88 83 82 0
-32 -88 83 0
-32 88 -83 0
-33 -88 83 0
-33 88 -83 0
-34 -88 83 0
-34 88 -83 0
-35 -88 83 0
-35 -88 84 0
-35 88 -83 -84 0
-36 -88 83 0
-36 -88 85 0
-36 88 -83 -85 0
-37 -88 83 0
-37 -88 86 0
-37 88 -83 -86 0
-38 -88 83 0
-38 88 -83 0
-39 -88 83 0
-39 88 -83 0
-40 -88 83 0
-40 88 -83 0
-64 -88 83 0
-64 88 -83 0
-31 -89 84 0
-31 89 -84 0
-32 -84 89 0
-32 -82 89 0
-32 -89 84 82 0
-33 -89 84 0
-33 89 -84 0
-34 -89 84 0
-34 89 -84 0
-35 -84 89 0
-35 -83 89 0
-35 -89 84 83 0
-36 -89 84 0
-36 89 -84 0
-37 -89 84 0
-37 89 -84 0
-38 -89 84 0
-38 -89 85 0
-38 89 -84 -85 0
-39 -89 84 0
-39 -89 86 0
-39 89 -84 -86 0
-40 -89 84 0
-40 89 -84 0
-64 -89 84 0
-64 89 -84 0
-31 -90 85 0
-31 90 -85 0
-32 -90 85 0
-32 90 -85 0
-33 -85 90 0
-33 -82 90 0
-33 -90 85 82 0
-34 -90 85 0
-34 90 -85 0
-35 -90 85 0
-35 90 -85 0
-36 -85 90 0
-36 -83 90 0
-36 -90 85 83 0
-37 -90 85 0
-37 90 -85 0
-38 -85 90 0
-38 -84 90 0
-38 -90 85 84 0
-39 -90 85 0
-39 90 -85 0
-40 -90 85 0
-40 -90 86 0
-40 90 -85 -86 0
-64 -90 85 0
-64 90 -85 0
-31 -91 86 0
-31 91 -86 0
-32 -91 86 0
-32 91 -86 0
-33 -91 86 0
-33 91 -86 0
-34 -86 91 0
-34 -82 91 0
-34 -91 86 82 0
-35 -91 86 0
-35 91 -86 0
-36 -91 86 0
-36 91 -86 0
-37 -86 91 0
-37 -83 91 0
-37 -91 86 83 0
-38 -91 86 0
-38 91 -86 0
-39 -86 91 0
-39 -84 91 0
-39 -91 86 84 0
-40 -86 91 0
-40 -85 91 0
-40 -91 86 85 0
-64 -91 86 0
-64 91 -86 0
-41 -92 87 0
-41 -92 88 0
-41 92 -87 -88 0
-42 -92 87 0
-42 -92 89 0
-42 92 -87 -89 0
-43 -92 87 0
-43 -92 90 0
-43 92 -87 -90 0
-44 -92 87 0
-44 -92 91 0
-44 92 -87 -91 0
-45 -92 87 0
-45 92 -87 0
-46 -92 87 0
-46 92 -87 0
-47 -92 87 0
-47 92 -87 0
-48 -92 87 0
-48 92 -87 0
-49 -92 87 0
-49 92 -87 0
-50 -92 87 0
-50 92 -87 0
-65 -92 87 0
-65 92 -87 0
-41 -88 93 0
-41 -87 93 0
-41 -93 88 87 0
-42 -93 88 0
-42 93 -88 0
-43 -93 88 0
-43 93 -88 0
-44 -93 88 0
-44 93 -88 0
-45 -93 88 0
-45 -93 89 0
-45 93 -88 -89 0
-46 -93 88 0
-46 -93 90 0
-46 93 -88 -90 0
-47 -93 88 0
-47 -93 91 0
-47 93 -88 -91 0
-48 -93 88 0
-48 93 -88 0
-49 -93 88 0
-49 93 -88 0
-50 -93 88 0
-50 93 -88 0
-65 -93 88 0
-65 93 -88 0
-41 -94 89 0
-41 94 -89 0
-42 -89 94 0
-42 -87 94 0
-42 -94 89 87 0
-43 -94 89 0
-43 94 -89 0
-44 -94 89 0
-44 94 -89 0
-45 -89 94 0
-45 -88 94 0
-45 -94 89 88 0
-46 -94 89 0
-46 94 -89 0
-47 -94 89 0
-47 94 -89 0
-48 -94 89 0
-48 -94 90 0
-48 94 -89 -90 0
-49 -94 89 0
-49 -94 91 0
-49 94 -89 -91 0
-50 -94 89 0
-50 94 -89 0
-65 -94 89 0
-65 94 -89 0
-41 -95 90 0
-41 95 -90 0
-42 -95 90 0
-42 95 -90 0
-43 -90 95 0
-43 -87 95 0
-43 -95 90 87 0
-44 -95 90 0
-44 95 -90 0
-45 -95 90 0
-45 95 -90 0
-46 -90 95 0
-46 -88 95 0
-46 -95 90 88 0
-47 -95 90 0
-47 95 -90 0
-48 -90 95 0
-48 -89 95 0
-48 -95 90 89 0
-49 -95 90 0
-49 95 -90 0
-50 -95 90 0
-50 -95 91 0
-50 95 -90 -91 0
-65 -95 90 0
-65 95 -90 0
-41 -96 91 0
-41 96 -91 0
-42 -96 91 0
-42 96 -91 0
-43 -96 91 0
-43 96 -91 0
-44 -91 96 0
-44 -87 96 0
-44 -96 91 87 0
-45 -96 91 0
-45 96 -91 0
-46 -96 91 0
-46 96 -91 0
-47 -91 96 0
-47 -88 96 0
-47 -96 91 88 0
-48 -96 91 0
-48 96 -91 0
-49 -91 96 0
-49 -89 96 0
-49 -96 91 89 0
-50 -91 96 0
-50 -90 96 0
-50 -96 91 90 0
-65 -96 91 0
-65 96 -91 0
-51 -97 92 0
-51 -97 93 0
-51 97 -92 -93 0
-52 -97 92 0
-52 -97 94 0
-52 97 -92 -94 0
-53 -97 92 0
-53 -97 95 0
-53 97 -92 -95 0
-54 -97 92 0
-54 -97 96 0
-54 97 -92 -96 0
-55 -97 92 0
-55 97 -92 0
-56 -97 92 0
-56 97 -92 0
-57 -97 92 0
-57 97 -92 0
-58 -97 92 0
-58 97 -92 0
-59 -97 92 0
-59 97 -92 0
-60 -97 92 0
-60 97 -92 0
-66 -97 92 0
-66 97 -92 0
-51 -93 98 0
-51 -92 98 0
-51 -98 93 92 0
-52 -98 93 0
-52 98 -93 0
-53 -98 93 0
-53 98 -93 0
-54 -98 93 0
-54 98 -93 0
-55 -98 93 0
-55 -98 94 0
-55 98 -93 -94 0
-56 -98 93 0
-56 -98 95 0
-56 98 -93 -95 0
-57 -98 93 0
-57 -98 96 0
-57 98 -93 -96 0
-58 -98 93 0
-58 98 -93 0
-59 -98 93 0
-59 98 -93 0
-60 -98 93 0
-60 98 -93 0
-66 -98 93 0
-66 98 -93 0
-51 -99 94 0
-51 99 -94 0
-52 -94 99 0
-52 -92 99 0
-52 -99 94 92 0
-53 -99 94 0
-53 99 -94 0
-54 -99 94 0
-54 99 -94 0
-55 -94 99 0
-55 -93 99 0
-55 -99 94 93 0
-56 -99 94 0
-56 99 -94 0
-57 -99 94 0
-57 99 -94 0
-58 -99 94 0
-58 -99 95 0
-58 99 -94 -95 0
-59 -99 94 0
-59 -99 96 0
-59 99 -94 -96 0
-60 -99 94 0
-60 99 -94 0
-66 -99 94 0
-66 99 -94 0
-51 -100 95 0
-51 100 -95 0
-52 -100 95 0
-52 100 -95 0
-53 -95 100 0
-53 -92 100 0
-53 -100 95 92 0
-54 -100 95 0
-54 100 -95 0
-55 -100 95 0
-55 100 -95 0
-56 -95 100 0
-56 -93 100 0
-56 -100 95 93 0
-57 -100 95 0
-57 100 -95 0
-58 -95 100 0
-58 -94 100 0
-58 -100 95 94 0
-59 -100 95 0
-59 100 -95 0
-60 -100 95 0
-60 -100 96 0
-60 100 -95 -96 0
-66 -100 95 0
-66 100 -95 0
-51 -101 96 0
-51 101 -96 0
-52 -101 96 0
-52 101 -96 0
-53 -101 96 0
-53 101 -96 0
-54 -96 101 0
-54 -92 101 0
-54 -101 96 92 0
-55 -101 96 0
-55 101 -96 0
-56 -101 96 0
-56 101 -96 0
-57 -96 101 0
-57 -93 101 0
-57 -101 96 93 0
-58 -101 96 0
-58 101 -96 0
-59 -96 101 0
-59 -94 101 0
-59 -101 96 94 0
-60 -96 101 0
-60 -95 101 0
-60 -101 96 95 0
-66 -101 96 0
-66 101 -96 0
-102 0
-1 -107 102 0
-1 -107 103 0
-1 107 -102 -103 0
-2 -107 102 0
-2 -107 104 0
-2 107 -102 -104 0
-3 -107 102 0
-3 -107 105 0
-3 107 -102 -105 0
-4 -107 102 0
-4 -107 106 0
-4 107 -102 -106 0
-5 -107 102 0
-5 107 -102 0
-6 -107 102 0
-6 107 -102 0
-7 -107 102 0
-7 107 -102 0
-8 -107 102 0
-8 107 -102 0
-9 -107 102 0
-9 107 -102 0
-10 -107 102 0
-10 107 -102 0
-61 -107 102 0
-61 107 -102 0
-103 0
-1 -103 108 0
-1 -102 108 0
-1 -108 103 102 0
-2 -108 103 0
-2 108 -103 0
-3 -108 103 0
-3 108 -103 0
-4 -108 103 0
-4 108 -103 0
-5 -108 103 0
-5 -108 104 0
-5 108 -103 -104 0
-6 -108 103 0
-6 -108 105 0
-6 108 -103 -105 0
-7 -108 103 0
-7 -108 106 0
-7 108 -103 -106 0
-8 -108 103 0
-8 108 -103 0
-9 -108 103 0
-9 108 -103 0
-10 -108 103 0
-10 108 -103 0
-61 -108 103 0
-61 108 -103 0
104 0
-1 -109 104 0
-1 109 -104 0
-2 -104 109 0
-2 -102 109 0
-2 -109 104 102 0
-3 -109 104 0
-3 109 -104 0
-4 -109 104 0
-4 109 -104 0
-5 -104 109 0
-5 -103 109 0
-5 -109 104 103 0
-6 -109 104 0
-6 109 -104 0
-7 -109 104 0
-7 109 -104 0
-8 -109 104 0
-8 -109 105 0
-8 109 -104 -105 0
-9 -109 104 0
-9 -109 106 0
-9 109 -104 -106 0
-10 -109 104 0
-10 109 -104 0
-61 -109 104 0
-61 109 -104 0
-105 0
-1 -110 105 0
-1 110 -105 0
-2 -110 105 0
-2 110 -105 0
-3 -105 110 0
-3 -102 110 0
-3 -110 105 102 0
-4 -110 105 0
-4 110 -105 0
-5 -110 105 0
-5 110 -105 0
-6 -105 110 0
-6 -103 110 0
-6 -110 105 103 0
-7 -110 105 0
-7 110 -105 0
-8 -105 110 0
-8 -104 110 0
-8 -110 105 104 0
-9 -110 105 0
-9 110 -105 0
-10 -110 105 0
-10 -110 106 0
-10 110 -105 -106 0
-61 -110 105 0
-61 110 -105 0
-106 0
-1 -111 106 0
-1 111 -106 0
-2 -111 106 0
-2 111 -106 0
-3 -111 106 0
-3 111 -106 0
-4 -106 111 0
-4 -102 111 0
-4 -111 106 102 0
-5 -111 106 0
-5 111 -106 0
-6 -111 106 0
-6 111 -106 0
-7 -106 111 0
-7 -103 111 0
-7 -111 106 103 0
-8 -111 106 0
-8 111 -106 0
-9 -106 111 0
-9 -104 111 0
-9 -111 106 104 0
-10 -106 111 0
-10 -105 111 0
-10 -111 106 105 0
-61 -111 106 0
-61 111 -106 0
-11 -112 107 0
-11 -112 108 0
-11 112 -107 -108 0
-12 -112 107 0
-12 -112 109 0
-12 112 -107 -109 0
-13 -112 107 0
-13 -112 110 0
-13 112 -107 -110 0
-14 -112 107 0
-14 -112 111 0
-14 112 -107 -111 0
-15 -112 107 0
-15 112 -107 0
-16 -112 107 0
-16 112 -107 0
-17 -112 107 0
-17 112 -107 0
-18 -112 107 0
-18 112 -107 0
-19 -112 107 0
-19 112 -107 0
-20 -112 107 0
-20 112 -107 0
-62 -112 107 0
-62 112 -107 0
-11 -108 113 0
-11 -107 113 0
-11 -113 108 107 0
-12 -113 108 0
-12 113 -108 0
-13 -113 108 0
-13 113 -108 0
-14 -113 108 0
-14 113 -108 0
-15 -113 108 0
-15 -113 109 0
-15 113 -108 -109 0
-16 -113 108 0
-16 -113 110 0
-16 113 -108 -110 0
-17 -113 108 0
-17 -113 111 0
-17 113 -108 -111 0
-18 -113 108 0
-18 113 -108 0
-19 -113 108 0
-19 113 -108 0
-20 -113 108 0
-20 113 -108 0
-62 -113 108 0
-62 113 -108 0
-11 -114 109 0
-11 114 -109 0
-12 -109 114 0
-12 -107 114 0
-12 -114 109 107 0
-13 -114 109 0
-13 114 -109 0
-14 -114 109 0
-14 114 -109 0
-15 -109 114 0
-15 -108 114 0
-15 -114 109 108 0
-16 -114 109 0
-16 114 -109 0
-17 -114 109 0
-17 114 -109 0
-18 -114 109 0
-18 -114 110 0
-18 114 -109 -110 0
-19 -114 109 0
-19 -114 111 0
-19 114 -109 -111 0
-20 -114 109 0
-20 114 -109 0
-62 -114 109 0
-62 114 -109 0
-11 -115 110 0
-11 115 -110 0
-12 -115 110 0
-12 115 -110 0
-13 -110 115 0
-13 -107 115 0
-13 -115 110 107 0
-14 -115 110 0
-14 115 -110 0
-15 -115 110 0
-15 115 -110 0
-16 -110 115 0
-16 -108 115 0
-16 -115 110 108 0
-17 -115 110 0
-17 115 -110 0
-18 -110 115 0
-18 -109 115 0
-18 -115 110 109 0
-19 -115 110 0
-19 115 -110 0
-20 -115 110 0
-20 -115 111 0
-20 115 -110 -111 0
-62 -115 110 0
-62 115 -110 0
-11 -116 111 0
-11 116 -111 0
-12 -116 111 0
-12 116 -111 0
-13 -116 111 0
-13 116 -111 0
-14 -111 116 0
-14 -107 116 0
-14 -116 111 107 0
-15 -116 111 0
-15 116 -111 0
-16 -116 111 0
-16 116 -111 0
-17 -111 116 0
-17 -108 116 0
-17 -116 111 108 0
-18 -116 111 0
-18 116 -111 0
-19 -111 116 0
-19 -109 116 0
-19 -116 111 109 0
-20 -111 116 0
-20 -110 116 0
-20 -116 111 110 0
-62 -116 111 0
-62 116 -111 0
-21 -117 112 0
-21 -117 113 0
-21 117 -112 -113 0
-22 -117 112 0
-22 -117 114 0
-22 117 -112 -114 0
-23 -117 112 0
-23 -117 115 0
-23 117 -112 -115 0
-24 -117 112 0
-24 -117 116 0
-24 117 -112 -116 0
-25 -117 112 0
-25 117 -112 0
-26 -117 112 0
-26 117 -112 0
-27 -117 112 0
-27 117 -112 0
-28 -117 112 0
-28 117 -112 0
-29 -117 112 0
-29 117 -112 0
-30 -117 112 0
-30 117 -112 0
-63 -117 112 0
-63 117 -112 0
-21 -113 118 0
-21 -112 118 0
-21 -118 113 112 0
-22 -118 113 0
-22 118 -113 0
-23 -118 113 0
-23 118 -113 0
-24 -118 113 0
-24 118 -113 0
-25 -118 113 0
-25 -118 114 0
-25 118 -113 -114 0
-26 -118 113 0
-26 -118 115 0
-26 118 -113 -115 0
-27 -118 113 0
-27 -118 116 0
-27 118 -113 -116 0
-28 -118 113 0
-28 118 -113 0
-29 -118 113 0
-29 118 -113 0
-30 -118 113 0
-30 118 -113 0
-63 -118 113 0
-63 118 -113 0
-21 -119 114 0
-21 119 -114 0
-22 -114 119 0
-22 -112 119 0
-22 -119 114 112 0
-23 -119 114 0
-23 119 -114 0
-24 -119 114 0
-24 119 -114 0
-25 -114 119 0
-25 -113 119 0
-25 -119 114 113 0
-26 -119 114 0
-26 119 -114 0
-27 -119 114 0
-27 119 -114 0
-28 -119 114 0
-28 -119 115 0
-28 119 -114 -115 0
-29 -119 114 0
-29 -119 116 0
-29 119 -114 -116 0
-30 -119 114 0
-30 119 -114 0
-63 -119 114 0
-63 119 -114 0
-21 -120 115 0
-21 120 -115 0
-22 -120 115 0
-22 120 -115 0
-23 -115 120 0
-23 -112 120 0
-23 -120 115 112 0
-24 -120 115 0
-24 120 -115 0
-25 -120 115 0
-25 120 -115 0
-26 -115 120 0
-26 -113 120 0
-26 -120 115 113 0
-27 -120 115 0
-27 120 -115 0
-28 -115 120 0
-28 -114 120 0
-28 -120 115 114 0
-29 -120 115 0
-29 120 -115 0
-30 -120 115 0
-30 -120 116 0
-30 120 -115 -116 0
-63 -120 115 0
-63 120 -115 0
-21 -121 116 0
-21 121 -116 0
-22 -121 116 0
-22 121 -116 0
-23 -121 116 0
-23 121 -116 0
-24 -116 121 0
-24 -112 121 0
-24 -121 116 112 0
-25 -121 116 0
-25 121 -116 0
-26 -121 116 0
-26 121 -116 0
-27 -116 121 0
-27 -113 121 0
-27 -121 116 113 0
-28 -121 116 0
-28 121 -116 0
-29 -116 121 0
-29 -114 121 0
-29 -121 116 114 0
-30 -116 121 0
-30 -115 121 0
-30 -121 116 115 0
-63 -121 116 0
-63 121 -116 0
-31 -122 117 0
-31 -122 118 0
-31 122 -117 -118 0
-32 -122 117 0
-32 -122 119 0
-32 122 -117 -119 0
-33 -122 117 0
-33 -122 120 0
-33 122 -117 -120 0
-34 -122 117 0
-34 -122 121 0
-34 122 -117 -121 0
-35 -122 117 0
-35 122 -117 0
-36 -122 117 0
-36 122 -117 0
-37 -122 117 0
-37 122 -117 0
-38 -122 117 0
-38 122 -117 0
-39 -122 117 0
-39 122 -117 0
-40 -122 117 0
-40 122 -117 0
-64 -122 117 0
-64 122 -117 0
-31 -118 123 0
-31 -117 123 0
-31 -123 118 117 0
-32 -123 118 0
-32 123 -118 0
-33 -123 118 0
-33 123 -118 0
-34 -123 118 0
-34 123 -118 0
-35 -123 118 0
-35 -123 119 0
-35 123 -118 -119 0
-36 -123 118 0
-36 -123 120 0
-36 123 -118 -120 0
-37 -123 118 0
-37 -123 121 0
-37 123 -118 -121 0
-38 -123 118 0
-38 123 -118 0
-39 -123 118 0
-39 123 -118 0
-40 -123 118 0
-40 123 -118 0
-64 -123 118 0
-64 123 -118 0
-31 -124 119 0
-31 124 -119 0
-32 -119 124 0
-32 -117 124 0
-32 -124 119 117 0
-33 -124 119 0
-33 124 -119 0
-34 -124 119 0
-34 124 -119 0
-35 -119 124 0
-35 -118 124 0
-35 -124 119 118 0
-36 -124 119 0
-36 124 -119 0
-37 -124 119 0
-37 124 -119 0
-38 -124 119 0
-38 -124 120 0
-38 124 -119 -120 0
-39 -124 119 0
-39 -124 121 0
-39 124 -119 -121 0
-40 -124 119 0
-40 124 -119 0
-64 -124 119 0
-64 124 -119 0
-31 -125 120 0
-31 125 -120 0
-32 -125 120 0
-32 125 -120 0
-33 -120 125 0
-33 -117 125 0
-33 -125 120 117 0
-34 -125 120 0
-34 125 -120 0
-35 -125 120 0
-35 125 -120 0
-36 -120 125 0
-36 -118 125 0
-36 -125 120 118 0
-37 -125 120 0
-37 125 -120 0
-38 -120 125 0
-38 -119 125 0
-38 -125 120 119 0
-39 -125 120 0
-39 125 -120 0
-40 -125 120 0
-40 -125 121 0
-40 125 -120 -121 0
-64 -125 120 0
-64 125 -120 0
-31 -126 121 0
-31 126 -121 0
-32 -126 121 0
-32 126 -121 0
-33 -126 121 0
-33 126 -121 0
-34 -121 126 0
-34 -117 126 0
-34 -126 121 117 0
-35 -126 121 0
-35 126 -121 0
-36 -126 121 0
-36 126 -121 0
-37 -121 126 0
-37 -118 126 0
-37 -126 121 118 0
-38 -126 121 0
-38 126 -121 0
-39 -121 126 0
-39 -119 126 0
-39 -126 121 119 0
-40 -121 126 0
-40 -120 126 0
-40 -126 121 120 0
-64 -126 121 0
-64 126 -121 0
-41 -127 122 0
-41 -127 123 0
-41 127 -122 -123 0
-42 -127 122 0
-42 -127 124 0
-42 127 -122 -124 0
-43 -127 122 0
-43 -127 125 0
-43 127 -122 -125 0
-44 -127 122 0
-44 -127 126 0
-44 127 -122 -126 0
-45 -127 122 0
-45 127 -122 0
-46 -127 122 0
-46 127 -122 0
-47 -127 122 0
-47 127 -122 0
-48 -127 122 0
-48 127 -122 0
-49 -127 122 0
-49 127 -122 0
-50 -127 122 0
-50 127 -122 0
-65 -127 122 0
-65 127 -122 0
-41 -123 128 0
-41 -122 128 0
-41 -128 123 122 0
-42 -128 123 0
-42 128 -123 0
-43 -128 123 0
-43 128 -123 0
-44 -128 123 0
-44 128 -123 0
-45 -128 123 0
-45 -128 124 0
-45 128 -123 -124 0
-46 -128 123 0
-46 -128 125 0
-46 128 -123 -125 0
-47 -128 123 0
-47 -128 126 0
-47 128 -123 -126 0
-48 -128 123 0
-48 128 -123 0
-49 -128 123 0
-49 128 -123 0
-50 -128 123 0
-50 128 -123 0
-65 -128 123 0
-65 128 -123 0
-41 -129 124 0
-41 129 -124 0
-42 -124 129 0
-42 -122 129 0
-42 -129 124 122 0
-43 -129 124 0
-43 129 -124 0
-44 -129 124 0
-44 129 -124 0
-45 -124 129 0
-45 -123 129 0
-45 -129 124 123 0
-46 -129 124 0
-46 129 -124 0
-47 -129 124 0
-47 129 -124 0
-48 -129 124 0
-48 -129 125 0
-48 129 -124 -125 0
-49 -129 124 0
-49 -129 126 0
-49 129 -124 -126 0
-50 -129 124 0
-50 129 -124 0
-65 -129 124 0
-65 129 -124 0
-41 -130 125 0
-41 130 -125 0
-42 -130 125 0
-42 130 -125 0
-43 -125 130 0
-43 -122 130 0
-43 -130 125 122 0
-44 -130 125 0
-44 130 -125 0
-45 -130 125 0
-45 130 -125 0
-46 -125 130 0
-46 -123 130 0
-46 -130 125 123 0
-47 -130 125 0
-47 130 -125 0
-48 -125 130 0
-48 -124 130 0
-48 -130 125 124 0
-49 -130 125 0
-49 130 -125 0
-50 -130 125 0
-50 -130 126 0
-50 130 -125 -126 0
-65 -130 125 0
-65 130 -125 0
-41 -131 126 0
-41 131 -126 0
-42 -131 126 0
-42 131 -126 0
-43 -131 126 0
-43 131 -126 0
-44 -126 131 0
-44 -122 131 0
-44 -131 126 122 0
-45 -131 126 0
-45 131 -126 0
-46 -131 126 0
-46 131 -126 0
-47 -126 131 0
-47 -123 131 0
-47 -131 126 123 0
-48 -131 126 0
-48 131 -126 0
-49 -126 131 0
-49 -124 131 0
-49 -131 126 124 0
-50 -126 131 0
-50 -125 131 0
-50 -131 126 125 0
-65 -131 126 0
-65 131 -126 0
-51 -132 127 0
-51 -132 128 0
-51 132 -127 -128 0
-52 -132 127 0
-52 -132 129 0
-52 132 -127 -129 0
-53 -132 127 0
-53 -132 130 0
-53 132 -127 -130 0
-54 -132 127 0
-54 -132 131 0
-54 132 -127 -131 0
-55 -132 127 0
-55 132 -127 0
-56 -132 127 0
-56 132 -127 0
-57 -132 127 0
-57 132 -127 0
-58 -132 127 0
-58 132 -127 0
-59 -132 127 0
-59 132 -127 0
-60 -132 127 0
-60 132 -127 0
-66 -132 127 0
-66 132 -127 0
-51 -128 133 0
-51 -127 133 0
-51 -133 128 127 0
-52 -133 128 0
-52 133 -128 0
-53 -133 128 0
-53 133 -128 0
-54 -133 128 0
-54 133 -128 0
-55 -133 128 0
-55 -133 129 0
-55 133 -128 -129 0
-56 -133 128 0
-56 -133 130 0
-56 133 -128 -130 0
-57 -133 128 0
-57 -133 131 0
-57 133 -128 -131 0
-58 -133 128 0
-58 133 -128 0
-59 -133 128 0
-59 133 -128 0
-60 -133 128 0
-60 133 -128 0
-66 -133 128 0
-66 133 -128 0
-51 -134 129 0
-51 134 -129 0
-52 -129 134 0
-52 -127 134 0
-52 -134 129 127 0
-53 -134 129 0
-53 134 -129 0
-54 -134 129 0
-54 134 -129 0
-55 -129 134 0
-55 -128 134 0
-55 -134 129 128 0
-56 -134 129 0
-56 134 -129 0
-57 -134 129 0
-57 134 -129 0
-58 -134 129 0
-58 -134 130 0
-58 134 -129 -130 0
-59 -134 129 0
-59 -134 131 0
-59 134 -129 -131 0
-60 -134 129 0
-60 134 -129 0
-66 -134 129 0
-66 134 -129 0
-51 -135 130 0
-51 135 -130 0
-52 -135 130 0
-52 135 -130 0
-53 -130 135 0
-53 -127 135 0
-53 -135 130 127 0
-54 -135 130 0
-54 135 -130 0
-55 -135 130 0
-55 135 -130 0
-56 -130 135 0
-56 -128 135 0
-56 -135 130 128 0
-57 -135 130 0
-57 135 -130 0
-58 -130 135 0
-58 -129 135 0
-58 -135 130 129 0
-59 -135 130 0
-59 135 -130 0
-60 -135 130 0
-60 -135 131 0
-60 135 -130 -131 0
-66 -135 130 0
-66 135 -130 0
-51 -136 131 0
-51 136 -131 0
-52 -136 131 0
-52 136 -131 0
-53 -136 131 0
-53 136 -131 0
-54 -131 136 0
-54 -127 136 0
-54 -136 131 127 0
-55 -136 131 0
-55 136 -131 0
-56 -136 131 0
-56 136 -131 0
-57 -131 136 0
-57 -128 136 0
-57 -136 131 128 0
-58 -136 131 0
-58 136 -131 0
-59 -131 136 0
-59 -129 136 0
-59 -136 131 129 0
-60 -131 136 0
-60 -130 136 0
-60 -136 131 130 0
-66 -136 131 0
-66 136 -131 0
-137 0
-1 -142 137 0
-1 -142 138 0
-1 142 -137 -138 0
-2 -142 137 0
-2 -142 139 0
-2 142 -137 -139 0
-3 -142 137 0
-3 -142 140 0
-3 142 -137 -140 0
-4 -142 137 0
-4 -142 141 0
-4 142 -137 -141 0
-5 -142 137 0
-5 142 -137 0
-6 -142 137 0
-6 142 -137 0
-7 -142 137 0
-7 142 -137 0
-8 -142 137 0
-8 142 -137 0
-9 -142 137 0
-9 142 -137 0
-10 -142 137 0
-10 142 -137 0
-61 -142 137 0
-61 142 -137 0
-138 0
-1 -138 143 0
-1 -137 143 0
-1 -143 138 137 0
-2 -143 138 0
-2 143 -138 0
-3 -143 138 0
-3 143 -138 0
-4 -143 138 0
-4 143 -138 0
-5 -143 138 0
-5 -143 139 0
-5 143 -138 -139 0
-6 -143 138 0
-6 -143 140 0
-6 143 -138 -140 0
-7 -143 138 0
-7 -143 141 0
-7 143 -138 -141 0
-8 -143 138 0
-8 143 -138 0
-9 -143 138 0
-9 143 -138 0
-10 -143 138 0
-10 143 -138 0
-61 -143 138 0
-61 143 -138 0
139 0
-1 -144 139 0
-1 144 -139 0
-2 -139 144 0
-2 -137 144 0
-2 -144 139 137 0
-3 -144 139 0
-3 144 -139 0
-4 -144 139 0
-4 144 -139 0
-5 -139 144 0
-5 -138 144 0
-5 -144 139 138 0
-6 -144 139 0
-6 144 -139 0
-7 -144 139 0
-7 144 -139 0
-8 -144 139 0
-8 -144 140 0
-8 144 -139 -140 0
-9 -144 139 0
-9 -144 141 0
-9 144 -139 -141 0
-10 -144 139 0
-10 144 -139 0
-61 -144 139 0
-61 144 -139 0
-140 0
-1 -145 140 0
-1 145 -140 0
-2 -145 140 0
-2 145 -140 0
-3 -140 145 0
-3 -137 145 0
-3 -145 140 137 0
-4 -145 140 0
-4 145 -140 0
-5 -145 140 0
-5 145 -140 0
-6 -140 145 0
-6 -138 145 0
-6 -145 140 138 0
-7 -145 140 0
-7 145 -140 0
-8 -140 145 0
-8 -139 145 0
-8 -145 140 139 0
-9 -145 140 0
-9 145 -140 0
-10 -145 140 0
-10 -145 141 0
-10 145 -140 -141 0
-61 -145 140 0
-61 145 -140 0
141 0
-1 -146 141 0
-1 146 -141 0
-2 -146 141 0
-2 146 -141 0
-3 -146 141 0
-3 146 -141 0
-4 -141 146 0
-4 -137 146 0
-4 -146 141 137 0
-5 -146 141 0
-5 146 -141 0
-6 -146 141 0
-6 146 -141 0
-7 -141 146 0
-7 -138 146 0
-7 -146 141 138 0
-8 -146 141 0
-8 146 -141 0
-9 -141 146 0
-9 -139 146 0
-9 -146 141 139 0
-10 -141 146 0
-10 -140 146 0
-10 -146 141 140 0
-61 -146 141 0
-61 146 -141 0
-11 -147 142 0
-11 -147 143 0
-11 147 -142 -143 0
-12 -147 142 0
-12 -147 144 0
-12 147 -142 -144 0
-13 -147 142 0
-13 -147 145 0
-13 147 -142 -145 0
-14 -147 142 0
-14 -147 146 0
-14 147 -142 -146 0
-15 -147 142 0
-15 147 -142 0
-16 -147 142 0
-16 147 -142 0
-17 -147 142 0
-17 147 -142 0
-18 -147 142 0
-18 147 -142 0
-19 -147 142 0
-19 147 -142 0
-20 -147 142 0
-20 147 -142 0
-62 -147 142 0
-62 147 -142 0
-11 -143 148 0
-11 -142 148 0
-11 -148 143 142 0
-12 -148 143 0
-12 148 -143 0
-13 -148 143 0
-13 148 -143 0
-14 -148 143 0
-14 148 -143 0
-15 -148 143 0
-15 -148 144 0
-15 148 -143 -144 0
-16 -148 143 0
-16 -148 145 0
-16 148 -143 -145 0
-17 -148 143 0
-17 -148 146 0
-17 148 -143 -146 0
-18 -148 143 0
-18 148 -143 0
-19 -148 143 0
-19 148 -143 0
-20 -148 143 0
-20 148 -143 0
-62 -148 143 0
-62 148 -143 0
-11 -149 144 0
-11 149 -144 0
-12 -144 149 0
-12 -142 149 0
-12 -149 144 142 0
-13 -149 144 0
-13 149 -144 0
-14 -149 144 0
-14 149 -144 0
-15 -144 149 0
-15 -143 149 0
-15 -149 144 143 0
-16 -149 144 0
-16 149 -144 0
-17 -149 144 0
-17 149 -144 0
-18 -149 144 0
-18 -149 145 0
-18 149 -144 -145 0
-19 -149 144 0
-19 -149 146 0
-19 149 -144 -146 0
-20 -149 144 0
-20 149 -144 0
-62 -149 144 0
-62 149 -144 0
-11 -150 145 0
-11 150 -145 0
-12 -150 145 0
-12 150 -145 0
-13 -145 150 0
-13 -142 150 0
-13 -150 145 142 0
-14 -150 145 0
-14 150 -145 0
-15 -150 145 0
-15 150 -145 0
-16 -145 150 0
-16 -143 150 0
-16 -150 145 143 0
-17 -150 145 0
-17 150 -145 0
-18 -145 150 0
-18 -144 150 0
-18 -150 145 144 0
-19 -150 145 0
-19 150 -145 0
-20 -150 145 0
-20 -150 146 0
-20 150 -145 -146 0
-62 -150 145 0
-62 150 -145 0
-11 -151 146 0
-11 151 -146 0
-12 -151 146 0
-12 151 -146 0
-13 -151 146 0
-13 151 -146 0
-14 -146 151 0
-14 -142 151 0
-14 -151 146 142 0
-15 -151 146 0
-15 151 -146 0
-16 -151 146 0
-16 151 -146 0
-17 -146 151 0
-17 -143 151 0
-17 -151 146 143 0
-18 -151 146 0
-18 151 -146 0
-19 -146 151 0
-19 -144 151 0
-19 -151 146 144 0
-20 -146 151 0
-20 -145 151 0
-20 -151 146 145 0
-62 -151 146 0
-62 151 -146 0
-21 -152 147 0
-21 -152 148 0
-21 152 -147 -148 0
-22 -152 147 0
-22 -152 149 0
-22 152 -147 -149 0
-23 -152 147 0
-23 -152 150 0
-23 152 -147 -150 0
-24 -152 147 0
-24 -152 151 0
-24 152 -147 -151 0
-25 -152 147 0
-25 152 -147 0
-26 -152 147 0
-26 152 -147 0
-27 -152 147 0
-27 152 -147 0
-28 -152 147 0
-28 152 -147 0
-29 -152 147 0
-29 152 -147 0
-30 -152 147 0
-30 152 -147 0
-63 -152 147 0
-63 152 -147 0
-21 -148 153 0
-21 -147 153 0
-21 -153 148 147 0
-22 -153 148 0
-22 153 -148 0
-23 -153 148 0
-23 153 -148 0
-24 -153 148 0
-24 153 -148 0
-25 -153 148 0
-25 -153 149 0
-25 153 -148 -149 0
-26 -153 148 0
-26 -153 150 0
-26 153 -148 -150 0
-27 -153 148 0
-27 -153 151 0
-27 153 -148 -151 0
-28 -153 148 0
-28 153 -148 0
-29 -153 148 0
-29 153 -148 0
-30 -153 148 0
-30 153 -148 0
-63 -153 148 0
-63 153 -148 0
-21 -154 149 0
-21 154 -149 0
-22 -149 154 0
-22 -147 154 0
-22 -154 149 147 0
-23 -154 149 0
-23 154 -149 0
-24 -154 149 0
-24 154 -149 0
-25 -149 154 0
-25 -148 154 0
-25 -154 149 148 0
-26 -154 149 0
-26 154 -149 0
-27 -154 149 0
-27 154 -149 0
-28 -154 149 0
-28 -154 150 0
-28 154 -149 -150 0
-29 -154 149 0
-29 -154 151 0
-29 154 -149 -151 0
-30 -154 149 0
-30 154 -149 0
-63 -154 149 0
-63 154 -149 0
-21 -155 150 0
-21 155 -150 0
-22 -155 150 0
-22 155 -150 0
-23 -150 155 0
-23 -147 155 0
-23 -155 150 147 0
-24 -155 150 0
-24 155 -150 0
-25 -155 150 0
-25 155 -150 0
-26 -150 155 0
-26 -148 155 0
-26 -155 150 148 0
-27 -155 150 0
-27 155 -150 0
-28 -150 155 0
-28 -149 155 0
-28 -155 150 149 0
-29 -155 150 0
-29 155 -150 0
-30 -155 150 0
-30 -155 151 0
-30 155 -150 -151 0
-63 -155 150 0
-63 155 -150 0
-21 -156 151 0
-21 156 -151 0
-22 -156 151 0
-22 156 -151 0
-23 -156 151 0
-23 156 -151 0
-24 -151 156 0
-24 -147 156 0
-24 -156 151 147 0
-25 -156 151 0
-25 156 -151 0
-26 -156 151 0
-26 156 -151 0
-27 -151 156 0
-27 -148 156 0
-27 -156 151 148 0
-28 -156 151 0
-28 156 -151 0
-29 -151 156 0
-29 -149 156 0
-29 -156 151 149 0
-30 -151 156 0
-30 -150 156 0
-30 -156 151 150 0
-63 -156 151 0
-63 156 -151 0
-31 -157 152 0
-31 -157 153 0
-31 157 -152 -153 0
-32 -157 152 0
-32 -157 154 0
-32 157 -152 -154 0
-33 -157 152 0
-33 -157 155 0
-33 157 -152 -155 0
-34 -157 152 0
-34 -157 156 0
-34 157 -152 -156 0
-35 -157 152 0
-35 157 -152 0
-36 -157 152 0
-36 157 -152 0
-37 -157 152 0
-37 157 -152 0
-38 -157 152 0
-38 157 -152 0
-39 -157 152 0
-39 157 -152 0
-40 -157 152 0
-40 157 -152 0
-64 -157 152 0
-64 157 -152 0
-31 -153 158 0
-31 -152 158 0
-31 -158 153 152 0
-32 -158 153 0
-32 158 -153 0
-33 -158 153 0
-33 158 -153 0
-34 -158 153 0
-34 158 -153 0
-35 -158 153 0
-35 -158 154 0
-35 158 -153 -154 0
-36 -158 153 0
-36 -158 155 0
-36 158 -153 -155 0
-37 -158 153 0
-37 -158 156 0
-37 158 -153 -156 0
-38 -158 153 0
-38 158 -153 0
-39 -158 153 0
-39 158 -153 0
-40 -158 153 0
-40 158 -153 0
-64 -158 153 0
-64 158 -153 0
-31 -159 154 0
-31 159 -154 0
-32 -154 159 0
-32 -152 159 0
-32 -159 154 152 0
-33 -159 154 0
-33 159 -154 0
-34 -159 154 0
-34 159 -154 0
-35 -154 159 0
-35 -153 159 0
-35 -159 154 153 0
-36 -159 154 0
-36 159 -154 0
-37 -159 154 0
-37 159 -154 0
-38 -159 154 0
-38 -159 155 0
-38 159 -154 -155 0
-39 -159 154 0
-39 -159 156 0
-39 159 -154 -156 0
-40 -159 154 0
-40 159 -154 0
-64 -159 154 0
-64 159 -154 0
-31 -160 155 0
-31 160 -155 0
-32 -160 155 0
-32 160 -155 0
-33 -155 160 0
-33 -152 160 0
-33 -160 155 152 0
-34 -160 155 0
-34 160 -155 0
-35 -160 155 0
-35 160 -155 0
-36 -155 160 0
-36 -153 160 0
-36 -160 155 153 0
-37 -160 155 0
-37 160 -155 0
-38 -155 160 0
-38 -154 160 0
-38 -160 155 154 0
-39 -160 155 0
-39 160 -155 0
-40 -160 155 0
-40 -160 156 0
-40 160 -155 -156 0
-64 -160 155 0
-64 160 -155 0
-31 -161 156 0
-31 161 -156 0
-32 -161 156 0
-32 161 -156 0
-33 -161 156 0
-33 161 -156 0
-34 -156 161 0
-34 -152 161 0
-34 -161 156 152 0
-35 -161 156 0
-35 161 -156 0
-36 -161 156 0
-36 161 -156 0
-37 -156 161 0
-37 -153 161 0
-37 -161 156 153 0
-38 -161 156 0
-38 161 -156 0
-39 -156 161 0
-39 -154 161 0
-39 -161 156 154 0
-40 -156 161 0
-40 -155 161 0
-40 -161 156 155 0
-64 -161 156 0
-64 161 -156 0
-41 -162 157 0
-41 -162 158 0
-41 162 -157 -158 0
-42 -162 157 0
-42 -162 159 0
-42 162 -157 -159 0
-43 -162 157 0
-43 -162 160 0
-43 162 -157 -160 0
-44 -162 157 0
-44 -162 161 0
-44 162 -157 -161 0
-45 -162 157 0
-45 162 -157 0
-46 -162 157 0
-46 162 -157 0
-47 -162 157 0
-47 162 -157 0
-48 -162 157 0
-48 162 -157 0
-49 -162 157 0
-49 162 -157 0
-50 -162 157 0
-50 162 -157 0
-65 -162 157 0
-65 162 -157 0
-41 -158 163 0
-41 -157 163 0
-41 -163 158 157 0
-42 -163 158 0
-42 163 -158 0
-43 -163 158 0
-43 163 -158 0
-44 -163 158 0
-44 163 -158 0
-45 -163 158 0
-45 -163 159 0
-45 163 -158 -159 0
-46 -163 158 0
-46 -163 160 0
-46 163 -158 -160 0
-47 -163 158 0
-47 -163 161 0
-47 163 -158 -161 0
-48 -163 158 0
-48 163 -158 0
-49 -163 158 0
-49 163 -158 0
-50 -163 158 0
-50 163 -158 0
-65 -163 158 0
-65 163 -158 0
-41 -164 159 0
-41 164 -159 0
-42 -159 164 0
-42 -157 164 0
-42 -164 159 157 0
-43 -164 159 0
-43 164 -159 0
-44 -164 159 0
-44 164 -159 0
-45 -159 164 0
-45 -158 164 0
-45 -164 159 158 0
-46 -164 159 0
-46 164 -159 0
-47 -164 159 0
-47 164 -159 0
-48 -164 159 0
-48 -164 160 0
-48 164 -159 -160 0
-49 -164 159 0
-49 -164 161 0
-49 164 -159 -161 0
-50 -164 159 0
-50 164 -159 0
-65 -164 159 0
-65 164 -159 0
-41 -165 160 0
-41 165 -160 0
-42 -165 160 0
-42 165 -160 0
-43 -160 165 0
-43 -157 165 0
-43 -165 160 157 0
-44 -165 160 0
-44 165 -160 0
-45 -165 160 0
-45 165 -160 0
-46 -160 165 0
-46 -158 165 0
-46 -165 160 158 0
-47 -165 160 0
-47 165 -160 0
-48 -160 165 0
-48 -159 165 0
-48 -165 160 159 0
-49 -165 160 0
-49 165 -160 0
-50 -165 160 0
-50 -165 161 0
-50 165 -160 -161 0
-65 -165 160 0
-65 165 -160 0
-41 -166 161 0
-41 166 -161 0
-42 -166 161 0
-42 166 -161 0
-43 -166 161 0
-43 166 -161 0
-44 -161 166 0
-44 -157 166 0
-44 -166 161 157 0
-45 -166 161 0
-45 166 -161 0
-46 -166 161 0
-46 166 -161 0
-47 -161 166 0
-47 -158 166 0
-47 -166 161 158 0
-48 -166 161 0
-48 166 -161 0
-49 -161 166 0
-49 -159 166 0
-49 -166 161 159 0
-50 -161 166 0
-50 -160 166 0
-50 -166 161 160 0
-65 -166 161 0
-65 166 -161 0
-51 -167 162 0
-51 -167 163 0
-51 167 -162 -163 0
-52 -167 162 0
-52 -167 164 0
-52 167 -162 -164 0
-53 -167 162 0
-53 -167 165 0
-53 167 -162 -165 0
-54 -167 162 0
-54 -167 166 0
-54 167 -162 -166 0
-55 -167 162 0
-55 167 -162 0
-56 -167 162 0
-56 167 -162 0
-57 -167 162 0
-57 167 -162 0
-58 -167 162 0
-58 167 -162 0
-59 -167 162 0
-59 167 -162 0
-60 -167 162 0
-60 167 -162 0
-66 -167 162 0
-66 167 -162 0
-51 -163 168 0
-51 -162 168 0
-51 -168 163 162 0
-52 -168 163 0
-52 168 -163 0
-53 -168 163 0
-53 168 -163 0
-54 -168 163 0
-54 168 -163 0
-55 -168 163 0
-55 -168 164 0
-55 168 -163 -164 0
-56 -168 163 0
-56 -168 165 0
-56 168 -163 -165 0
-57 -168 163 0
-57 -168 166 0
-57 168 -163 -166 0
-58 -168 163 0
-58 168 -163 0
-59 -168 163 0
-59 168 -163 0
-60 -168 163 0
-60 168 -163 0
-66 -168 163 0
-66 168 -163 0
-51 -169 164 0
-51 169 -164 0
-52 -164 169 0
-52 -162 169 0
-52 -169 164 162 0
-53 -169 164 0
-53 169 -164 0
-54 -169 164 0
-54 169 -164 0
-55 -164 169 0
-55 -163 169 0
-55 -169 164 163 0
-56 -169 164 0
-56 169 -164 0
-57 -169 164 0
-57 169 -164 0
-58 -169 164 0
-58 -169 165 0
-58 169 -164 -165 0
-59 -169 164 0
-59 -169 166 0
-59 169 -164 -166 0
-60 -169 164 0
-60 169 -164 0
-66 -169 164 0
-66 169 -164 0
-51 -170 165 0
-51 170 -165 0
-52 -170 165 0
-52 170 -165 0
-53 -165 170 0
-53 -162 170 0
-53 -170 165 162 0
-54 -170 165 0
-54 170 -165 0
-55 -170 165 0
-55 170 -165 0
-56 -165 170 0
-56 -163 170 0
-56 -170 165 163 0
-57 -170 165 0
-57 170 -165 0
-58 -165 170 0
-58 -164 170 0
-58 -170 165 164 0
-59 -170 165 0
-59 170 -165 0
-60 -170 165 0
-60 -170 166 0
-60 170 -165 -166 0
-66 -170 165 0
-66 170 -165 0
-51 -171 166 0
-51 171 -166 0
-52 -171 166 0
-52 171 -166 0
-53 -171 166 0
-53 171 -166 0
-54 -166 171 0
-54 -162 171 0
-54 -171 166 162 0
-55 -171 166 0
-55 171 -166 0
-56 -171 166 0
-56 171 -166 0
-57 -166 171 0
-57 -163 171 0
-57 -171 166 163 0
-58 -171 166 0
-58 171 -166 0
-59 -166 171 0
-59 -164 171 0
-59 -171 166 164 0
-60 -166 171 0
-60 -165 171 0
-60 -171 166 165 0
-66 -171 166 0
-66 171 -166 0
-172 0
-1 -177 172 0
-1 -177 173 0
-1 177 -172 -173 0
-2 -177 172 0
-2 -177 174 0
-2 177 -172 -174 0
-3 -177 172 0
-3 -177 175 0
-3 177 -172 -175 0
-4 -177 172 0
-4 -177 176 0
-4 177 -172 -176 0
-5 -177 172 0
-5 177 -172 0
-6 -177 172 0
-6 177 -172 0
-7 -177 172 0
-7 177 -172 0
-8 -177 172 0
-8 177 -172 0
-9 -177 172 0
-9 177 -172 0
-10 -177 172 0
-10 177 -172 0
-61 -177 172 0
-61 177 -172 0
-173 0
-1 -173 178 0
-1 -172 178 0
-1 -178 173 172 0
-2 -178 173 0
-2 178 -173 0
-3 -178 173 0
-3 178 -173 0
-4 -178 173 0
-4 178 -173 0
-5 -178 173 0
-5 -178 174 0
-5 178 -173 -174 0
-6 -178 173 0
-6 -178 175 0
-6 178 -173 -175 0
-7 -178 173 0
-7 -178 176 0
-7 178 -173 -176 0
-8 -178 173 0
-8 178 -173 0
-9 -178 173 0
-9 178 -173 0
-10 -178 173 0
-10 178 -173 0
-61 -178 173 0
-61 178 -173 0
174 0
-1 -179 174 0
-1 179 -174 0
-2 -174 179 0
-2 -172 179 0
-2 -179 174 172 0
-3 -179 174 0
-3 179 -174 0
-4 -179 174 0
-4 179 -174 0
-5 -174 179 0
-5 -173 179 0
-5 -179 174 173 0
-6 -179 174 0
-6 179 -174 0
-7 -179 174 0
-7 179 -174 0
-8 -179 174 0
-8 -179 175 0
-8 179 -174 -175 0
-9 -179 174 0
-9 -179 176 0
-9 179 -174 -176 0
-10 -179 174 0
-10 179 -174 0
-61 -179 174 0
-61 179 -174 0
175 0
-1 -180 175 0
-1 180 -175 0
-2 -180 175 0
-2 180 -175 0
-3 -175 180 0
-3 -172 180 0
-3 -180 175 172 0
-4 -180 175 0
-4 180 -175 0
-5 -180 175 0
-5 180 -175 0
-6 -175 180 0
-6 -173 180 0
-6 -180 175 173 0
-7 -180 175 0
-7 180 -175 0
-8 -175 180 0
-8 -174 180 0
-8 -180 175 174 0
-9 -180 175 0
-9 180 -175 0
-10 -180 175 0
-10 -180 176 0
-10 180 -175 -176 0
-61 -180 175 0
-61 180 -175 0
-176 0
-1 -181 176 0
-1 181 -176 0
-2 -181 176 0
-2 181 -176 0
-3 -181 176 0
-3 181 -176 0
-4 -176 181 0
-4 -172 181 0
-4 -181 176 172 0
-5 -181 176 0
-5 181 -176 0
-6 -181 176 0
-6 181 -176 0
-7 -176 181 0
-7 -173 181 0
-7 -181 176 173 0
-8 -181 176 0
-8 181 -176 0
-9 -176 181 0
-9 -174 181 0
-9 -181 176 174 0
-10 -176 181 0
-10 -175 181 0
-10 -181 176 175 0
-61 -181 176 0
-61 181 -176 0
-11 -182 177 0
-11 -182 178 0
-11 182 -177 -178 0
-12 -182 177 0
-12 -182 179 0
-12 182 -177 -179 0
-13 -182 177 0
-13 -182 180 0
-13 182 -177 -180 0
-14 -182 177 0
-14 -182 181 0
-14 182 -177 -181 0
-15 -182 177 0
-15 182 -177 0
-16 -182 177 0
-16 182 -177 0
-17 -182 177 0
-17 182 -177 0
-18 -182 177 0
-18 182 -177 0
-19 -182 177 0
-19 182 -177 0
-20 -182 177 0
-20 182 -177 0
-62 -182 177 0
-62 182 -177 0
-11 -178 183 0
-11 -177 183 0
-11 -183 178 177 0
-12 -183 178 0
-12 183 -178 0
-13 -183 178 0
-13 183 -178 0
-14 -183 178 0
-14 183 -178 0
-15 -183 178 0
-15 -183 179 0
-15 183 -178 -179 0
-16 -183 178 0
-16 -183 180 0
-16 183 -178 -180 0
-17 -183 178 0
-17 -183 181 0
-17 183 -178 -181 0
-18 -183 178 0
-18 183 -178 0
-19 -183 178 0
-19 183 -178 0
-20 -183 178 0
-20 183 -178 0
-62 -183 178 0
-62 183 -178 0
-11 -184 179 0
-11 184 -179 0
-12 -179 184 0
-12 -177 184 0
-12 -184 179 177 0
-13 -184 179 0
-13 184 -179 0
-14 -184 179 0
-14 184 -179 0
-15 -179 184 0
-15 -178 184 0
-15 -184 179 178 0
-16 -184 179 0
-16 184 -179 0
-17 -184 179 0
-17 184 -179 0
-18 -184 179 0
-18 -184 180 0
-18 184 -179 -180 0
-19 -184 179 0
-19 -184 181 0
-19 184 -179 -181 0
-20 -184 179 0
-20 184 -179 0
-62 -184 179 0
-62 184 -179 0
-11 -185 180 0
-11 185 -180 0
-12 -185 180 0
-12 185 -180 0
-13 -180 185 0
-13 -177 185 0
-13 -185 180 177 0
-14 -185 180 0
-14 185 -180 0
-15 -185 180 0
-15 185 -180 0
-16 -180 185 0
-16 -178 185 0
-16 -185 180 178 0
-17 -185 180 0
-17 185 -180 0
-18 -180 185 0
-18 -179 185 0
-18 -185 180 179 0
-19 -185 180 0
-19 185 -180 0
-20 -185 180 0
-20 -185 181 0
-20 185 -180 -181 0
-62 -185 180 0
-62 185 -180 0
-11 -186 181 0
-11 186 -181 0
-12 -186 181 0
-12 186 -181 0
-13 -186 181 0
-13 186 -181 0
-14 -181 186 0
-14 -177 186 0
-14 -186 181 177 0
-15 -186 181 0
-15 186 -181 0
-16 -186 181 0
-16 186 -181 0
-17 -181 186 0
-17 -178 186 0
-17 -186 181 178 0
-18 -186 181 0
-18 186 -181 0
-19 -181 186 0
-19 -179 186 0
-19 -186 181 179 0
-20 -181 186 0
-20 -180 186 0
-20 -186 181 180 0
-62 -186 181 0
-62 186 -181 0
-21 -187 182 0
-21 -187 183 0
-21 187 -182 -183 0
-22 -187 182 0
-22 -187 184 0
-22 187 -182 -184 0
-23 -187 182 0
-23 -187 185 0
-23 187 -182 -185 0
-24 -187 182 0
-24 -187 186 0
-24 187 -182 -186 0
-25 -187 182 0
-25 187 -182 0
-26 -187 182 0
-26 187 -182 0
-27 -187 182 0
-27 187 -182 0
-28 -187 182 0
-28 187 -182 0
-29 -187 182 0
-29 187 -182 0
-30 -187 182 0
-30 187 -182 0
-63 -187 182 0
-63 187 -182 0
-21 -183 188 0
-21 -182 188 0
-21 -188 183 182 0
-22 -188 183 0
-22 188 -183 0
-23 -188 183 0
-23 188 -183 0
-24 -188 183 0
-24 188 -183 0
-25 -188 183 0
-25 -188 184 0
-25 188 -183 -184 0
-26 -188 183 0
-26 -188 185 0
-26 188 -183 -185 0
-27 -188 183 0
-27 -188 186 0
-27 188 -183 -186 0
-28 -188 183 0
-28 188 -183 0
-29 -188 183 0
-29 188 -183 0
-30 -188 183 0
-30 188 -183 0
-63 -188 183 0
-63 188 -183 0
-21 -189 184 0
-21 189 -184 0
-22 -184 189 0
-22 -182 189 0
-22 -189 184 182 0
-23 -189 184 0
-23 189 -184 0
-24 -189 184 0
-24 189 -184 0
-25 -184 189 0
-25 -183 189 0
-25 -189 184 183 0
-26 -189 184 0
-26 189 -184 0
-27 -189 184 0
-27 189 -184 0
-28 -189 184 0
-28 -189 185 0
-28 189 -184 -185 0
-29 -189 184 0
-29 -189 186 0
-29 189 -184 -186 0
-30 -189 184 0
-30 189 -184 0
-63 -189 184 0
-63 189 -184 0
-21 -190 185 0
-21 190 -185 0
-22 -190 185 0
-22 190 -185 0
-23 -185 190 0
-23 -182 190 0
-23 -190 185 182 0
-24 -190 185 0
-24 190 -185 0
-25 -190 185 0
-25 190 -185 0
-26 -185 190 0
-26 -183 190 0
-26 -190 185 183 0
-27 -190 185 0
-27 190 -185 0
-28 -185 190 0
-28 -184 190 0
-28 -190 185 184 0
-29 -190 185 0
-29 190 -185 0
-30 -190 185 0
-30 -190 186 0
-30 190 -185 -186 0
-63 -190 185 0
-63 190 -185 0
-21 -191 186 0
-21 191 -186 0
-22 -191 186 0
-22 191 -186 0
-23 -191 186 0
-23 191 -186 0
-24 -186 191 0
-24 -182 191 0
-24 -191 186 182 0
-25 -191 186 0
-25 191 -186 0
-26 -191 186 0
-26 191 -186 0
-27 -186 191 0
-27 -183 191 0
-27 -191 186 183 0
-28 -191 186 0
-28 191 -186 0
-29 -186 191 0
-29 -184 191 0
-29 -191 186 184 0
-30 -186 191 0
-30 -185 191 0
-30 -191 186 185 0
-63 -191 186 0
-63 191 -186 0
-31 -192 187 0
-31 -192 188 0
-31 192 -187 -188 0
-32 -192 187 0
-32 -192 189 0
-32 192 -187 -189 0
-33 -192 187 0
-33 -192 190 0
-33 192 -187 -190 0
-34 -192 187 0
-34 -192 191 0
-34 192 -187 -191 0
-35 -192 187 0
-35 192 -187 0
-36 -192 187 0
-36 192 -187 0
-37 -192 187 0
-37 192 -187 0
-38 -192 187 0
-38 192 -187 0
-39 -192 187 0
-39 192 -187 0
-40 -192 187 0
-40 192 -187 0
-64 -192 187 0
-64 192 -187 0
-31 -188 193 0
-31 -187 193 0
-31 -193 188 187 0
-32 -193 188 0
-32 193 -188 0
-33 -193 188 0
-33 193 -188 0
-34 -193 188 0
-34 193 -188 0
-35 -193 188 0
-35 -193 189 0
-35 193 -188 -189 0
-36 -193 188 0
-36 -193 190 0
-36 193 -188 -190 0
-37 -193 188 0
-37 -193 191 0
-37 193 -188 -191 0
-38 -193 188 0
-38 193 -188 0
-39 -193 188 0
-39 193 -188 0
-40 -193 188 0
-40 193 -188 0
-64 -193 188 0
-64 193 -188 0
-31 -194 189 0
-31 194 -189 0
-32 -189 194 0
-32 -187 194 0
-32 -194 189 187 0
-33 -194 189 0
-33 194 -189 0
-34 -194 189 0
-34 194 -189 0
-35 -189 194 0
-35 -188 194 0
-35 -194 189 188 0
-36 -194 189 0
-36 194 -189 0
-37 -194 189 0
-37 194 -189 0
-38 -194 189 0
-38 -194 190 0
-38 194 -189 -190 0
-39 -194 189 0
-39 -194 191 0
-39 194 -189 -191 0
-40 -194 189 0
-40 194 -189 0
-64 -194 189 0
-64 194 -189 0
-31 -195 190 0
-31 195 -190 0
-32 -195 190 0
-32 195 -190 0
-33 -190 195 0
-33 -187 195 0
-33 -195 190 187 0
-34 -195 190 0
-34 195 -190 0
-35 -195 190 0
-35 195 -190 0
-36 -190 195 0
-36 -188 195 0
-36 -195 190 188 0
-37 -195 190 0
-37 195 -190 0
-38 -190 195 0
-38 -189 195 0
-38 -195 190 189 0
-39 -195 190 0
-39 195 -190 0
-40 -195 190 0
-40 -195 191 0
-40 195 -190 -191 0
-64 -195 190 0
-64 195 -190 0
-31 -196 191 0
-31 196 -191 0
-32 -196 191 0
-32 196 -191 0
-33 -196 191 0
-33 196 -191 0
-34 -191 196 0
-34 -187 196 0
-34 -196 191 187 0
-35 -196 191 0
-35 196 -191 0
-36 -196 191 0
-36 196 -191 0
-37 -191 196 0
-37 -188 196 0
-37 -196 191 188 0
-38 -196 191 0
-38 196 -191 0
-39 -191 196 0
-39 -189 196 0
-39 -196 191 189 0
-40 -191 196 0
-40 -190 196 0
-40 -196 191 190 0
-64 -196 191 0
-64 196 -191 0
-41 -197 192 0
-41 -197 193 0
-41 197 -192 -193 0
-42 -197 192 0
-42 -197 194 0
-42 197 -192 -194 0
-43 -197 192 0
-43 -197 195 0
-43 197 -192 -195 0
-44 -197 192 0
-44 -197 196 0
-44 197 -192 -196 0
-45 -197 192 0
-45 197 -192 0
-46 -197 192 0
-46 197 -192 0
-47 -197 192 0
-47 197 -192 0
-48 -197 192 0
-48 197 -192 0
-49 -197 192 0
-49 197 -192 0
-50 -197 192 0
-50 197 -192 0
-65 -197 192 0
-65 197 -192 0
-41 -193 198 0
-41 -192 198 0
-41 -198 193 192 0
-42 -198 193 0
-42 198 -193 0
-43 -198 193 0
-43 198 -193 0
-44 -198 193 0
-44 198 -193 0
-45 -198 193 0
-45 -198 194 0
-45 198 -193 -194 0
-46 -198 193 0
-46 -198 195 0
-46 198 -193 -195 0
-47 -198 193 0
-47 -198 196 0
-47 198 -193 -196 0
-48 -198 193 0
-48 198 -193 0
-49 -198 193 0
-49 198 -193 0
-50 -198 193 0
-50 198 -193 0
-65 -198 193 0
-65 198 -193 0
-41 -199 194 0
-41 199 -194 0
-42 -194 199 0
-42 -192 199 0
-42 -199 194 192 0
-43 -199 194 0
-43 199 -194 0
-44 -199 194 0
-44 199 -194 0
-45 -194 199 0
-45 -193 199 0
-45 -199 194 193 0
-46 -199 194 0
-46 199 -194 0
-47 -199 194 0
-47 199 -194 0
-48 -199 194 0
-48 -199 195 0
-48 199 -194 -195 0
-49 -199 194 0
-49 -199 196 0
-49 199 -194 -196 0
-50 -199 194 0
-50 199 -194 0
-65 -199 194 0
-65 199 -194 0
-41 -200 195 0
-41 200 -195 0
-42 -200 195 0
-42 200 -195 0
-43 -195 200 0
-43 -192 200 0
-43 -200 195 192 0
-44 -200 195 0
-44 200 -195 0
-45 -200 195 0
-45 200 -195 0
-46 -195 200 0
-46 -193 200 0
-46 -200 195 193 0
-47 -200 195 0
-47 200 -195 0
-48 -195 200 0
-48 -194 200 0
-48 -200 195 194 0
-49 -200 195 0
-49 200 -195 0
-50 -200 195 0
-50 -200 196 0
-50 200 -195 -196 0
-65 -200 195 0
-65 200 -195 0
-41 -201 196 0
-41 201 -196 0
-42 -201 196 0
-42 201 -196 0
-43 -201 196 0
-43 201 -196 0
-44 -196 201 0
-44 -192 201 0
-44 -201 196 192 0
-45 -201 196 0
-45 201 -196 0
-46 -201 196 0
-46 201 -196 0
-47 -196 201 0
-47 -193 201 0
-47 -201 196 193 0
-48 -201 196 0
-48 201 -196 0
-49 -196 201 0
-49 -194 201 0
-49 -201 196 194 0
-50 -196 201 0
-50 -195 201 0
-50 -201 196 195 0
-65 -201 196 0
-65 201 -196 0
-51 -202 197 0
-51 -202 198 0
-51 202 -197 -198 0
-52 -202 197 0
-52 -202 199 0
-52 202 -197 -199 0
-53 -202 197 0
-53 -202 200 0
-53 202 -197 -200 0
-54 -202 197 0
-54 -202 201 0
-54 202 -197 -201 0
-55 -202 197 0
-55 202 -197 0
-56 -202 197 0
-56 202 -197 0
-57 -202 197 0
-57 202 -197 0
-58 -202 197 0
-58 202 -197 0
-59 -202 197 0
-59 202 -197 0
-60 -202 197 0
-60 202 -197 0
-66 -202 197 0
-66 202 -197 0
-51 -198 203 0
-51 -197 203 0
-51 -203 198 197 0
-52 -203 198 0
-52 203 -198 0
-53 -203 198 0
-53 203 -198 0
-54 -203 198 0
-54 203 -198 0
-55 -203 198 0
-55 -203 199 0
-55 203 -198 -199 0
-56 -203 198 0
-56 -203 200 0
-56 203 -198 -200 0
-57 -203 198 0
-57 -203 201 0
-57 203 -198 -201 0
-58 -203 198 0
-58 203 -198 0
-59 -203 198 0
-59 203 -198 0
-60 -203 198 0
-60 203 -198 0
-66 -203 198 0
-66 203 -198 0
-51 -204 199 0
-51 204 -199 0
-52 -199 204 0
-52 -197 204 0
-52 -204 199 197 0
-53 -204 199 0
-53 204 -199 0
-54 -204 199 0
-54 204 -199 0
-55 -199 204 0
-55 -198 204 0
-55 -204 199 198 0
-56 -204 199 0
-56 204 -199 0
-57 -204 199 0
-57 204 -199 0
-58 -204 199 0
-58 -204 200 0
-58 204 -199 -200 0
-59 -204 199 0
-59 -204 201 0
-59 204 -199 -201 0
-60 -204 199 0
-60 204 -199 0
-66 -204 199 0
-66 204 -199 0
-51 -205 200 0
-51 205 -200 0
-52 -205 200 0
-52 205 -200 0
-53 -200 205 0
-53 -197 205 0
-53 -205 200 197 0
-54 -205 200 0
-54 205 -200 0
-55 -205 200 0
-55 205 -200 0
-56 -200 205 0
-56 -198 205 0
-56 -205 200 198 0
-57 -205 200 0
-57 205 -200 0
-58 -200 205 0
-58 -199 205 0
-58 -205 200 199 0
-59 -205 200 0
-59 205 -200 0
-60 -205 200 0
-60 -205 201 0
-60 205 -200 -201 0
-66 -205 200 0
-66 205 -200 0
-51 -206 201 0
-51 206 -201 0
-52 -206 201 0
-52 206 -201 0
-53 -206 201 0
-53 206 -201 0
-54 -201 206 0
-54 -197 206 0
-54 -206 201 197 0
-55 -206 201 0
-55 206 -201 0
-56 -206 201 0
-56 206 -201 0
-57 -201 206 0
-57 -198 206 0
-57 -206 201 198 0
-58 -206 201 0
-58 206 -201 0
-59 -201 206 0
-59 -199 206 0
-59 -206 201 199 0
-60 -201 206 0
-60 -200 206 0
-60 -206 201 200 0
-66 -206 201 0
-66 206 -201 0
-207 0
-1 -212 207 0
-1 -212 208 0
-1 212 -207 -208 0
-2 -212 207 0
-2 -212 209 0
-2 212 -207 -209 0
-3 -212 207 0
-3 -212 210 0
-3 212 -207 -210 0
-4 -212 207 0
-4 -212 211 0
-4 212 -207 -211 0
-5 -212 207 0
-5 212 -207 0
-6 -212 207 0
-6 212 -207 0
-7 -212 207 0
-7 212 -207 0
-8 -212 207 0
-8 212 -207 0
-9 -212 207 0
-9 212 -207 0
-10 -212 207 0
-10 212 -207 0
-61 -212 207 0
-61 212 -207 0
208 0
-1 -208 213 0
-1 -207 213 0
-1 -213 208 207 0
-2 -213 208 0
-2 213 -208 0
-3 -213 208 0
-3 213 -208 0
-4 -213 208 0
-4 213 -208 0
-5 -213 208 0
-5 -213 209 0
-5 213 -208 -209 0
-6 -213 208 0
-6 -213 210 0
-6 213 -208 -210 0
-7 -213 208 0
-7 -213 211 0
-7 213 -208 -211 0
-8 -213 208 0
-8 213 -208 0
-9 -213 208 0
-9 213 -208 0
-10 -213 208 0
-10 213 -208 0
-61 -213 208 0
-61 213 -208 0
-209 0
-1 -214 209 0
-1 214 -209 0
-2 -209 214 0
-2 -207 214 0
-2 -214 209 207 0
-3 -214 209 0
-3 214 -209 0
-4 -214 209 0
-4 214 -209 0
-5 -209 214 0
-5 -208 214 0
-5 -214 209 208 0
-6 -214 209 0
-6 214 -209 0
-7 -214 209 0
-7 214 -209 0
-8 -214 209 0
-8 -214 210 0
-8 214 -209 -210 0
-9 -214 209 0
-9 -214 211 0
-9 214 -209 -211 0
-10 -214 209 0
-10 214 -209 0
-61 -214 209 0
-61 214 -209 0
-210 0
-1 -215 210 0
-1 215 -210 0
-2 -215 210 0
-2 215 -210 0
-3 -210 215 0
-3 -207 215 0
-3 -215 210 207 0
-4 -215 210 0
-4 215 -210 0
-5 -215 210 0
-5 215 -210 0
-6 -210 215 0
-6 -208 215 0
-6 -215 210 208 0
-7 -215 210 0
-7 215 -210 0
-8 -210 215 0
-8 -209 215 0
-8 -215 210 209 0
-9 -215 210 0
-9 215 -210 0
-10 -215 210 0
-10 -215 211 0
-10 215 -210 -211 0
-61 -215 210 0
-61 215 -210 0
-211 0
-1 -216 211 0
-1 216 -211 0
-2 -216 211 0
-2 216 -211 0
-3 -216 211 0
-3 216 -211 0
-4 -211 216 0
-4 -207 216 0
-4 -216 211 207 0
-5 -216 211 0
-5 216 -211 0
-6 -216 211 0
-6 216 -211 0
-7 -211 216 0
-7 -208 216 0
-7 -216 211 208 0
-8 -216 211 0
-8 216 -211 0
-9 -211 216 0
-9 -209 216 0
-9 -216 211 209 0
-10 -211 216 0
-10 -210 216 0
-10 -216 211 210 0
-61 -216 211 0
-61 216 -211 0
-11 -217 212 0
-11 -217 213 0
-11 217 -212 -213 0
-12 -217 212 0
-12 -217 214 0
-12 217 -212 -214 0
-13 -217 212 0
-13 -217 215 0
-13 217 -212 -215 0
-14 -217 212 0
-14 -217 216 0
-14 217 -212 -216 0
-15 -217 212 0
-15 217 -212 0
-16 -217 212 0
-16 217 -212 0
-17 -217 212 0
-17 217 -212 0
-18 -217 212 0
-18 217 -212 0
-19 -217 212 0
-19 217 -212 0
-20 -217 212 0
-20 217 -212 0
-62 -217 212 0
-62 217 -212 0
-11 -213 218 0
-11 -212 218 0
-11 -218 213 212 0
-12 -218 213 0
-12 218 -213 0
-13 -218 213 0
-13 218 -213 0
-14 -218 213 0
-14 218 -213 0
-15 -218 213 0
-15 -218 214 0
-15 218 -213 -214 0
-16 -218 213 0
-16 -218 215 0
-16 218 -213 -215 0
-17 -218 213 0
-17 -218 216 0
-17 218 -213 -216 0
-18 -218 213 0
-18 218 -213 0
-19 -218 213 0
-19 218 -213 0
-20 -218 213 0
-20 218 -213 0
-62 -218 213 0
-62 218 -213 0
-11 -219 214 0
-11 219 -214 0
-12 -214 219 0
-12 -212 219 0
-12 -219 214 212 0
-13 -219 214 0
-13 219 -214 0
-14 -219 214 0
-14 219 -214 0
-15 -214 219 0
-15 -213 219 0
-15 -219 214 213 0
-16 -219 214 0
-16 219 -214 0
-17 -219 214 0
-17 219 -214 0
-18 -219 214 0
-18 -219 215 0
-18 219 -214 -215 0
-19 -219 214 0
-19 -219 216 0
-19 219 -214 -216 0
-20 -219 214 0
-20 219 -214 0
-62 -219 214 0
-62 219 -214 0
-11 -220 215 0
-11 220 -215 0
-12 -220 215 0
-12 220 -215 0
-13 -215 220 0
-13 -212 220 0
-13 -220 215 212 0
-14 -220 215 0
-14 220 -215 0
-15 -220 215 0
-15 220 -215 0
-16 -215 220 0
-16 -213 220 0
-16 -220 215 213 0
-17 -220 215 0
-17 220 -215 0
-18 -215 220 0
-18 -214 220 0
-18 -220 215 214 0
-19 -220 215 0
-19 220 -215 0
-20 -220 215 0
-20 -220 216 0
-20 220 -215 -216 0
-62 -220 215 0
-62 220 -215 0
-11 -221 216 0
-11 221 -216 0
-12 -221 216 0
-12 221 -216 0
-13 -221 216 0
-13 221 -216 0
-14 -216 221 0
-14 -212 221 0
-14 -221 216 212 0
-15 -221 216 0
-15 221 -216 0
-16 -221 216 0
-16 221 -216 0
-17 -216 221 0
-17 -213 221 0
-17 -221 216 213 0
-18 -221 216 0
-18 221 -216 0
-19 -216 221 0
-19 -214 221 0
-19 -221 216 214 0
-20 -216 221 0
-20 -215 221 0
-20 -221 216 215 0
-62 -221 216 0
-62 221 -216 0
-21 -222 217 0
-21 -222 218 0
-21 222 -217 -218 0
-22 -222 217 0
-22 -222 219 0
-22 222 -217 -219 0
-23 -222 217 0
-23 -222 220 0
-23 222 -217 -220 0
-24 -222 217 0
-24 -222 221 0
-24 222 -217 -221 0
-25 -222 217 0
-25 222 -217 0
-26 -222 217 0
-26 222 -217 0
-27 -222 217 0
-27 222 -217 0
-28 -222 217 0
-28 222 -217 0
-29 -222 217 0
-29 222 -217 0
-30 -222 217 0
-30 222 -217 0
-63 -222 217 0
-63 222 -217 0
-21 -218 223 0
-21 -217 223 0
-21 -223 218 217 0
-22 -223 218 0
-22 223 -218 0
-23 -223 218 0
-23 223 -218 0
-24 -223 218 0
-24 223 -218 0
-25 -223 218 0
-25 -223 219 0
-25 223 -218 -219 0
-26 -223 218 0
-26 -223 220 0
-26 223 -218 -220 0
-27 -223 218 0
-27 -223 221 0
-27 223 -218 -221 0
-28 -223 218 0
-28 223 -218 0
-29 -223 218 0
-29 223 -218 0
-30 -223 218 0
-30 223 -218 0
-63 -223 218 0
-63 223 -218 0
-21 -224 219 0
-21 224 -219 0
-22 -219 224 0
-22 -217 224 0
-22 -224 219 217 0
-23 -224 219 0
-23 224 -219 0
-24 -224 219 0
-24 224 -219 0
-25 -219 224 0
-25 -218 224 0
-25 -224 219 218 0
-26 -224 219 0
-26 224 -219 0
-27 -224 219 0
-27 224 -219 0
-28 -224 219 0
-28 -224 220 0
-28 224 -219 -220 0
-29 -224 219 0
-29 -224 221 0
-29 224 -219 -221 0
-30 -224 219 0
-30 224 -219 0
-63 -224 219 0
-63 224 -219 0
-21 -225 220 0
-21 225 -220 0
-22 -225 220 0
-22 225 -220 0
-23 -220 225 0
-23 -217 225 0
-23 -225 220 217 0
-24 -225 220 0
-24 225 -220 0
-25 -225 220 0
-25 225 -220 0
-26 -220 225 0
-26 -218 225 0
-26 -225 220 218 0
-27 -225 220 0
-27 225 -220 0
-28 -220 225 0
-28 -219 225 0
-28 -225 220 219 0
-29 -225 220 0
-29 225 -220 0
-30 -225 220 0
-30 -225 221 0
-30 225 -220 -221 0
-63 -225 220 0
-63 225 -220 0
-21 -226 221 0
-21 226 -221 0
-22 -226 221 0
-22 226 -221 0
-23 -226 221 0
-23 226 -221 0
-24 -221 226 0
-24 -217 226 0
-24 -226 221 217 0
-25 -226 221 0
-25 226 -221 0
-26 -226 221 0
-26 226 -221 0
-27 -221 226 0
-27 -218 226 0
-27 -226 221 218 0
-28 -226 221 0
-28 226 -221 0
-29 -221 226 0
-29 -219 226 0
-29 -226 221 219 0
-30 -221 226 0
-30 -220 226 0
-30 -226 221 220 0
-63 -226 221 0
-63 226 -221 0
-31 -227 222 0
-31 -227 223 0
-31 227 -222 -223 0
-32 -227 222 0
-32 -227 224 0
-32 227 -222 -224 0
-33 -227 222 0
-33 -227 225 0
-33 227 -222 -225 0
-34 -227 222 0
-34 -227 226 0
-34 227 -222 -226 0
-35 -227 222 0
-35 227 -222 0
-36 -227 222 0
-36 227 -222 0
-37 -227 222 0
-37 227 -222 0
-38 -227 222 0
-38 227 -222 0
-39 -227 222 0
-39 227 -222 0
-40 -227 222 0
-40 227 -222 0
-64 -227 222 0
-64 227 -222 0
-31 -223 228 0
-31 -222 228 0
-31 -228 223 222 0
-32 -228 223 0
-32 228 -223 0
-33 -228 223 0
-33 228 -223 0
-34 -228 223 0
-34 228 -223 0
-35 -228 223 0
-35 -228 224 0
-35 228 -223 -224 0
-36 -228 223 0
-36 -228 225 0
-36 228 -223 -225 0
-37 -228 223 0
-37 -228 226 0
-37 228 -223 -226 0
-38 -228 223 0
-38 228 -223 0
-39 -228 223 0
-39 228 -223 0
-40 -228 223 0
-40 228 -223 0
-64 -228 223 0
-64 228 -223 0
-31 -229 224 0
-31 229 -224 0
-32 -224 229 0
-32 -222 229 0
-32 -229 224 222 0
-33 -229 224 0
-33 229 -224 0
-34 -229 224 0
-34 229 -224 0
-35 -224 229 0
-35 -223 229 0
-35 -229 224 223 0
-36 -229 224 0
-36 229 -224 0
-37 -229 224 0
-37 229 -224 0
-38 -229 224 0
-38 -229 225 0
-38 229 -224 -225 0
-39 -229 224 0
-39 -229 226 0
-39 229 -224 -226 0
-40 -229 224 0
-40 229 -224 0
-64 -229 224 0
-64 229 -224 0
-31 -230 225 0
-31 230 -225 0
-32 -230 225 0
-32 230 -225 0
-33 -225 230 0
-33 -222 230 0
-33 -230 225 222 0
-34 -230 225 0
-34 230 -225 0
-35 -230 225 0
-35 230 -225 0
-36 -225 230 0
-36 -223 230 0
-36 -230 225 223 0
-37 -230 225 0
-37 230 -225 0
-38 -225 230 0
-38 -224 230 0
-38 -230 225 224 0
-39 -230 225 0
-39 230 -225 0
-40 -230 225 0
-40 -230 226 0
-40 230 -225 -226 0
-64 -230 225 0
-64 230 -225 0
-31 -231 226 0
-31 231 -226 0
-32 -231 226 0
-32 231 -226 0
-33 -231 226 0
-33 231 -226 0
-34 -226 231 0
-34 -222 231 0
-34 -231 226 222 0
-35 -231 226 0
-35 231 -226 0
-36 -231 226 0
-36 231 -226 0
-37 -226 231 0
-37 -223 231 0
-37 -231 226 223 0
-38 -231 226 0
-38 231 -226 0
-39 -226 231 0
-39 -224 231 0
-39 -231 226 224 0
-40 -226 231 0
-40 -225 231 0
-40 -231 226 225 0
-64 -231 226 0
-64 231 -226 0
-41 -232 227 0
-41 -232 228 0
-41 232 -227 -228 0
-42 -232 227 0
-42 -232 229 0
-42 232 -227 -229 0
-43 -232 227 0
-43 -232 230 0
-43 232 -227 -230 0
-44 -232 227 0
-44 -232 231 0
-44 232 -227 -231 0
-45 -232 227 0
-45 232 -227 0
-46 -232 227 0
-46 232 -227 0
-47 -232 227 0
-47 232 -227 0
-48 -232 227 0
-48 232 -227 0
-49 -232 227 0
-49 232 -227 0
-50 -232 227 0
-50 232 -227 0
-65 -232 227 0
-65 232 -227 0
-41 -228 233 0
-41 -227 233 0
-41 -233 228 227 0
-42 -233 228 0
-42 233 -228 0
-43 -233 228 0
-43 233 -228 0
-44 -233 228 0
-44 233 -228 0
-45 -233 228 0
-45 -233 229 0
-45 233 -228 -229 0
-46 -233 228 0
-46 -233 230 0
-46 233 -228 -230 0
-47 -233 228 0
-47 -233 231 0
-47 233 -228 -231 0
-48 -233 228 0
-48 233 -228 0
-49 -233 228 0
-49 233 -228 0
-50 -233 228 0
-50 233 -228 0
-65 -233 228 0
-65 233 -228 0
-41 -234 229 0
-41 234 -229 0
-42 -229 234 0
-42 -227 234 0
-42 -234 229 227 0
-43 -234 229 0
-43 234 -229 0
-44 -234 229 0
-44 234 -229 0
-45 -229 234 0
-45 -228 234 0
-45 -234 229 228 0
-46 -234 229 0
-46 234 -229 0
-47 -234 229 0
-47 234 -229 0
-48 -234 229 0
-48 -234 230 0
-48 234 -229 -230 0
-49 -234 229 0
-49 -234 231 0
-49 234 -229 -231 0
-50 -234 229 0
-50 234 -229 0
-65 -234 229 0
-65 234 -229 0
-41 -235 230 0
-41 235 -230 0
-42 -235 230 0
-42 235 -230 0
-43 -230 235 0
-43 -227 235 0
-43 -235 230 227 0
-44 -235 230 0
-44 235 -230 0
-45 -235 230 0
-45 235 -230 0
-46 -230 235 0
-46 -228 235 0
-46 -235 230 228 0
-47 -235 230 0
-47 235 -230 0
-48 -230 235 0
-48 -229 235 0
-48 -235 230 229 0
-49 -235 230 0
-49 235 -230 0
-50 -235 230 0
-50 -235 231 0
-50 235 -230 -231 0
-65 -235 230 0
-65 235 -230 0
-41 -236 231 0
-41 236 -231 0
-42 -236 231 0
-42 236 -231 0
-43 -236 231 0
-43 236 -231 0
-44 -231 236 0
-44 -227 236 0
-44 -236 231 227 0
-45 -236 231 0
-45 236 -231 0
-46 -236 231 0
-46 236 -231 0
-47 -231 236 0
-47 -228 236 0
-47 -236 231 228 0
-48 -236 231 0
-48 236 -231 0
-49 -231 236 0
-49 -229 236 0
-49 -236 231 229 0
-50 -231 236 0
-50 -230 236 0
-50 -236 231 230 0
-65 -236 231 0
-65 236 -231 0
-51 -237 232 0
-51 -237 233 0
-51 237 -232 -233 0
-52 -237 232 0
-52 -237 234 0
-52 237 -232 -234 0
-53 -237 232 0
-53 -237 235 0
-53 237 -232 -235 0
-54 -237 232 0
-54 -237 236 0
-54 237 -232 -236 0
-55 -237 232 0
-55 237 -232 0
-56 -237 232 0
-56 237 -232 0
-57 -237 232 0
-57 237 -232 0
-58 -237 232 0
-58 237 -232 0
-59 -237 232 0
-59 237 -232 0
-60 -237 232 0
-60 237 -232 0
-66 -237 232 0
-66 237 -232 0
-51 -233 238 0
-51 -232 238 0
-51 -238 233 232 0
-52 -238 233 0
-52 238 -233 0
-53 -238 233 0
-53 238 -233 0
-54 -238 233 0
-54 238 -233 0
-55 -238 233 0
-55 -238 234 0
-55 238 -233 -234 0
-56 -238 233 0
-56 -238 235 0
-56 238 -233 -235 0
-57 -238 233 0
-57 -238 236 0
-57 238 -233 -236 0
-58 -238 233 0
-58 238 -233 0
-59 -238 233 0
-59 238 -233 0
-60 -238 233 0
-60 238 -233 0
-66 -238 233 0
-66 238 -233 0
-51 -239 234 0
-51 239 -234 0
-52 -234 239 0
-52 -232 239 0
-52 -239 234 232 0
-53 -239 234 0
-53 239 -234 0
-54 -239 234 0
-54 239 -234 0
-55 -234 239 0
-55 -233 239 0
-55 -239 234 233 0
-56 -239 234 0
-56 239 -234 0
-57 -239 234 0
-57 239 -234 0
-58 -239 234 0
-58 -239 235 0
-58 239 -234 -235 0
-59 -239 234 0
-59 -239 236 0
-59 239 -234 -236 0
-60 -239 234 0
-60 239 -234 0
-66 -239 234 0
-66 239 -234 0
-51 -240 235 0
-51 240 -235 0
-52 -240 235 0
-52 240 -235 0
-53 -235 240 0
-53 -232 240 0
-53 -240 235 232 0
-54 -240 235 0
-54 240 -235 0
-55 -240 235 0
-55 240 -235 0
-56 -235 240 0
-56 -233 240 0
-56 -240 235 233 0
-57 -240 235 0
-57 240 -235 0
-58 -235 240 0
-58 -234 240 0
-58 -240 235 234 0
-59 -240 235 0
-59 240 -235 0
-60 -240 235 0
-60 -240 236 0
-60 240 -235 -236 0
-66 -240 235 0
-66 240 -235 0
-51 -241 236 0
-51 241 -236 0
-52 -241 236 0
-52 241 -236 0
-53 -241 236 0
-53 241 -236 0
-54 -236 241 0
-54 -232 241 0
-54 -241 236 232 0
-55 -241 236 0
-55 241 -236 0
-56 -241 236 0
-56 241 -236 0
-57 -236 241 0
-57 -233 241 0
-57 -241 236 233 0
-58 -241 236 0
-58 241 -236 0
-59 -236 241 0
-59 -234 241 0
-59 -241 236 234 0
-60 -236 241 0
-60 -235 241 0
-60 -241 236 235 0
-66 -241 236 0
-66 241 -236 0
-242 0
-1 -247 242 0
-1 -247 243 0
-1 247 -242 -243 0
-2 -247 242 0
-2 -247 244 0
-2 247 -242 -244 0
-3 -247 242 0
-3 -247 245 0
-3 247 -242 -245 0
-4 -247 242 0
-4 -247 246 0
-4 247 -242 -246 0
-5 -247 242 0
-5 247 -242 0
-6 -247 242 0
-6 247 -242 0
-7 -247 242 0
-7 247 -242 0
-8 -247 242 0
-8 247 -242 0
-9 -247 242 0
-9 247 -242 0
-10 -247 242 0
-10 247 -242 0
-61 -247 242 0
-61 247 -242 0
243 0
-1 -243 248 0
-1 -242 248 0
-1 -248 243 242 0
-2 -248 243 0
-2 248 -243 0
-3 -248 243 0
-3 248 -243 0
-4 -248 243 0
-4 248 -243 0
-5 -248 243 0
-5 -248 244 0
-5 248 -243 -244 0
-6 -248 243 0
-6 -248 245 0
-6 248 -243 -245 0
-7 -248 243 0
-7 -248 246 0
-7 248 -243 -246 0
-8 -248 243 0
-8 248 -243 0
-9 -248 243 0
-9 248 -243 0
-10 -248 243 0
-10 248 -243 0
-61 -248 243 0
-61 248 -243 0
-244 0
-1 -249 244 0
-1 249 -244 0
-2 -244 249 0
-2 -242 249 0
-2 -249 244 242 0
-3 -249 244 0
-3 249 -244 0
-4 -249 244 0
-4 249 -244 0
-5 -244 249 0
-5 -243 249 0
-5 -249 244 243 0
-6 -249 244 0
-6 249 -244 0
-7 -249 244 0
-7 249 -244 0
-8 -249 244 0
-8 -249 245 0
-8 249 -244 -245 0
-9 -249 244 0
-9 -249 246 0
-9 249 -244 -246 0
-10 -249 244 0
-10 249 -244 0
-61 -249 244 0
-61 249 -244 0
-245 0
-1 -250 245 0
-1 250 -245 0
-2 -250 245 0
-2 250 -245 0
-3 -245 250 0
-3 -242 250 0
-3 -250 245 242 0
-4 -250 245 0
-4 250 -245 0
-5 -250 245 0
-5 250 -245 0
-6 -245 250 0
-6 -243 250 0
-6 -250 245 243 0
-7 -250 245 0
-7 250 -245 0
-8 -245 250 0
-8 -244 250 0
-8 -250 245 244 0
-9 -250 245 0
-9 250 -245 0
-10 -250 245 0
-10 -250 246 0
-10 250 -245 -246 0
-61 -250 245 0
-61 250 -245 0
246 0
-1 -251 246 0
-1 251 -246 0
-2 -251 246 0
-2 251 -246 0
-3 -251 246 0
-3 251 -246 0
-4 -246 251 0
-4 -242 251 0
-4 -251 246 242 0
-5 -251 246 0
-5 251 -246 0
-6 -251 246 0
-6 251 -246 0
-7 -246 251 0
-7 -243 251 0
-7 -251 246 243 0
-8 -251 246 0
-8 251 -246 0
-9 -246 251 0
-9 -244 251 0
-9 -251 246 244 0
-10 -246 251 0
-10 -245 251 0
-10 -251 246 245 0
-61 -251 246 0
-61 251 -246 0
-11 -252 247 0
-11 -252 248 0
-11 252 -247 -248 0
-12 -252 247 0
-12 -252 249 0
-12 252 -247 -249 0
-13 -252 247 0
-13 -252 250 0
-13 252 -247 -250 0
-14 -252 247 0
-14 -252 251 0
-14 252 -247 -251 0
-15 -252 247 0
-15 252 -247 0
-16 -252 247 0
-16 252 -247 0
-17 -252 247 0
-17 252 -247 0
-18 -252 247 0
-18 252 -247 0
-19 -252 247 0
-19 252 -247 0
-20 -252 247 0
-20 252 -247 0
-62 -252 247 0
-62 252 -247 0
-11 -248 253 0
-11 -247 253 0
-11 -253 248 247 0
-12 -253 248 0
-12 253 -248 0
-13 -253 248 0
-13 253 -248 0
-14 -253 248 0
-14 253 -248 0
-15 -253 248 0
-15 -253 249 0
-15 253 -248 -249 0
-16 -253 248 0
-16 -253 250 0
-16 253 -248 -250 0
-17 -253 248 0
-17 -253 251 0
-17 253 -248 -251 0
-18 -253 248 0
-18 253 -248 0
-19 -253 248 0
-19 253 -248 0
-20 -253 248 0
-20 253 -248 0
-62 -253 248 0
-62 253 -248 0
-11 -254 249 0
-11 254 -249 0
-12 -249 254 0
-12 -247 254 0
-12 -254 249 247 0
-13 -254 249 0
-13 254 -249 0
-14 -254 249 0
-14 254 -249 0
-15 -249 254 0
-15 -248 254 0
-15 -254 249 248 0
-16 -254 249 0
-16 254 -249 0
-17 -254 249 0
-17 254 -249 0
-18 -254 249 0
-18 -254 250 0
-18 254 -249 -250 0
-19 -254 249 0
-19 -254 251 0
-19 254 -249 -251 0
-20 -254 249 0
-20 254 -249 0
-62 -254 249 0
-62 254 -249 0
-11 -255 250 0
-11 255 -250 0
-12 -255 250 0
-12 255 -250 0
-13 -250 255 0
-13 -247 255 0
-13 -255 250 247 0
-14 -255 250 0
-14 255 -250 0
-15 -255 250 0
-15 255 -250 0
-16 -250 255 0
-16 -248 255 0
-16 -255 250 248 0
-17 -255 250 0
-17 255 -250 0
-18 -250 255 0
-18 -249 255 0
-18 -255 250 249 0
-19 -255 250 0
-19 255 -250 0
-20 -255 250 0
-20 -255 251 0
-20 255 -250 -251 0
-62 -255 250 0
-62 255 -250 0
-11 -256 251 0
-11 256 -251 0
-12 -256 251 0
-12 256 -251 0
-13 -256 251 0
-13 256 -251 0
-14 -251 256 0
-14 -247 256 0
-14 -256 251 247 0
-15 -256 251 0
-15 256 -251 0
-16 -256 251 0
-16 256 -251 0
-17 -251 256 0
-17 -248 256 0
-17 -256 251 248 0
-18 -256 251 0
-18 256 -251 0
-19 -251 256 0
-19 -249 256 0
-19 -256 251 249 0
-20 -251 256 0
-20 -250 256 0
-20 -256 251 250 0
-62 -256 251 0
-62 256 -251 0
-21 -257 252 0
-21 -257 253 0
-21 257 -252 -253 0
-22 -257 252 0
-22 -257 254 0
-22 257 -252 -254 0
-23 -257 252 0
-23 -257 255 0
-23 257 -252 -255 0
-24 -257 252 0
-24 -257 256 0
-24 257 -252 -256 0
-25 -257 252 0
-25 257 -252 0
-26 -257 252 0
-26 257 -252 0
-27 -257 252 0
-27 257 -252 0
-28 -257 252 0
-28 257 -252 0
-29 -257 252 0
-29 257 -252 0
-30 -257 252 0
-30 257 -252 0
-63 -257 252 0
-63 257 -252 0
-21 -253 258 0
-21 -252 258 0
-21 -258 253 252 0
-22 -258 253 0
-22 258 -253 0
-23 -258 253 0
-23 258 -253 0
-24 -258 253 0
-24 258 -253 0
-25 -258 253 0
-25 -258 254 0
-25 258 -253 -254 0
-26 -258 253 0
-26 -258 255 0
-26 258 -253 -255 0
-27 -258 253 0
-27 -258 256 0
-27 258 -253 -256 0
-28 -258 253 0
-28 258 -253 0
-29 -258 253 0
-29 258 -253 0
-30 -258 253 0
-30 258 -253 0
-63 -258 253 0
-63 258 -253 0
-21 -259 254 0
-21 259 -254 0
-22 -254 259 0
-22 -252 259 0
-22 -259 254 252 0
-23 -259 254 0
-23 259 -254 0
-24 -259 254 0
-24 259 -254 0
-25 -254 259 0
-25 -253 259 0
-25 -259 254 253 0
-26 -259 254 0
-26 259 -254 0
-27 -259 254 0
-27 259 -254 0
-28 -259 254 0
-28 -259 255 0
-28 259 -254 -255 0
-29 -259 254 0
-29 -259 256 0
-29 259 -254 -256 0
-30 -259 254 0
-30 259 -254 0
-63 -259 254 0
-63 259 -254 0
-21 -260 255 0
-21 260 -255 0
-22 -260 255 0
-22 260 -255 0
-23 -255 260 0
-23 -252 260 0
-23 -260 255 252 0
-24 -260 255 0
-24 260 -255 0
-25 -260 255 0
-25 260 -255 0
-26 -255 260 0
-26 -253 260 0
-26 -260 255 253 0
-27 -260 255 0
-27 260 -255 0
-28 -255 260 0
-28 -254 260 0
-28 -260 255 254 0
-29 -260 255 0
-29 260 -255 0
-30 -260 255 0
-30 -260 256 0
-30 260 -255 -256 0
-63 -260 255 0
-63 260 -255 0
-21 -261 256 0
-21 261 -256 0
-22 -261 256 0
-22 261 -256 0
-23 -261 256 0
-23 261 -256 0
-24 -256 261 0
-24 -252 261 0
-24 -261 256 252 0
-25 -261 256 0
-25 261 -256 0
-26 -261 256 0
-26 261 -256 0
-27 -256 261 0
-27 -253 261 0
-27 -261 256 253 0
-28 -261 256 0
-28 261 -256 0
-29 -256 261 0
-29 -254 261 0
-29 -261 256 254 0
-30 -256 261 0
-30 -255 261 0
-30 -261 256 255 0
-63 -261 256 0
-63 261 -256 0
-31 -262 257 0
-31 -262 258 0
-31 262 -257 -258 0
-32 -262 257 0
-32 -262 259 0
-32 262 -257 -259 0
-33 -262 257 0
-33 -262 260 0
-33 262 -257 -260 0
-34 -262 257 0
-34 -262 261 0
-34 262 -257 -261 0
-35 -262 257 0
-35 262 -257 0
-36 -262 257 0
-36 262 -257 0
-37 -262 257 0
-37 262 -257 0
-38 -262 257 0
-38 262 -257 0
-39 -262 257 0
-39 262 -257 0
-40 -262 257 0
-40 262 -257 0
-64 -262 257 0
-64 262 -257 0
-31 -258 263 0
-31 -257 263 0
-31 -263 258 257 0
-32 -263 258 0
-32 263 -258 0
-33 -263 258 0
-33 263 -258 0
-34 -263 258 0
-34 263 -258 0
-35 -263 258 0
-35 -263 259 0
-35 263 -258 -259 0
-36 -263 258 0
-36 -263 260 0
-36 263 -258 -260 0
-37 -263 258 0
-37 -263 261 0
-37 263 -258 -261 0
-38 -263 258 0
-38 263 -258 0
-39 -263 258 0
-39 263 -258 0
-40 -263 258 0
-40 263 -258 0
-64 -263 258 0
-64 263 -258 0
-31 -264 259 0
-31 264 -259 0
-32 -259 264 0
-32 -257 264 0
-32 -264 259 257 0
-33 -264 259 0
-33 264 -259 0
-34 -264 259 0
-34 264 -259 0
-35 -259 264 0
-35 -258 264 0
-35 -264 259 258 0
-36 -264 259 0
-36 264 -259 0
-37 -264 259 0
-37 264 -259 0
-38 -264 259 0
-38 -264 260 0
-38 264 -259 -260 0
-39 -264 259 0
-39 -264 261 0
-39 264 -259 -261 0
-40 -264 259 0
-40 264 -259 0
-64 -264 259 0
-64 264 -259 0
-31 -265 260 0
-31 265 -260 0
-32 -265 260 0
-32 265 -260 0
-33 -260 265 0
-33 -257 265 0
-33 -265 260 257 0
-34 -265 260 0
-34 265 -260 0
-35 -265 260 0
-35 265 -260 0
-36 -260 265 0
-36 -258 265 0
-36 -265 260 258 0
-37 -265 260 0
-37 265 -260 0
-38 -260 265 0
-38 -259 265 0
-38 -265 260 259 0
-39 -265 260 0
-39 265 -260 0
-40 -265 260 0
-40 -265 261 0
-40 265 -260 -261 0
-64 -265 260 0
-64 265 -260 0
-31 -266 261 0
-31 266 -261 0
-32 -266 261 0
-32 266 -261 0
-33 -266 261 0
-33 266 -261 0
-34 -261 266 0
-34 -257 266 0
-34 -266 261 257 0
-35 -266 261 0
-35 266 -261 0
-36 -266 261 0
-36 266 -261 0
-37 -261 266 0
-37 -258 266 0
-37 -266 261 258 0
-38 -266 261 0
-38 266 -261 0
-39 -261 266 0
-39 -259 266 0
-39 -266 261 259 0
-40 -261 266 0
-40 -260 266 0
-40 -266 261 260 0
-64 -266 261 0
-64 266 -261 0
-41 -267 262 0
-41 -267 263 0
-41 267 -262 -263 0
-42 -267 262 0
-42 -267 264 0
-42 267 -262 -264 0
-43 -267 262 0
-43 -267 265 0
-43 267 -262 -265 0
-44 -267 262 0
-44 -267 266 0
-44 267 -262 -266 0
-45 -267 262 0
-45 267 -262 0
-46 -267 262 0
-46 267 -262 0
-47 -267 262 0
-47 267 -262 0
-48 -267 262 0
-48 267 -262 0
-49 -267 262 0
-49 267 -262 0
-50 -267 262 0
-50 267 -262 0
-65 -267 262 0
-65 267 -262 0
-41 -263 268 0
-41 -262 268 0
-41 -268 263 262 0
-42 -268 263 0
-42 268 -263 0
-43 -268 263 0
-43 268 -263 0
-44 -268 263 0
-44 268 -263 0
-45 -268 263 0
-45 -268 264 0
-45 268 -263 -264 0
-46 -268 263 0
-46 -268 265 0
-46 268 -263 -265 0
-47 -268 263 0
-47 -268 266 0
-47 268 -263 -266 0
-48 -268 263 0
-48 268 -263 0
-49 -268 263 0
-49 268 -263 0
-50 -268 263 0
-50 268 -263 0
-65 -268 263 0
-65 268 -263 0
-41 -269 264 0
-41 269 -264 0
-42 -264 269 0
-42 -262 269 0
-42 -269 264 262 0
-43 -269 264 0
-43 269 -264 0
-44 -269 264 0
-44 269 -264 0
-45 -264 269 0
-45 -263 269 0
-45 -269 264 263 0
-46 -269 264 0
-46 269 -264 0
-47 -269 264 0
-47 269 -264 0
-48 -269 264 0
-48 -269 265 0
-48 269 -264 -265 0
-49 -269 264 0
-49 -269 266 0
-49 269 -264 -266 0
-50 -269 264 0
-50 269 -264 0
-65 -269 264 0
-65 269 -264 0
-41 -270 265 0
-41 270 -265 0
-42 -270 265 0
-42 270 -265 0
-43 -265 270 0
-43 -262 270 0
-43 -270 265 262 0
-44 -270 265 0
-44 270 -265 0
-45 -270 265 0
-45 270 -265 0
-46 -265 270 0
-46 -263 270 0
-46 -270 265 263 0
-47 -270 265 0
-47 270 -265 0
-48 -265 270 0
-48 -264 270 0
-48 -270 265 264 0
-49 -270 265 0
-49 270 -265 0
-50 -270 265 0
-50 -270 266 0
-50 270 -265 -266 0
-65 -270 265 0
-65 270 -265 0
-41 -271 266 0
-41 271 -266 0
-42 -271 266 0
-42 271 -266 0
-43 -271 266 0
-43 271 -266 0
-44 -266 271 0
-44 -262 271 0
-44 -271 266 262 0
-45 -271 266 0
-45 271 -266 0
-46 -271 266 0
-46 271 -266 0
-47 -266 271 0
-47 -263 271 0
-47 -271 266 263 0
-48 -271 266 0
-48 271 -266 0
-49 -266 271 0
-49 -264 271 0
-49 -271 266 264 0
-50 -266 271 0
-50 -265 271 0
-50 -271 266 265 0
-65 -271 266 0
-65 271 -266 0
-51 -272 267 0
-51 -272 268 0
-51 272 -267 -268 0
-52 -272 267 0
-52 -272 269 0
-52 272 -267 -269 0
-53 -272 267 0
-53 -272 270 0
-53 272 -267 -270 0
-54 -272 267 0
-54 -272 271 0
-54 272 -267 -271 0
-55 -272 267 0
-55 272 -267 0
-56 -272 267 0
-56 272 -267 0
-57 -272 267 0
-57 272 -267 0
-58 -272 267 0
-58 272 -267 0
-59 -272 267 0
-59 272 -267 0
-60 -272 267 0
-60 272 -267 0
-66 -272 267 0
-66 272 -267 0
-51 -268 273 0
-51 -267 273 0
-51 -273 268 267 0
-52 -273 268 0
-52 273 -268 0
-53 -273 268 0
-53 273 -268 0
-54 -273 268 0
-54 273 -268 0
-55 -273 268 0
-55 -273 269 0
-55 273 -268 -269 0
-56 -273 268 0
-56 -273 270 0
-56 273 -268 -270 0
-57 -273 268 0
-57 -273 271 0
-57 273 -268 -271 0
-58 -273 268 0
-58 273 -268 0
-59 -273 268 0
-59 273 -268 0
-60 -273 268 0
-60 273 -268 0
-66 -273 268 0
-66 273 -268 0
-51 -274 269 0
-51 274 -269 0
-52 -269 274 0
-52 -267 274 0
-52 -274 269 267 0
-53 -274 269 0
-53 274 -269 0
-54 -274 269 0
-54 274 -269 0
-55 -269 274 0
-55 -268 274 0
-55 -274 269 268 0
-56 -274 269 0
-56 274 -269 0
-57 -274 269 0
-57 274 -269 0
-58 -274 269 0
-58 -274 270 0
-58 274 -269 -270 0
-59 -274 269 0
-59 -274 271 0
-59 274 -269 -271 0
-60 -274 269 0
-60 274 -269 0
-66 -274 269 0
-66 274 -269 0
-51 -275 270 0
-51 275 -270 0
-52 -275 270 0
-52 275 -270 0
-53 -270 275 0
-53 -267 275 0
-53 -275 270 267 0
-54 -275 270 0
-54 275 -270 0
-55 -275 270 0
-55 275 -270 0
-56 -270 275 0
-56 -268 275 0
-56 -275 270 268 0
-57 -275 270 0
-57 275 -270 0
-58 -270 275 0
-58 -269 275 0
-58 -275 270 269 0
-59 -275 270 0
-59 275 -270 0
-60 -275 270 0
-60 -275 271 0
-60 275 -270 -271 0
-66 -275 270 0
-66 275 -270 0
-51 -276 271 0
-51 276 -271 0
-52 -276 271 0
-52 276 -271 0
-53 -276 271 0
-53 276 -271 0
-54 -271 276 0
-54 -267 276 0
-54 -276 271 267 0
-55 -276 271 0
-55 276 -271 0
-56 -276 271 0
-56 276 -271 0
-57 -271 276 0
-57 -268 276 0
-57 -276 271 268 0
-58 -276 271 0
-58 276 -271 0
-59 -271 276 0
-59 -269 276 0
-59 -276 271 269 0
-60 -271 276 0
-60 -270 276 0
-60 -276 271 270 0
-66 -276 271 0
-66 276 -271 0
-277 0
-1 -282 277 0
-1 -282 278 0
-1 282 -277 -278 0
-2 -282 277 0
-2 -282 279 0
-2 282 -277 -279 0
-3 -282 277 0
-3 -282 280 0
-3 282 -277 -280 0
-4 -282 277 0
-4 -282 281 0
-4 282 -277 -281 0
-5 -282 277 0
-5 282 -277 0
-6 -282 277 0
-6 282 -277 0
-7 -282 277 0
-7 282 -277 0
-8 -282 277 0
-8 282 -277 0
-9 -282 277 0
-9 282 -277 0
-10 -282 277 0
-10 282 -277 0
-61 -282 277 0
-61 282 -277 0
278 0
-1 -278 283 0
-1 -277 283 0
-1 -283 278 277 0
-2 -283 278 0
-2 283 -278 0
-3 -283 278 0
-3 283 -278 0
-4 -283 278 0
-4 283 -278 0
-5 -283 278 0
-5 -283 279 0
-5 283 -278 -279 0
-6 -283 278 0
-6 -283 280 0
-6 283 -278 -280 0
-7 -283 278 0
-7 -283 281 0
-7 283 -278 -281 0
-8 -283 278 0
-8 283 -278 0
-9 -283 278 0
-9 283 -278 0
-10 -283 278 0
-10 283 -278 0
-61 -283 278 0
-61 283 -278 0
-279 0
-1 -284 279 0
-1 284 -279 0
-2 -279 284 0
-2 -277 284 0
-2 -284 279 277 0
-3 -284 279 0
-3 284 -279 0
-4 -284 279 0
-4 284 -279 0
-5 -279 284 0
-5 -278 284 0
-5 -284 279 278 0
-6 -284 279 0
-6 284 -279 0
-7 -284 279 0
-7 284 -279 0
-8 -284 279 0
-8 -284 280 0
-8 284 -279 -280 0
-9 -284 279 0
-9 -284 281 0
-9 284 -279 -281 0
-10 -284 279 0
-10 284 -279 0
-61 -284 279 0
-61 284 -279 0
280 0
-1 -285 280 0
-1 285 -280 0
-2 -285 280 0
-2 285 -280 0
-3 -280 285 0
-3 -277 285 0
-3 -285 280 277 0
-4 -285 280 0
-4 285 -280 0
-5 -285 280 0
-5 285 -280 0
-6 -280 285 0
-6 -278 285 0
-6 -285 280 278 0
-7 -285 280 0
-7 285 -280 0
-8 -280 285 0
-8 -279 285 0
-8 -285 280 279 0
-9 -285 280 0
-9 285 -280 0
-10 -285 280 0
-10 -285 281 0
-10 285 -280 -281 0
-61 -285 280 0
-61 285 -280 0
-281 0
-1 -286 281 0
-1 286 -281 0
-2 -286 281 0
-2 286 -281 0
-3 -286 281 0
-3 286 -281 0
-4 -281 286 0
-4 -277 286 0
-4 -286 281 277 0
-5 -286 281 0
-5 286 -281 0
-6 -286 281 0
-6 286 -281 0
-7 -281 286 0
-7 -278 286 0
-7 -286 281 278 0
-8 -286 281 0
-8 286 -281 0
-9 -281 286 0
-9 -279 286 0
-9 -286 281 279 0
-10 -281 286 0
-10 -280 286 0
-10 -286 281 280 0
-61 -286 281 0
-61 286 -281 0
-11 -287 282 0
-11 -287 283 0
-11 287 -282 -283 0
-12 -287 282 0
-12 -287 284 0
-12 287 -282 -284 0
-13 -287 282 0
-13 -287 285 0
-13 287 -282 -285 0
-14 -287 282 0
-14 -287 286 0
-14 287 -282 -286 0
-15 -287 282 0
-15 287 -282 0
-16 -287 282 0
-16 287 -282 0
-17 -287 282 0
-17 287 -282 0
-18 -287 282 0
-18 287 -282 0
-19 -287 282 0
-19 287 -282 0
-20 -287 282 0
-20 287 -282 0
-62 -287 282 0
-62 287 -282 0
-11 -283 288 0
-11 -282 288 0
-11 -288 283 282 0
-12 -288 283 0
-12 288 -283 0
-13 -288 283 0
-13 288 -283 0
-14 -288 283 0
-14 288 -283 0
-15 -288 283 0
-15 -288 284 0
-15 288 -283 -284 0
-16 -288 283 0
-16 -288 285 0
-16 288 -283 -285 0
-17 -288 283 0
-17 -288 286 0
-17 288 -283 -286 0
-18 -288 283 0
-18 288 -283 0
-19 -288 283 0
-19 288 -283 0
-20 -288 283 0
-20 288 -283 0
-62 -288 283 0
-62 288 -283 0
-11 -289 284 0
-11 289 -284 0
-12 -284 289 0
-12 -282 289 0
-12 -289 284 282 0
-13 -289 284 0
-13 289 -284 0
-14 -289 284 0
-14 289 -284 0
-15 -284 289 0
-15 -283 289 0
-15 -289 284 283 0
-16 -289 284 0
-16 289 -284 0
-17 -289 284 0
-17 289 -284 0
-18 -289 284 0
-18 -289 285 0
-18 289 -284 -285 0
-19 -289 284 0
-19 -289 286 0
-19 289 -284 -286 0
-20 -289 284 0
-20 289 -284 0
-62 -289 284 0
-62 289 -284 0
-11 -290 285 0
-11 290 -285 0
-12 -290 285 0
-12 290 -285 0
-13 -285 290 0
-13 -282 290 0
-13 -290 285 282 0
-14 -290 285 0
-14 290 -285 0
-15 -290 285 0
-15 290 -285 0
-16 -285 290 0
-16 -283 290 0
-16 -290 285 283 0
-17 -290 285 0
-17 290 -285 0
-18 -285 290 0
-18 -284 290 0
-18 -290 285 284 0
-19 -290 285 0
-19 290 -285 0
-20 -290 285 0
-20 -290 286 0
-20 290 -285 -286 0
-62 -290 285 0
-62 290 -285 0
-11 -291 286 0
-11 291 -286 0
-12 -291 286 0
-12 291 -286 0
-13 -291 286 0
-13 291 -286 0
-14 -286 291 0
-14 -282 291 0
-14 -291 286 282 0
-15 -291 286 0
-15 291 -286 0
-16 -291 286 0
-16 291 -286 0
-17 -286 291 0
-17 -283 291 0
-17 -291 286 283 0
-18 -291 286 0
-18 291 -286 0
-19 -286 291 0
-19 -284 291 0
-19 -291 286 284 0
-20 -286 291 0
-20 -285 291 0
-20 -291 286 285 0
-62 -291 286 0
-62 291 -286 0
-21 -292 287 0
-21 -292 288 0
-21 292 -287 -288 0
-22 -292 287 0
-22 -292 289 0
-22 292 -287 -289 0
-23 -292 287 0
-23 -292 290 0
-23 292 -287 -290 0
-24 -292 287 0
-24 -292 291 0
-24 292 -287 -291 0
-25 -292 287 0
-25 292 -287 0
-26 -292 287 0
-26 292 -287 0
-27 -292 287 0
-27 292 -287 0
-28 -292 287 0
-28 292 -287 0
-29 -292 287 0
-29 292 -287 0
-30 -292 287 0
-30 292 -287 0
-63 -292 287 0
-63 292 -287 0
-21 -288 293 0
-21 -287 293 0
-21 -293 288 287 0
-22 -293 288 0
-22 293 -288 0
-23 -293 288 0
-23 293 -288 0
-24 -293 288 0
-24 293 -288 0
-25 -293 288 0
-25 -293 289 0
-25 293 -288 -289 0
-26 -293 288 0
-26 -293 290 0
-26 293 -288 -290 0
-27 -293 288 0
-27 -293 291 0
-27 293 -288 -291 0
-28 -293 288 0
-28 293 -288 0
-29 -293 288 0
-29 293 -288 0
-30 -293 288 0
-30 293 -288 0
-63 -293 288 0
-63 293 -288 0
-21 -294 289 0
-21 294 -289 0
-22 -289 294 0
-22 -287 294 0
-22 -294 289 287 0
-23 -294 289 0
-23 294 -289 0
-24 -294 289 0
-24 294 -289 0
-25 -289 294 0
-25 -288 294 0
-25 -294 289 288 0
-26 -294 289 0
-26 294 -289 0
-27 -294 289 0
-27 294 -289 0
-28 -294 289 0
-28 -294 290 0
-28 294 -289 -290 0
-29 -294 289 0
-29 -294 291 0
-29 294 -289 -291 0
-30 -294 289 0
-30 294 -289 0
-63 -294 289 0
-63 294 -289 0
-21 -295 290 0
-21 295 -290 0
-22 -295 290 0
-22 295 -290 0
-23 -290 295 0
-23 -287 295 0
-23 -295 290 287 0
-24 -295 290 0
-24 295 -290 0
-25 -295 290 0
-25 295 -290 0
-26 -290 295 0
-26 -288 295 0
-26 -295 290 288 0
-27 -295 290 0
-27 295 -290 0
-28 -290 295 0
-28 -289 295 0
-28 -295 290 289 0
-29 -295 290 0
-29 295 -290 0
-30 -295 290 0
-30 -295 291 0
-30 295 -290 -291 0
-63 -295 290 0
-63 295 -290 0
-21 -296 291 0
-21 296 -291 0
-22 -296 291 0
-22 296 -291 0
-23 -296 291 0
-23 296 -291 0
-24 -291 296 0
-24 -287 296 0
-24 -296 291 287 0
-25 -296 291 0
-25 296 -291 0
-26 -296 291 0
-26 296 -291 0
-27 -291 296 0
-27 -288 296 0
-27 -296 291 288 0
-28 -296 291 0
-28 296 -291 0
-29 -291 296 0
-29 -289 296 0
-29 -296 291 289 0
-30 -291 296 0
-30 -290 296 0
-30 -296 291 290 0
-63 -296 291 0
-63 296 -291 0
-31 -297 292 0
-31 -297 293 0
-31 297 -292 -293 0
-32 -297 292 0
-32 -297 294 0
-32 297 -292 -294 0
-33 -297 292 0
-33 -297 295 0
-33 297 -292 -295 0
-34 -297 292 0
-34 -297 296 0
-34 297 -292 -296 0
-35 -297 292 0
-35 297 -292 0
-36 -297 292 0
-36 297 -292 0
-37 -297 292 0
-37 297 -292 0
-38 -297 292 0
-38 297 -292 0
-39 -297 292 0
-39 297 -292 0
-40 -297 292 0
-40 297 -292 0
-64 -297 292 0
-64 297 -292 0
-31 -293 298 0
-31 -292 298 0
-31 -298 293 292 0
-32 -298 293 0
-32 298 -293 0
-33 -298 293 0
-33 298 -293 0
-34 -298 293 0
-34 298 -293 0
-35 -298 293 0
-35 -298 294 0
-35 298 -293 -294 0
-36 -298 293 0
-36 -298 295 0
-36 298 -293 -295 0
-37 -298 293 0
-37 -298 296 0
-37 298 -293 -296 0
-38 -298 293 0
-38 298 -293 0
-39 -298 293 0
-39 298 -293 0
-40 -298 293 0
-40 298 -293 0
-64 -298 293 0
-64 298 -293 0
-31 -299 294 0
-31 299 -294 0
-32 -294 299 0
-32 -292 299 0
-32 -299 294 292 0
-33 -299 294 0
-33 299 -294 0
-34 -299 294 0
-34 299 -294 0
-35 -294 299 0
-35 -293 299 0
-35 -299 294 293 0
-36 -299 294 0
-36 299 -294 0
-37 -299 294 0
-37 299 -294 0
-38 -299 294 0
-38 -299 295 0
-38 299 -294 -295 0
-39 -299 294 0
-39 -299 296 0
-39 299 -294 -296 0
-40 -299 294 0
-40 299 -294 0
-64 -299 294 0
-64 299 -294 0
-31 -300 295 0
-31 300 -295 0
-32 -300 295 0
-32 300 -295 0
-33 -295 300 0
-33 -292 300 0
-33 -300 295 292 0
-34 -300 295 0
-34 300 -295 0
-35 -300 295 0
-35 300 -295 0
-36 -295 300 0
-36 -293 300 0
-36 -300 295 293 0
-37 -300 295 0
-37 300 -295 0
-38 -295 300 0
-38 -294 300 0
-38 -300 295 294 0
-39 -300 295 0
-39 300 -295 0
-40 -300 295 0
-40 -300 296 0
-40 300 -295 -296 0
-64 -300 295 0
-64 300 -295 0
-31 -301 296 0
-31 301 -296 0
-32 -301 296 0
-32 301 -296 0
-33 -301 296 0
-33 301 -296 0
-34 -296 301 0
-34 -292 301 0
-34 -301 296 292 0
-35 -301 296 0
-35 301 -296 0
-36 -301 296 0
-36 301 -296 0
-37 -296 301 0
-37 -293 301 0
-37 -301 296 293 0
-38 -301 296 0
-38 301 -296 0
-39 -296 301 0
-39 -294 301 0
-39 -301 296 294 0
-40 -296 301 0
-40 -295 301 0
-40 -301 296 295 0
-64 -301 296 0
-64 301 -296 0
-41 -302 297 0
-41 -302 298 0
-41 302 -297 -298 0
-42 -302 297 0
-42 -302 299 0
-42 302 -297 -299 0
-43 -302 297 0
-43 -302 300 0
-43 302 -297 -300 0
-44 -302 297 0
-44 -302 301 0
-44 302 -297 -301 0
-45 -302 297 0
-45 302 -297 0
-46 -302 297 0
-46 302 -297 0
-47 -302 297 0
-47 302 -297 0
-48 -302 297 0
-48 302 -297 0
-49 -302 297 0
-49 302 -297 0
-50 -302 297 0
-50 302 -297 0
-65 -302 297 0
-65 302 -297 0
-41 -298 303 0
-41 -297 303 0
-41 -303 298 297 0
-42 -303 298 0
-42 303 -298 0
-43 -303 298 0
-43 303 -298 0
-44 -303 298 0
-44 303 -298 0
-45 -303 298 0
-45 -303 299 0
-45 303 -298 -299 0
-46 -303 298 0
-46 -303 300 0
-46 303 -298 -300 0
-47 -303 298 0
-47 -303 301 0
-47 303 -298 -301 0
-48 -303 298 0
-48 303 -298 0
-49 -303 298 0
-49 303 -298 0
-50 -303 298 0
-50 303 -298 0
-65 -303 298 0
-65 303 -298 0
-41 -304 299 0
-41 304 -299 0
-42 -299 304 0
-42 -297 304 0
-42 -304 299 297 0
-43 -304 299 0
-43 304 -299 0
-44 -304 299 0
-44 304 -299 0
-45 -299 304 0
-45 -298 304 0
-45 -304 299 298 0
-46 -304 299 0
-46 304 -299 0
-47 -304 299 0
-47 304 -299 0
-48 -304 299 0
-48 -304 300 0
-48 304 -299 -300 0
-49 -304 299 0
-49 -304 301 0
-49 304 -299 -301 0
-50 -304 299 0
-50 304 -299 0
-65 -304 299 0
-65 304 -299 0
-41 -305 300 0
-41 305 -300 0
-42 -305 300 0
-42 305 -300 0
-43 -300 305 0
-43 -297 305 0
-43 -305 300 297 0
-44 -305 300 0
-44 305 -300 0
-45 -305 300 0
-45 305 -300 0
-46 -300 305 0
-46 -298 305 0
-46 -305 300 298 0
-47 -305 300 0
-47 305 -300 0
-48 -300 305 0
-48 -299 305 0
-48 -305 300 299 0
-49 -305 300 0
-49 305 -300 0
-50 -305 300 0
-50 -305 301 0
-50 305 -300 -301 0
-65 -305 300 0
-65 305 -300 0
-41 -306 301 0
-41 306 -301 0
-42 -306 301 0
-42 306 -301 0
-43 -306 301 0
-43 306 -301 0
-44 -301 306 0
-44 -297 306 0
-44 -306 301 297 0
-45 -306 301 0
-45 306 -301 0
-46 -306 301 0
-46 306 -301 0
-47 -301 306 0
-47 -298 306 0
-47 -306 301 298 0
-48 -306 301 0
-48 306 -301 0
-49 -301 306 0
-49 -299 306 0
-49 -306 301 299 0
-50 -301 306 0
-50 -300 306 0
-50 -306 301 300 0
-65 -306 301 0
-65 306 -301 0
-51 -307 302 0
-51 -307 303 0
-51 307 -302 -303 0
-52 -307 302 0
-52 -307 304 0
-52 307 -302 -304 0
-53 -307 302 0
-53 -307 305 0
-53 307 -302 -305 0
-54 -307 302 0
-54 -307 306 0
-54 307 -302 -306 0
-55 -307 302 0
-55 307 -302 0
-56 -307 302 0
-56 307 -302 0
-57 -307 302 0
-57 307 -302 0
-58 -307 302 0
-58 307 -302 0
-59 -307 302 0
-59 307 -302 0
-60 -307 302 0
-60 307 -302 0
-66 -307 302 0
-66 307 -302 0
-51 -303 308 0
-51 -302 308 0
-51 -308 303 302 0
-52 -308 303 0
-52 308 -303 0
-53 -308 303 0
-53 308 -303 0
-54 -308 303 0
-54 308 -303 0
-55 -308 303 0
-55 -308 304 0
-55 308 -303 -304 0
-56 -308 303 0
-56 -308 305 0
-56 308 -303 -305 0
-57 -308 303 0
-57 -308 306 0
-57 308 -303 -306 0
-58 -308 303 0
-58 308 -303 0
-59 -308 303 0
-59 308 -303 0
-60 -308 303 0
-60 308 -303 0
-66 -308 303 0
-66 308 -303 0
-51 -309 304 0
-51 309 -304 0
-52 -304 309 0
-52 -302 309 0
-52 -309 304 302 0
-53 -309 304 0
-53 309 -304 0
-54 -309 304 0
-54 309 -304 0
-55 -304 309 0
-55 -303 309 0
-55 -309 304 303 0
-56 -309 304 0
-56 309 -304 0
-57 -309 304 0
-57 309 -304 0
-58 -309 304 0
-58 -309 305 0
-58 309 -304 -305 0
-59 -309 304 0
-59 -309 306 0
-59 309 -304 -306 0
-60 -309 304 0
-60 309 -304 0
-66 -309 304 0
-66 309 -304 0
-51 -310 305 0
-51 310 -305 0
-52 -310 305 0
-52 310 -305 0
-53 -305 310 0
-53 -302 310 0
-53 -310 305 302 0
-54 -310 305 0
-54 310 -305 0
-55 -310 305 0
-55 310 -305 0
-56 -305 310 0
-56 -303 310 0
-56 -310 305 303 0
-57 -310 305 0
-57 310 -305 0
-58 -305 310 0
-58 -304 310 0
-58 -310 305 304 0
-59 -310 305 0
-59 310 -305 0
-60 -310 305 0
-60 -310 306 0
-60 310 -305 -306 0
-66 -310 305 0
-66 310 -305 0
-51 -311 306 0
-51 311 -306 0
-52 -311 306 0
-52 311 -306 0
-53 -311 306 0
-53 311 -306 0
-54 -306 311 0
-54 -302 311 0
-54 -311 306 302 0
-55 -311 306 0
-55 311 -306 0
-56 -311 306 0
-56 311 -306 0
-57 -306 311 0
-57 -303 311 0
-57 -311 306 303 0
-58 -311 306 0
-58 311 -306 0
-59 -306 311 0
-59 -304 311 0
-59 -311 306 304 0
-60 -306 311 0
-60 -305 311 0
-60 -311 306 305 0
-66 -311 306 0
-66 311 -306 0
-312 0
-1 -317 312 0
-1 -317 313 0
-1 317 -312 -313 0
-2 -317 312 0
-2 -317 314 0
-2 317 -312 -314 0
-3 -317 312 0
-3 -317 315 0
-3 317 -312 -315 0
-4 -317 312 0
-4 -317 316 0
-4 317 -312 -316 0
-5 -317 312 0
-5 317 -312 0
-6 -317 312 0
-6 317 -312 0
-7 -317 312 0
-7 317 -312 0
-8 -317 312 0
-8 317 -312 0
-9 -317 312 0
-9 317 -312 0
-10 -317 312 0
-10 317 -312 0
-61 -317 312 0
-61 317 -312 0
313 0
-1 -313 318 0
-1 -312 318 0
-1 -318 313 312 0
-2 -318 313 0
-2 318 -313 0
-3 -318 313 0
-3 318 -313 0
-4 -318 313 0
-4 318 -313 0
-5 -318 313 0
-5 -318 314 0
-5 318 -313 -314 0
-6 -318 313 0
-6 -318 315 0
-6 318 -313 -315 0
-7 -318 313 0
-7 -318 316 0
-7 318 -313 -316 0
-8 -318 313 0
-8 318 -313 0
-9 -318 313 0
-9 318 -313 0
-10 -318 313 0
-10 318 -313 0
-61 -318 313 0
-61 318 -313 0
-314 0
-1 -319 314 0
-1 319 -314 0
-2 -314 319 0
-2 -312 319 0
-2 -319 314 312 0
-3 -319 314 0
-3 319 -314 0
-4 -319 314 0
-4 319 -314 0
-5 -314 319 0
-5 -313 319 0
-5 -319 314 313 0
-6 -319 314 0
-6 319 -314 0
-7 -319 314 0
-7 319 -314 0
-8 -319 314 0
-8 -319 315 0
-8 319 -314 -315 0
-9 -319 314 0
-9 -319 316 0
-9 319 -314 -316 0
-10 -319 314 0
-10 319 -314 0
-61 -319 314 0
-61 319 -314 0
315 0
-1 -320 315 0
-1 320 -315 0
-2 -320 315 0
-2 320 -315 0
-3 -315 320 0
-3 -312 320 0
-3 -320 315 312 0
-4 -320 315 0
-4 320 -315 0
-5 -320 315 0
-5 320 -315 0
-6 -315 320 0
-6 -313 320 0
-6 -320 315 313 0
-7 -320 315 0
-7 320 -315 0
-8 -315 320 0
-8 -314 320 0
-8 -320 315 314 0
-9 -320 315 0
-9 320 -315 0
-10 -320 315 0
-10 -320 316 0
-10 320 -315 -316 0
-61 -320 315 0
-61 320 -315 0
316 0
-1 -321 316 0
-1 321 -316 0
-2 -321 316 0
-2 321 -316 0
-3 -321 316 0
-3 321 -316 0
-4 -316 321 0
-4 -312 321 0
-4 -321 316 312 0
-5 -321 316 0
-5 321 -316 0
-6 -321 316 0
-6 321 -316 0
-7 -316 321 0
-7 -313 321 0
-7 -321 316 313 0
-8 -321 316 0
-8 321 -316 0
-9 -316 321 0
-9 -314 321 0
-9 -321 316 314 0
-10 -316 321 0
-10 -315 321 0
-10 -321 316 315 0
-61 -321 316 0
-61 321 -316 0
-11 -322 317 0
-11 -322 318 0
-11 322 -317 -318 0
-12 -322 317 0
-12 -322 319 0
-12 322 -317 -319 0
-13 -322 317 0
-13 -322 320 0
-13 322 -317 -320 0
-14 -322 317 0
-14 -322 321 0
-14 322 -317 -321 0
-15 -322 317 0
-15 322 -317 0
-16 -322 317 0
-16 322 -317 0
-17 -322 317 0
-17 322 -317 0
-18 -322 317 0
-18 322 -317 0
-19 -322 317 0
-19 322 -317 0
-20 -322 317 0
-20 322 -317 0
-62 -322 317 0
-62 322 -317 0
-11 -318 323 0
-11 -317 323 0
-11 -323 318 317 0
-12 -323 318 0
-12 323 -318 0
-13 -323 318 0
-13 323 -318 0
-14 -323 318 0
-14 323 -318 0
-15 -323 318 0
-15 -323 319 0
-15 323 -318 -319 0
-16 -323 318 0
-16 -323 320 0
-16 323 -318 -320 0
-17 -323 318 0
-17 -323 321 0
-17 323 -318 -321 0
-18 -323 318 0
-18 323 -318 0
-19 -323 318 0
-19 323 -318 0
-20 -323 318 0
-20 323 -318 0
-62 -323 318 0
-62 323 -318 0
-11 -324 319 0
-11 324 -319 0
-12 -319 324 0
-12 -317 324 0
-12 -324 319 317 0
-13 -324 319 0
-13 324 -319 0
-14 -324 319 0
-14 324 -319 0
-15 -319 324 0
-15 -318 324 0
-15 -324 319 318 0
-16 -324 319 0
-16 324 -319 0
-17 -324 319 0
-17 324 -319 0
-18 -324 319 0
-18 -324 320 0
-18 324 -319 -320 0
-19 -324 319 0
-19 -324 321 0
-19 324 -319 -321 0
-20 -324 319 0
-20 324 -319 0
-62 -324 319 0
-62 324 -319 0
-11 -325 320 0
-11 325 -320 0
-12 -325 320 0
-12 325 -320 0
-13 -320 325 0
-13 -317 325 0
-13 -325 320 317 0
-14 -325 320 0
-14 325 -320 0
-15 -325 320 0
-15 325 -320 0
-16 -320 325 0
-16 -318 325 0
-16 -325 320 318 0
-17 -325 320 0
-17 325 -320 0
-18 -320 325 0
-18 -319 325 0
-18 -325 320 319 0
-19 -325 320 0
-19 325 -320 0
-20 -325 320 0
-20 -325 321 0
-20 325 -320 -321 0
-62 -325 320 0
-62 325 -320 0
-11 -326 321 0
-11 326 -321 0
-12 -326 321 0
-12 326 -321 0
-13 -326 321 0
-13 326 -321 0
-14 -321 326 0
-14 -317 326 0
-14 -326 321 317 0
-15 -326 321 0
-15 326 -321 0
-16 -326 321 0
-16 326 -321 0
-17 -321 326 0
-17 -318 326 0
-17 -326 321 318 0
-18 -326 321 0
-18 326 -321 0
-19 -321 326 0
-19 -319 326 0
-19 -326 321 319 0
-20 -321 326 0
-20 -320 326 0
-20 -326 321 320 0
-62 -326 321 0
-62 326 -321 0
-21 -327 322 0
-21 -327 323 0
-21 327 -322 -323 0
-22 -327 322 0
-22 -327 324 0
-22 327 -322 -324 0
-23 -327 322 0
-23 -327 325 0
-23 327 -322 -325 0
-24 -327 322 0
-24 -327 326 0
-24 327 -322 -326 0
-25 -327 322 0
-25 327 -322 0
-26 -327 322 0
-26 327 -322 0
-27 -327 322 0
-27 327 -322 0
-28 -327 322 0
-28 327 -322 0
-29 -327 322 0
-29 327 -322 0
-30 -327 322 0
-30 327 -322 0
-63 -327 322 0
-63 327 -322 0
-21 -323 328 0
-21 -322 328 0
-21 -328 323 322 0
-22 -328 323 0
-22 328 -323 0
-23 -328 323 0
-23 328 -323 0
-24 -328 323 0
-24 328 -323 0
-25 -328 323 0
-25 -328 324 0
-25 328 -323 -324 0
-26 -328 323 0
-26 -328 325 0
-26 328 -323 -325 0
-27 -328 323 0
-27 -328 326 0
-27 328 -323 -326 0
-28 -328 323 0
-28 328 -323 0
-29 -328 323 0
-29 328 -323 0
-30 -328 323 0
-30 328 -323 0
-63 -328 323 0
-63 328 -323 0
-21 -329 324 0
-21 329 -324 0
-22 -324 329 0
-22 -322 329 0
-22 -329 324 322 0
-23 -329 324 0
-23 329 -324 0
-24 -329 324 0
-24 329 -324 0
-25 -324 329 0
-25 -323 329 0
-25 -329 324 323 0
-26 -329 324 0
-26 329 -324 0
-27 -329 324 0
-27 329 -324 0
-28 -329 324 0
-28 -329 325 0
-28 329 -324 -325 0
-29 -329 324 0
-29 -329 326 0
-29 329 -324 -326 0
-30 -329 324 0
-30 329 -324 0
-63 -329 324 0
-63 329 -324 0
-21 -330 325 0
-21 330 -325 0
-22 -330 325 0
-22 330 -325 0
-23 -325 330 0
-23 -322 330 0
-23 -330 325 322 0
-24 -330 325 0
-24 330 -325 0
-25 -330 325 0
-25 330 -325 0
-26 -325 330 0
-26 -323 330 0
-26 -330 325 323 0
-27 -330 325 0
-27 330 -325 0
-28 -325 330 0
-28 -324 330 0
-28 -330 325 324 0
-29 -330 325 0
-29 330 -325 0
-30 -330 325 0
-30 -330 326 0
-30 330 -325 -326 0
-63 -330 325 0
-63 330 -325 0
-21 -331 326 0
-21 331 -326 0
-22 -331 326 0
-22 331 -326 0
-23 -331 326 0
-23 331 -326 0
-24 -326 331 0
-24 -322 331 0
-24 -331 326 322 0
-25 -331 326 0
-25 331 -326 0
-26 -331 326 0
-26 331 -326 0
-27 -326 331 0
-27 -323 331 0
-27 -331 326 323 0
-28 -331 326 0
-28 331 -326 0
-29 -326 331 0
-29 -324 331 0
-29 -331 326 324 0
-30 -326 331 0
-30 -325 331 0
-30 -331 326 325 0
-63 -331 326 0
-63 331 -326 0
-31 -332 327 0
-31 -332 328 0
-31 332 -327 -328 0
-32 -332 327 0
-32 -332 329 0
-32 332 -327 -329 0
-33 -332 327 0
-33 -332 330 0
-33 332 -327 -330 0
-34 -332 327 0
-34 -332 331 0
-34 332 -327 -331 0
-35 -332 327 0
-35 332 -327 0
-36 -332 327 0
-36 332 -327 0
-37 -332 327 0
-37 332 -327 0
-38 -332 327 0
-38 332 -327 0
-39 -332 327 0
-39 332 -327 0
-40 -332 327 0
-40 332 -327 0
-64 -332 327 0
-64 332 -327 0
-31 -328 333 0
-31 -327 333 0
-31 -333 328 327 0
-32 -333 328 0
-32 333 -328 0
-33 -333 328 0
-33 333 -328 0
-34 -333 328 0
-34 333 -328 0
-35 -333 328 0
-35 -333 329 0
-35 333 -328 -329 0
-36 -333 328 0
-36 -333 330 0
-36 333 -328 -330 0
-37 -333 328 0
-37 -333 331 0
-37 333 -328 -331 0
-38 -333 328 0
-38 333 -328 0
-39 -333 328 0
-39 333 -328 0
-40 -333 328 0
-40 333 -328 0
-64 -333 328 0
-64 333 -328 0
-31 -334 329 0
-31 334 -329 0
-32 -329 334 0
-32 -327 334 0
-32 -334 329 327 0
-33 -334 329 0
-33 334 -329 0
-34 -334 329 0
-34 334 -329 0
-35 -329 334 0
-35 -328 334 0
-35 -334 329 328 0
-36 -334 329 0
-36 334 -329 0
-37 -334 329 0
-37 334 -329 0
-38 -334 329 0
-38 -334 330 0
-38 334 -329 -330 0
-39 -334 329 0
-39 -334 331 0
-39 334 -329 -331 0
-40 -334 329 0
-40 334 -329 0
-64 -334 329 0
-64 334 -329 0
-31 -335 330 0
-31 335 -330 0
-32 -335 330 0
-32 335 -330 0
-33 -330 335 0
-33 -327 335 0
-33 -335 330 327 0
-34 -335 330 0
-34 335 -330 0
-35 -335 330 0
-35 335 -330 0
-36 -330 335 0
-36 -328 335 0
-36 -335 330 328 0
-37 -335 330 0
-37 335 -330 0
-38 -330 335 0
-38 -329 335 0
-38 -335 330 329 0
-39 -335 330 0
-39 335 -330 0
-40 -335 330 0
-40 -335 331 0
-40 335 -330 -331 0
-64 -335 330 0
-64 335 -330 0
-31 -336 331 0
-31 336 -331 0
-32 -336 331 0
-32 336 -331 0
-33 -336 331 0
-33 336 -331 0
-34 -331 336 0
-34 -327 336 0
-34 -336 331 327 0
-35 -336 331 0
-35 336 -331 0
-36 -336 331 0
-36 336 -331 0
-37 -331 336 0
-37 -328 336 0
-37 -336 331 328 0
-38 -336 331 0
-38 336 -331 0
-39 -331 336 0
-39 -329 336 0
-39 -336 331 329 0
-40 -331 336 0
-40 -330 336 0
-40 -336 331 330 0
-64 -336 331 0
-64 336 -331 0
-41 -337 332 0
-41 -337 333 0
-41 337 -332 -333 0
-42 -337 332 0
-42 -337 334 0
-42 337 -332 -334 0
-43 -337 332 0
-43 -337 335 0
-43 337 -332 -335 0
-44 -337 332 0
-44 -337 336 0
-44 337 -332 -336 0
-45 -337 332 0
-45 337 -332 0
-46 -337 332 0
-46 337 -332 0
-47 -337 332 0
-47 337 -332 0
-48 -337 332 0
-48 337 -332 0
-49 -337 332 0
-49 337 -332 0
-50 -337 332 0
-50 337 -332 0
-65 -337 332 0
-65 337 -332 0
-41 -333 338 0
-41 -332 338 0
-41 -338 333 332 0
-42 -338 333 0
-42 338 -333 0
-43 -338 333 0
-43 338 -333 0
-44 -338 333 0
-44 338 -333 0
-45 -338 333 0
-45 -338 334 0
-45 338 -333 -334 0
-46 -338 333 0
-46 -338 335 0
-46 338 -333 -335 0
-47 -338 333 0
-47 -338 336 0
-47 338 -333 -336 0
-48 -338 333 0
-48 338 -333 0
-49 -338 333 0
-49 338 -333 0
-50 -338 333 0
-50 338 -333 0
-65 -338 333 0
-65 338 -333 0
-41 -339 334 0
-41 339 -334 0
-42 -334 339 0
-42 -332 339 0
-42 -339 334 332 0
-43 -339 334 0
-43 339 -334 0
-44 -339 334 0
-44 339 -334 0
-45 -334 339 0
-45 -333 339 0
-45 -339 334 333 0
-46 -339 334 0
-46 339 -334 0
-47 -339 334 0
-47 339 -334 0
-48 -339 334 0
-48 -339 335 0
-48 339 -334 -335 0
-49 -339 334 0
-49 -339 336 0
-49 339 -334 -336 0
-50 -339 334 0
-50 339 -334 0
-65 -339 334 0
-65 339 -334 0
-41 -340 335 0
-41 340 -335 0
-42 -340 335 0
-42 340 -335 0
-43 -335 340 0
-43 -332 340 0
-43 -340 335 332 0
-44 -340 335 0
-44 340 -335 0
-45 -340 335 0
-45 340 -335 0
-46 -335 340 0
-46 -333 340 0
-46 -340 335 333 0
-47 -340 335 0
-47 340 -335 0
-48 -335 340 0
-48 -334 340 0
-48 -340 335 334 0
-49 -340 335 0
-49 340 -335 0
-50 -340 335 0
-50 -340 336 0
-50 340 -335 -336 0
-65 -340 335 0
-65 340 -335 0
-41 -341 336 0
-41 341 -336 0
-42 -341 336 0
-42 341 -336 0
-43 -341 336 0
-43 341 -336 0
-44 -336 341 0
-44 -332 341 0
-44 -341 336 332 0
-45 -341 336 0
-45 341 -336 0
-46 -341 336 0
-46 341 -336 0
-47 -336 341 0
-47 -333 341 0
-47 -341 336 333 0
-48 -341 336 0
-48 341 -336 0
-49 -336 341 0
-49 -334 341 0
-49 -341 336 334 0
-50 -336 341 0
-50 -335 341 0
-50 -341 336 335 0
-65 -341 336 0
-65 341 -336 0
-51 -342 337 0
-51 -342 338 0
-51 342 -337 -338 0
-52 -342 337 0
-52 -342 339 0
-52 342 -337 -339 0
-53 -342 337 0
-53 -342 340 0
-53 342 -337 -340 0
-54 -342 337 0
-54 -342 341 0
-54 342 -337 -341 0
-55 -342 337 0
-55 342 -337 0
-56 -342 337 0
-56 342 -337 0
-57 -342 337 0
-57 342 -337 0
-58 -342 337 0
-58 342 -337 0
-59 -342 337 0
-59 342 -337 0
-60 -342 337 0
-60 342 -337 0
-66 -342 337 0
-66 342 -337 0
-51 -338 343 0
-51 -337 343 0
-51 -343 338 337 0
-52 -343 338 0
-52 343 -338 0
-53 -343 338 0
-53 343 -338 0
-54 -343 338 0
-54 343 -338 0
-55 -343 338 0
-55 -343 339 0
-55 343 -338 -339 0
-56 -343 338 0
-56 -343 340 0
-56 343 -338 -340 0
-57 -343 338 0
-57 -343 341 0
-57 343 -338 -341 0
-58 -343 338 0
-58 343 -338 0
-59 -343 338 0
-59 343 -338 0
-60 -343 338 0
-60 343 -338 0
-66 -343 338 0
-66 343 -338 0
-51 -344 339 0
-51 344 -339 0
-52 -339 344 0
-52 -337 344 0
-52 -344 339 337 0
-53 -344 339 0
-53 344 -339 0
-54 -344 339 0
-54 344 -339 0
-55 -339 344 0
-55 -338 344 0
-55 -344 339 338 0
-56 -344 339 0
-56 344 -339 0
-57 -344 339 0
-57 344 -339 0
-58 -344 339 0
-58 -344 340 0
-58 344 -339 -340 0
-59 -344 339 0
-59 -344 341 0
-59 344 -339 -341 0
-60 -344 339 0
-60 344 -339 0
-66 -344 339 0
-66 344 -339 0
-51 -345 340 0
-51 345 -340 0
-52 -345 340 0
-52 345 -340 0
-53 -340 345 0
-53 -337 345 0
-53 -345 340 337 0
-54 -345 340 0
-54 345 -340 0
-55 -345 340 0
-55 345 -340 0
-56 -340 345 0
-56 -338 345 0
-56 -345 340 338 0
-57 -345 340 0
-57 345 -340 0
-58 -340 345 0
-58 -339 345 0
-58 -345 340 339 0
-59 -345 340 0
-59 345 -340 0
-60 -345 340 0
-60 -345 341 0
-60 345 -340 -341 0
-66 -345 340 0
-66 345 -340 0
-51 -346 341 0
-51 346 -341 0
-52 -346 341 0
-52 346 -341 0
-53 -346 341 0
-53 346 -341 0
-54 -341 346 0
-54 -337 346 0
-54 -346 341 337 0
-55 -346 341 0
-55 346 -341 0
-56 -346 341 0
-56 346 -341 0
-57 -341 346 0
-57 -338 346 0
-57 -346 341 338 0
-58 -346 341 0
-58 346 -341 0
-59 -341 346 0
-59 -339 346 0
-59 -346 341 339 0
-60 -341 346 0
-60 -340 346 0
-60 -346 341 340 0
-66 -346 341 0
-66 346 -341 0
-347 0
-1 -352 347 0
-1 -352 348 0
-1 352 -347 -348 0
-2 -352 347 0
-2 -352 349 0
-2 352 -347 -349 0
-3 -352 347 0
-3 -352 350 0
-3 352 -347 -350 0
-4 -352 347 0
-4 -352 351 0
-4 352 -347 -351 0
-5 -352 347 0
-5 352 -347 0
-6 -352 347 0
-6 352 -347 0
-7 -352 347 0
-7 352 -347 0
-8 -352 347 0
-8 352 -347 0
-9 -352 347 0
-9 352 -347 0
-10 -352 347 0
-10 352 -347 0
-61 -352 347 0
-61 352 -347 0
348 0
-1 -348 353 0
-1 -347 353 0
-1 -353 348 347 0
-2 -353 348 0
-2 353 -348 0
-3 -353 348 0
-3 353 -348 0
-4 -353 348 0
-4 353 -348 0
-5 -353 348 0
-5 -353 349 0
-5 353 -348 -349 0
-6 -353 348 0
-6 -353 350 0
-6 353 -348 -350 0
-7 -353 348 0
-7 -353 351 0
-7 353 -348 -351 0
-8 -353 348 0
-8 353 -348 0
-9 -353 348 0
-9 353 -348 0
-10 -353 348 0
-10 353 -348 0
-61 -353 348 0
-61 353 -348 0
349 0
-1 -354 349 0
-1 354 -349 0
-2 -349 354 0
-2 -347 354 0
-2 -354 349 347 0
-3 -354 349 0
-3 354 -349 0
-4 -354 349 0
-4 354 -349 0
-5 -349 354 0
-5 -348 354 0
-5 -354 349 348 0
-6 -354 349 0
-6 354 -349 0
-7 -354 349 0
-7 354 -349 0
-8 -354 349 0
-8 -354 350 0
-8 354 -349 -350 0
-9 -354 349 0
-9 -354 351 0
-9 354 -349 -351 0
-10 -354 349 0
-10 354 -349 0
-61 -354 349 0
-61 354 -349 0
-350 0
-1 -355 350 0
-1 355 -350 0
-2 -355 350 0
-2 355 -350 0
-3 -350 355 0
-3 -347 355 0
-3 -355 350 347 0
-4 -355 350 0
-4 355 -350 0
-5 -355 350 0
-5 355 -350 0
-6 -350 355 0
-6 -348 355 0
-6 -355 350 348 0
-7 -355 350 0
-7 355 -350 0
-8 -350 355 0
-8 -349 355 0
-8 -355 350 349 0
-9 -355 350 0
-9 355 -350 0
-10 -355 350 0
-10 -355 351 0
-10 355 -350 -351 0
-61 -355 350 0
-61 355 -350 0
-351 0
-1 -356 351 0
-1 356 -351 0
-2 -356 351 0
-2 356 -351 0
-3 -356 351 0
-3 356 -351 0
-4 -351 356 0
-4 -347 356 0
-4 -356 351 347 0
-5 -356 351 0
-5 356 -351 0
-6 -356 351 0
-6 356 -351 0
-7 -351 356 0
-7 -348 356 0
-7 -356 351 348 0
-8 -356 351 0
-8 356 -351 0
-9 -351 356 0
-9 -349 356 0
-9 -356 351 349 0
-10 -351 356 0
-10 -350 356 0
-10 -356 351 350 0
-61 -356 351 0
-61 356 -351 0
-11 -357 352 0
-11 -357 353 0
-11 357 -352 -353 0
-12 -357 352 0
-12 -357 354 0
-12 357 -352 -354 0
-13 -357 352 0
-13 -357 355 0
-13 357 -352 -355 0
-14 -357 352 0
-14 -357 356 0
-14 357 -352 -356 0
-15 -357 352 0
-15 357 -352 0
-16 -357 352 0
-16 357 -352 0
-17 -357 352 0
-17 357 -352 0
-18 -357 352 0
-18 357 -352 0
-19 -357 352 0
-19 357 -352 0
-20 -357 352 0
-20 357 -352 0
-62 -357 352 0
-62 357 -352 0
-11 -353 358 0
-11 -352 358 0
-11 -358 353 352 0
-12 -358 353 0
-12 358 -353 0
-13 -358 353 0
-13 358 -353 0
-14 -358 353 0
-14 358 -353 0
-15 -358 353 0
-15 -358 354 0
-15 358 -353 -354 0
-16 -358 353 0
-16 -358 355 0
-16 358 -353 -355 0
-17 -358 353 0
-17 -358 356 0
-17 358 -353 -356 0
-18 -358 353 0
-18 358 -353 0
-19 -358 353 0
-19 358 -353 0
-20 -358 353 0
-20 358 -353 0
-62 -358 353 0
-62 358 -353 0
-11 -359 354 0
-11 359 -354 0
-12 -354 359 0
-12 -352 359 0
-12 -359 354 352 0
-13 -359 354 0
-13 359 -354 0
-14 -359 354 0
-14 359 -354 0
-15 -354 359 0
-15 -353 359 0
-15 -359 354 353 0
-16 -359 354 0
-16 359 -354 0
-17 -359 354 0
-17 359 -354 0
-18 -359 354 0
-18 -359 355 0
-18 359 -354 -355 0
-19 -359 354 0
-19 -359 356 0
-19 359 -354 -356 0
-20 -359 354 0
-20 359 -354 0
-62 -359 354 0
-62 359 -354 0
-11 -360 355 0
-11 360 -355 0
-12 -360 355 0
-12 360 -355 0
-13 -355 360 0
-13 -352 360 0
-13 -360 355 352 0
-14 -360 355 0
-14 360 -355 0
-15 -360 355 0
-15 360 -355 0
-16 -355 360 0
-16 -353 360 0
-16 -360 355 353 0
-17 -360 355 0
-17 360 -355 0
-18 -355 360 0
-18 -354 360 0
-18 -360 355 354 0
-19 -360 355 0
-19 360 -355 0
-20 -360 355 0
-20 -360 356 0
-20 360 -355 -356 0
-62 -360 355 0
-62 360 -355 0
-11 -361 356 0
-11 361 -356 0
-12 -361 356 0
-12 361 -356 0
-13 -361 356 0
-13 361 -356 0
-14 -356 361 0
-14 -352 361 0
-14 -361 356 352 0
-15 -361 356 0
-15 361 -356 0
-16 -361 356 0
-16 361 -356 0
-17 -356 361 0
-17 -353 361 0
-17 -361 356 353 0
-18 -361 356 0
-18 361 -356 0
-19 -356 361 0
-19 -354 361 0
-19 -361 356 354 0
-20 -356 361 0
-20 -355 361 0
-20 -361 356 355 0
-62 -361 356 0
-62 361 -356 0
-21 -362 357 0
-21 -362 358 0
-21 362 -357 -358 0
-22 -362 357 0
-22 -362 359 0
-22 362 -357 -359 0
-23 -362 357 0
-23 -362 360 0
-23 362 -357 -360 0
-24 -362 357 0
-24 -362 361 0
-24 362 -357 -361 0
-25 -362 357 0
-25 362 -357 0
-26 -362 357 0
-26 362 -357 0
-27 -362 357 0
-27 362 -357 0
-28 -362 357 0
-28 362 -357 0
-29 -362 357 0
-29 362 -357 0
-30 -362 357 0
-30 362 -357 0
-63 -362 357 0
-63 362 -357 0
-21 -358 363 0
-21 -357 363 0
-21 -363 358 357 0
-22 -363 358 0
-22 363 -358 0
-23 -363 358 0
-23 363 -358 0
-24 -363 358 0
-24 363 -358 0
-25 -363 358 0
-25 -363 359 0
-25 363 -358 -359 0
-26 -363 358 0
-26 -363 360 0
-26 363 -358 -360 0
-27 -363 358 0
-27 -363 361 0
-27 363 -358 -361 0
-28 -363 358 0
-28 363 -358 0
-29 -363 358 0
-29 363 -358 0
-30 -363 358 0
-30 363 -358 0
-63 -363 358 0
-63 363 -358 0
-21 -364 359 0
-21 364 -359 0
-22 -359 364 0
-22 -357 364 0
-22 -364 359 357 0
-23 -364 359 0
-23 364 -359 0
-24 -364 359 0
-24 364 -359 0
-25 -359 364 0
-25 -358 364 0
-25 -364 359 358 0
-26 -364 359 0
-26 364 -359 0
-27 -364 359 0
-27 364 -359 0
-28 -364 359 0
-28 -364 360 0
-28 364 -359 -360 0
-29 -364 359 0
-29 -364 361 0
-29 364 -359 -361 0
-30 -364 359 0
-30 364 -359 0
-63 -364 359 0
-63 364 -359 0
-21 -365 360 0
-21 365 -360 0
-22 -365 360 0
-22 365 -360 0
-23 -360 365 0
-23 -357 365 0
-23 -365 360 357 0
-24 -365 360 0
-24 365 -360 0
-25 -365 360 0
-25 365 -360 0
-26 -360 365 0
-26 -358 365 0
-26 -365 360 358 0
-27 -365 360 0
-27 365 -360 0
-28 -360 365 0
-28 -359 365 0
-28 -365 360 359 0
-29 -365 360 0
-29 365 -360 0
-30 -365 360 0
-30 -365 361 0
-30 365 -360 -361 0
-63 -365 360 0
-63 365 -360 0
-21 -366 361 0
-21 366 -361 0
-22 -366 361 0
-22 366 -361 0
-23 -366 361 0
-23 366 -361 0
-24 -361 366 0
-24 -357 366 0
-24 -366 361 357 0
-25 -366 361 0
-25 366 -361 0
-26 -366 361 0
-26 366 -361 0
-27 -361 366 0
-27 -358 366 0
-27 -366 361 358 0
-28 -366 361 0
-28 366 -361 0
-29 -361 366 0
-29 -359 366 0
-29 -366 361 359 0
-30 -361 366 0
-30 -360 366 0
-30 -366 361 360 0
-63 -366 361 0
-63 366 -361 0
-31 -367 362 0
-31 -367 363 0
-31 367 -362 -363 0
-32 -367 362 0
-32 -367 364 0
-32 367 -362 -364 0
-33 -367 362 0
-33 -367 365 0
-33 367 -362 -365 0
-34 -367 362 0
-34 -367 366 0
-34 367 -362 -366 0
-35 -367 362 0
-35 367 -362 0
-36 -367 362 0
-36 367 -362 0
-37 -367 362 0
-37 367 -362 0
-38 -367 362 0
-38 367 -362 0
-39 -367 362 0
-39 367 -362 0
-40 -367 362 0
-40 367 -362 0
-64 -367 362 0
-64 367 -362 0
-31 -363 368 0
-31 -362 368 0
-31 -368 363 362 0
-32 -368 363 0
-32 368 -363 0
-33 -368 363 0
-33 368 -363 0
-34 -368 363 0
-34 368 -363 0
-35 -368 363 0
-35 -368 364 0
-35 368 -363 -364 0
-36 -368 363 0
-36 -368 365 0
-36 368 -363 -365 0
-37 -368 363 0
-37 -368 366 0
-37 368 -363 -366 0
-38 -368 363 0
-38 368 -363 0
-39 -368 363 0
-39 368 -363 0
-40 -368 363 0
-40 368 -363 0
-64 -368 363 0
-64 368 -363 0
-31 -369 364 0
-31 369 -364 0
-32 -364 369 0
-32 -362 369 0
-32 -369 364 362 0
-33 -369 364 0
-33 369 -364 0
-34 -369 364 0
-34 369 -364 0
-35 -364 369 0
-35 -363 369 0
-35 -369 364 363 0
-36 -369 364 0
-36 369 -364 0
-37 -369 364 0
-37 369 -364 0
-38 -369 364 0
-38 -369 365 0
-38 369 -364 -365 0
-39 -369 364 0
-39 -369 366 0
-39 369 -364 -366 0
-40 -369 364 0
-40 369 -364 0
-64 -369 364 0
-64 369 -364 0
-31 -370 365 0
-31 370 -365 0
-32 -370 365 0
-32 370 -365 0
-33 -365 370 0
-33 -362 370 0
-33 -370 365 362 0
-34 -370 365 0
-34 370 -365 0
-35 -370 365 0
-35 370 -365 0
-36 -365 370 0
-36 -363 370 0
-36 -370 365 363 0
-37 -370 365 0
-37 370 -365 0
-38 -365 370 0
-38 -364 370 0
-38 -370 365 364 0
-39 -370 365 0
-39 370 -365 0
-40 -370 365 0
-40 -370 366 0
-40 370 -365 -366 0
-64 -370 365 0
-64 370 -365 0
-31 -371 366 0
-31 371 -366 0
-32 -371 366 0
-32 371 -366 0
-33 -371 366 0
-33 371 -366 0
-34 -366 371 0
-34 -362 371 0
-34 -371 366 362 0
-35 -371 366 0
-35 371 -366 0
-36 -371 366 0
-36 371 -366 0
-37 -366 371 0
-37 -363 371 0
-37 -371 366 363 0
-38 -371 366 0
-38 371 -366 0
-39 -366 371 0
-39 -364 371 0
-39 -371 366 364 0
-40 -366 371 0
-40 -365 371 0
-40 -371 366 365 0
-64 -371 366 0
-64 371 -366 0
-41 -372 367 0
-41 -372 368 0
-41 372 -367 -368 0
-42 -372 367 0
-42 -372 369 0
-42 372 -367 -369 0
-43 -372 367 0
-43 -372 370 0
-43 372 -367 -370 0
-44 -372 367 0
-44 -372 371 0
-44 372 -367 -371 0
-45 -372 367 0
-45 372 -367 0
-46 -372 367 0
-46 372 -367 0
-47 -372 367 0
-47 372 -367 0
-48 -372 367 0
-48 372 -367 0
-49 -372 367 0
-49 372 -367 0
-50 -372 367 0
-50 372 -367 0
-65 -372 367 0
-65 372 -367 0
-41 -368 373 0
-41 -367 373 0
-41 -373 368 367 0
-42 -373 368 0
-42 373 -368 0
-43 -373 368 0
-43 373 -368 0
-44 -373 368 0
-44 373 -368 0
-45 -373 368 0
-45 -373 369 0
-45 373 -368 -369 0
-46 -373 368 0
-46 -373 370 0
-46 373 -368 -370 0
-47 -373 368 0
-47 -373 371 0
-47 373 -368 -371 0
-48 -373 368 0
-48 373 -368 0
-49 -373 368 0
-49 373 -368 0
-50 -373 368 0
-50 373 -368 0
-65 -373 368 0
-65 373 -368 0
-41 -374 369 0
-41 374 -369 0
-42 -369 374 0
-42 -367 374 0
-42 -374 369 367 0
-43 -374 369 0
-43 374 -369 0
-44 -374 369 0
-44 374 -369 0
-45 -369 374 0
-45 -368 374 0
-45 -374 369 368 0
-46 -374 369 0
-46 374 -369 0
-47 -374 369 0
-47 374 -369 0
-48 -374 369 0
-48 -374 370 0
-48 374 -369 -370 0
-49 -374 369 0
-49 -374 371 0
-49 374 -369 -371 0
-50 -374 369 0
-50 374 -369 0
-65 -374 369 0
-65 374 -369 0
-41 -375 370 0
-41 375 -370 0
-42 -375 370 0
-42 375 -370 0
-43 -370 375 0
-43 -367 375 0
-43 -375 370 367 0
-44 -375 370 0
-44 375 -370 0
-45 -375 370 0
-45 375 -370 0
-46 -370 375 0
-46 -368 375 0
-46 -375 370 368 0
-47 -375 370 0
-47 375 -370 0
-48 -370 375 0
-48 -369 375 0
-48 -375 370 369 0
-49 -375 370 0
-49 375 -370 0
-50 -375 370 0
-50 -375 371 0
-50 375 -370 -371 0
-65 -375 370 0
-65 375 -370 0
-41 -376 371 0
-41 376 -371 0
-42 -376 371 0
-42 376 -371 0
-43 -376 371 0
-43 376 -371 0
-44 -371 376 0
-44 -367 376 0
-44 -376 371 367 0
-45 -376 371 0
-45 376 -371 0
-46 -376 371 0
-46 376 -371 0
-47 -371 376 0
-47 -368 376 0
-47 -376 371 368 0
-48 -376 371 0
-48 376 -371 0
-49 -371 376 0
-49 -369 376 0
-49 -376 371 369 0
-50 -371 376 0
-50 -370 376 0
-50 -376 371 370 0
-65 -376 371 0
-65 376 -371 0
-51 -377 372 0
-51 -377 373 0
-51 377 -372 -373 0
-52 -377 372 0
-52 -377 374 0
-52 377 -372 -374 0
-53 -377 372 0
-53 -377 375 0
-53 377 -372 -375 0
-54 -377 372 0
-54 -377 376 0
-54 377 -372 -376 0
-55 -377 372 0
-55 377 -372 0
-56 -377 372 0
-56 377 -372 0
-57 -377 372 0
-57 377 -372 0
-58 -377 372 0
-58 377 -372 0
-59 -377 372 0
-59 377 -372 0
-60 -377 372 0
-60 377 -372 0
-66 -377 372 0
-66 377 -372 0
-51 -373 378 0
-51 -372 378 0
-51 -378 373 372 0
-52 -378 373 0
-52 378 -373 0
-53 -378 373 0
-53 378 -373 0
-54 -378 373 0
-54 378 -373 0
-55 -378 373 0
-55 -378 374 0
-55 378 -373 -374 0
-56 -378 373 0
-56 -378 375 0
-56 378 -373 -375 0
-57 -378 373 0
-57 -378 376 0
-57 378 -373 -376 0
-58 -378 373 0
-58 378 -373 0
-59 -378 373 0
-59 378 -373 0
-60 -378 373 0
-60 378 -373 0
-66 -378 373 0
-66 378 -373 0
-51 -379 374 0
-51 379 -374 0
-52 -374 379 0
-52 -372 379 0
-52 -379 374 372 0
-53 -379 374 0
-53 379 -374 0
-54 -379 374 0
-54 379 -374 0
-55 -374 379 0
-55 -373 379 0
-55 -379 374 373 0
-56 -379 374 0
-56 379 -374 0
-57 -379 374 0
-57 379 -374 0
-58 -379 374 0
-58 -379 375 0
-58 379 -374 -375 0
-59 -379 374 0
-59 -379 376 0
-59 379 -374 -376 0
-60 -379 374 0
-60 379 -374 0
-66 -379 374 0
-66 379 -374 0
-51 -380 375 0
-51 380 -375 0
-52 -380 375 0
-52 380 -375 0
-53 -375 380 0
-53 -372 380 0
-53 -380 375 372 0
-54 -380 375 0
-54 380 -375 0
-55 -380 375 0
-55 380 -375 0
-56 -375 380 0
-56 -373 380 0
-56 -380 375 373 0
-57 -380 375 0
-57 380 -375 0
-58 -375 380 0
-58 -374 380 0
-58 -380 375 374 0
-59 -380 375 0
-59 380 -375 0
-60 -380 375 0
-60 -380 376 0
-60 380 -375 -376 0
-66 -380 375 0
-66 380 -375 0
-51 -381 376 0
-51 381 -376 0
-52 -381 376 0
-52 381 -376 0
-53 -381 376 0
-53 381 -376 0
-54 -376 381 0
-54 -372 381 0
-54 -381 376 372 0
-55 -381 376 0
-55 381 -376 0
-56 -381 376 0
-56 381 -376 0
-57 -376 381 0
-57 -373 381 0
-57 -381 376 373 0
-58 -381 376 0
-58 381 -376 0
-59 -376 381 0
-59 -374 381 0
-59 -381 376 374 0
-60 -376 381 0
-60 -375 381 0
-60 -381 376 375 0
-66 -381 376 0
-66 381 -376 0
-382 0
-1 -387 382 0
-1 -387 383 0
-1 387 -382 -383 0
-2 -387 382 0
-2 -387 384 0
-2 387 -382 -384 0
-3 -387 382 0
-3 -387 385 0
-3 387 -382 -385 0
-4 -387 382 0
-4 -387 386 0
-4 387 -382 -386 0
-5 -387 382 0
-5 387 -382 0
-6 -387 382 0
-6 387 -382 0
-7 -387 382 0
-7 387 -382 0
-8 -387 382 0
-8 387 -382 0
-9 -387 382 0
-9 387 -382 0
-10 -387 382 0
-10 387 -382 0
-61 -387 382 0
-61 387 -382 0
383 0
-1 -383 388 0
-1 -382 388 0
-1 -388 383 382 0
-2 -388 383 0
-2 388 -383 0
-3 -388 383 0
-3 388 -383 0
-4 -388 383 0
-4 388 -383 0
-5 -388 383 0
-5 -388 384 0
-5 388 -383 -384 0
-6 -388 383 0
-6 -388 385 0
-6 388 -383 -385 0
-7 -388 383 0
-7 -388 386 0
-7 388 -383 -386 0
-8 -388 383 0
-8 388 -383 0
-9 -388 383 0
-9 388 -383 0
-10 -388 383 0
-10 388 -383 0
-61 -388 383 0
-61 388 -383 0
384 0
-1 -389 384 0
-1 389 -384 0
-2 -384 389 0
-2 -382 389 0
-2 -389 384 382 0
-3 -389 384 0
-3 389 -384 0
-4 -389 384 0
-4 389 -384 0
-5 -384 389 0
-5 -383 389 0
-5 -389 384 383 0
-6 -389 384 0
-6 389 -384 0
-7 -389 384 0
-7 389 -384 0
-8 -389 384 0
-8 -389 385 0
-8 389 -384 -385 0
-9 -389 384 0
-9 -389 386 0
-9 389 -384 -386 0
-10 -389 384 0
-10 389 -384 0
-61 -389 384 0
-61 389 -384 0
-385 0
-1 -390 385 0
-1 390 -385 0
-2 -390 385 0
-2 390 -385 0
-3 -385 390 0
-3 -382 390 0
-3 -390 385 382 0
-4 -390 385 0
-4 390 -385 0
-5 -390 385 0
-5 390 -385 0
-6 -385 390 0
-6 -383 390 0
-6 -390 385 383 0
-7 -390 385 0
-7 390 -385 0
-8 -385 390 0
-8 -384 390 0
-8 -390 385 384 0
-9 -390 385 0
-9 390 -385 0
-10 -390 385 0
-10 -390 386 0
-10 390 -385 -386 0
-61 -390 385 0
-61 390 -385 0
386 0
-1 -391 386 0
-1 391 -386 0
-2 -391 386 0
-2 391 -386 0
-3 -391 386 0
-3 391 -386 0
-4 -386 391 0
-4 -382 391 0
-4 -391 386 382 0
-5 -391 386 0
-5 391 -386 0
-6 -391 386 0
-6 391 -386 0
-7 -386 391 0
-7 -383 391 0
-7 -391 386 383 0
-8 -391 386 0
-8 391 -386 0
-9 -386 391 0
-9 -384 391 0
-9 -391 386 384 0
-10 -386 391 0
-10 -385 391 0
-10 -391 386 385 0
-61 -391 386 0
-61 391 -386 0
-11 -392 387 0
-11 -392 388 0
-11 392 -387 -388 0
-12 -392 387 0
-12 -392 389 0
-12 392 -387 -389 0
-13 -392 387 0
-13 -392 390 0
-13 392 -387 -390 0
-14 -392 387 0
-14 -392 391 0
-14 392 -387 -391 0
-15 -392 387 0
-15 392 -387 0
-16 -392 387 0
-16 392 -387 0
-17 -392 387 0
-17 392 -387 0
-18 -392 387 0
-18 392 -387 0
-19 -392 387 0
-19 392 -387 0
-20 -392 387 0
-20 392 -387 0
-62 -392 387 0
-62 392 -387 0
-11 -388 393 0
-11 -387 393 0
-11 -393 388 387 0
-12 -393 388 0
-12 393 -388 0
-13 -393 388 0
-13 393 -388 0
-14 -393 388 0
-14 393 -388 0
-15 -393 388 0
-15 -393 389 0
-15 393 -388 -389 0
-16 -393 388 0
-16 -393 390 0
-16 393 -388 -390 0
-17 -393 388 0
-17 -393 391 0
-17 393 -388 -391 0
-18 -393 388 0
-18 393 -388 0
-19 -393 388 0
-19 393 -388 0
-20 -393 388 0
-20 393 -388 0
-62 -393 388 0
-62 393 -388 0
-11 -394 389 0
-11 394 -389 0
-12 -389 394 0
-12 -387 394 0
-12 -394 389 387 0
-13 -394 389 0
-13 394 -389 0
-14 -394 389 0
-14 394 -389 0
-15 -389 394 0
-15 -388 394 0
-15 -394 389 388 0
-16 -394 389 0
-16 394 -389 0
-17 -394 389 0
-17 394 -389 0
-18 -394 389 0
-18 -394 390 0
-18 394 -389 -390 0
-19 -394 389 0
-19 -394 391 0
-19 394 -389 -391 0
-20 -394 389 0
-20 394 -389 0
-62 -394 389 0
-62 394 -389 0
-11 -395 390 0
-11 395 -390 0
-12 -395 390 0
-12 395 -390 0
-13 -390 395 0
-13 -387 395 0
-13 -395 390 387 0
-14 -395 390 0
-14 395 -390 0
-15 -395 390 0
-15 395 -390 0
-16 -390 395 0
-16 -388 395 0
-16 -395 390 388 0
-17 -395 390 0
-17 395 -390 0
-18 -390 395 0
-18 -389 395 0
-18 -395 390 389 0
-19 -395 390 0
-19 395 -390 0
-20 -395 390 0
-20 -395 391 0
-20 395 -390 -391 0
-62 -395 390 0
-62 395 -390 0
-11 -396 391 0
-11 396 -391 0
-12 -396 391 0
-12 396 -391 0
-13 -396 391 0
-13 396 -391 0
-14 -391 396 0
-14 -387 396 0
-14 -396 391 387 0
-15 -396 391 0
-15 396 -391 0
-16 -396 391 0
-16 396 -391 0
-17 -391 396 0
-17 -388 396 0
-17 -396 391 388 0
-18 -396 391 0
-18 396 -391 0
-19 -391 396 0
-19 -389 396 0
-19 -396 391 389 0
-20 -391 396 0
-20 -390 396 0
-20 -396 391 390 0
-62 -396 391 0
-62 396 -391 0
-21 -397 392 0
-21 -397 393 0
-21 397 -392 -393 0
-22 -397 392 0
-22 -397 394 0
-22 397 -392 -394 0
-23 -397 392 0
-23 -397 395 0
-23 397 -392 -395 0
-24 -397 392 0
-24 -397 396 0
-24 397 -392 -396 0
-25 -397 392 0
-25 397 -392 0
-26 -397 392 0
-26 397 -392 0
-27 -397 392 0
-27 397 -392 0
-28 -397 392 0
-28 397 -392 0
-29 -397 392 0
-29 397 -392 0
-30 -397 392 0
-30 397 -392 0
-63 -397 392 0
-63 397 -392 0
-21 -393 398 0
-21 -392 398 0
-21 -398 393 392 0
-22 -398 393 0
-22 398 -393 0
-23 -398 393 0
-23 398 -393 0
-24 -398 393 0
-24 398 -393 0
-25 -398 393 0
-25 -398 394 0
-25 398 -393 -394 0
-26 -398 393 0
-26 -398 395 0
-26 398 -393 -395 0
-27 -398 393 0
-27 -398 396 0
-27 398 -393 -396 0
-28 -398 393 0
-28 398 -393 0
-29 -398 393 0
-29 398 -393 0
-30 -398 393 0
-30 398 -393 0
-63 -398 393 0
-63 398 -393 0
-21 -399 394 0
-21 399 -394 0
-22 -394 399 0
-22 -392 399 0
-22 -399 394 392 0
-23 -399 394 0
-23 399 -394 0
-24 -399 394 0
-24 399 -394 0
-25 -394 399 0
-25 -393 399 0
-25 -399 394 393 0
-26 -399 394 0
-26 399 -394 0
-27 -399 394 0
-27 399 -394 0
-28 -399 394 0
-28 -399 395 0
-28 399 -394 -395 0
-29 -399 394 0
-29 -399 396 0
-29 399 -394 -396 0
-30 -399 394 0
-30 399 -394 0
-63 -399 394 0
-63 399 -394 0
-21 -400 395 0
-21 400 -395 0
-22 -400 395 0
-22 400 -395 0
-23 -395 400 0
-23 -392 400 0
-23 -400 395 392 0
-24 -400 395 0
-24 400 -395 0
-25 -400 395 0
-25 400 -395 0
-26 -395 400 0
-26 -393 400 0
-26 -400 395 393 0
-27 -400 395 0
-27 400 -395 0
-28 -395 400 0
-28 -394 400 0
-28 -400 395 394 0
-29 -400 395 0
-29 400 -395 0
-30 -400 395 0
-30 -400 396 0
-30 400 -395 -396 0
-63 -400 395 0
-63 400 -395 0
-21 -401 396 0
-21 401 -396 0
-22 -401 396 0
-22 401 -396 0
-23 -401 396 0
-23 401 -396 0
-24 -396 401 0
-24 -392 401 0
-24 -401 396 392 0
-25 -401 396 0
-25 401 -396 0
-26 -401 396 0
-26 401 -396 0
-27 -396 401 0
-27 -393 401 0
-27 -401 396 393 0
-28 -401 396 0
-28 401 -396 0
-29 -396 401 0
-29 -394 401 0
-29 -401 396 394 0
-30 -396 401 0
-30 -395 401 0
-30 -401 396 395 0
-63 -401 396 0
-63 401 -396 0
-31 -402 397 0
-31 -402 398 0
-31 402 -397 -398 0
-32 -402 397 0
-32 -402 399 0
-32 402 -397 -399 0
-33 -402 397 0
-33 -402 400 0
-33 402 -397 -400 0
-34 -402 397 0
-34 -402 401 0
-34 402 -397 -401 0
-35 -402 397 0
-35 402 -397 0
-36 -402 397 0
-36 402 -397 0
-37 -402 397 0
-37 402 -397 0
-38 -402 397 0
-38 402 -397 0
-39 -402 397 0
-39 402 -397 0
-40 -402 397 0
-40 402 -397 0
-64 -402 397 0
-64 402 -397 0
-31 -398 403 0
-31 -397 403 0
-31 -403 398 397 0
-32 -403 398 0
-32 403 -398 0
-33 -403 398 0
-33 403 -398 0
-34 -403 398 0
-34 403 -398 0
-35 -403 398 0
-35 -403 399 0
-35 403 -398 -399 0
-36 -403 398 0
-36 -403 400 0
-36 403 -398 -400 0
-37 -403 398 0
-37 -403 401 0
-37 403 -398 -401 0
-38 -403 398 0
-38 403 -398 0
-39 -403 398 0
-39 403 -398 0
-40 -403 398 0
-40 403 -398 0
-64 -403 398 0
-64 403 -398 0
-31 -404 399 0
-31 404 -399 0
-32 -399 404 0
-32 -397 404 0
-32 -404 399 397 0
-33 -404 399 0
-33 404 -399 0
-34 -404 399 0
-34 404 -399 0
-35 -399 404 0
-35 -398 404 0
-35 -404 399 398 0
-36 -404 399 0
-36 404 -399 0
-37 -404 399 0
-37 404 -399 0
-38 -404 399 0
-38 -404 400 0
-38 404 -399 -400 0
-39 -404 399 0
-39 -404 401 0
-39 404 -399 -401 0
-40 -404 399 0
-40 404 -399 0
-64 -404 399 0
-64 404 -399 0
-31 -405 400 0
-31 405 -400 0
-32 -405 400 0
-32 405 -400 0
-33 -400 405 0
-33 -397 405 0
-33 -405 400 397 0
-34 -405 400 0
-34 405 -400 0
-35 -405 400 0
-35 405 -400 0
-36 -400 405 0
-36 -398 405 0
-36 -405 400 398 0
-37 -405 400 0
-37 405 -400 0
-38 -400 405 0
-38 -399 405 0
-38 -405 400 399 0
-39 -405 400 0
-39 405 -400 0
-40 -405 400 0
-40 -405 401 0
-40 405 -400 -401 0
-64 -405 400 0
-64 405 -400 0
-31 -406 401 0
-31 406 -401 0
-32 -406 401 0
-32 406 -401 0
-33 -406 401 0
-33 406 -401 0
-34 -401 406 0
-34 -397 406 0
-34 -406 401 397 0
-35 -406 401 0
-35 406 -401 0
-36 -406 401 0
-36 406 -401 0
-37 -401 406 0
-37 -398 406 0
-37 -406 401 398 0
-38 -406 401 0
-38 406 -401 0
-39 -401 406 0
-39 -399 406 0
-39 -406 401 399 0
-40 -401 406 0
-40 -400 406 0
-40 -406 401 400 0
-64 -406 401 0
-64 406 -401 0
-41 -407 402 0
-41 -407 403 0
-41 407 -402 -403 0
-42 -407 402 0
-42 -407 404 0
-42 407 -402 -404 0
-43 -407 402 0
-43 -407 405 0
-43 407 -402 -405 0
-44 -407 402 0
-44 -407 406 0
-44 407 -402 -406 0
-45 -407 402 0
-45 407 -402 0
-46 -407 402 0
-46 407 -402 0
-47 -407 402 0
-47 407 -402 0
-48 -407 402 0
-48 407 -402 0
-49 -407 402 0
-49 407 -402 0
-50 -407 402 0
-50 407 -402 0
-65 -407 402 0
-65 407 -402 0
-41 -403 408 0
-41 -402 408 0
-41 -408 403 402 0
-42 -408 403 0
-42 408 -403 0
-43 -408 403 0
-43 408 -403 0
-44 -408 403 0
-44 408 -403 0
-45 -408 403 0
-45 -408 404 0
-45 408 -403 -404 0
-46 -408 403 0
-46 -408 405 0
-46 408 -403 -405 0
-47 -408 403 0
-47 -408 406 0
-47 408 -403 -406 0
-48 -408 403 0
-48 408 -403 0
-49 -408 403 0
-49 408 -403 0
-50 -408 403 0
-50 408 -403 0
-65 -408 403 0
-65 408 -403 0
-41 -409 404 0
-41 409 -404 0
-42 -404 409 0
-42 -402 409 0
-42 -409 404 402 0
-43 -409 404 0
-43 409 -404 0
-44 -409 404 0
-44 409 -404 0
-45 -404 409 0
-45 -403 409 0
-45 -409 404 403 0
-46 -409 404 0
-46 409 -404 0
-47 -409 404 0
-47 409 -404 0
-48 -409 404 0
-48 -409 405 0
-48 409 -404 -405 0
-49 -409 404 0
-49 -409 406 0
-49 409 -404 -406 0
-50 -409 404 0
-50 409 -404 0
-65 -409 404 0
-65 409 -404 0
-41 -410 405 0
-41 410 -405 0
-42 -410 405 0
-42 410 -405 0
-43 -405 410 0
-43 -402 410 0
-43 -410 405 402 0
-44 -410 405 0
-44 410 -405 0
-45 -410 405 0
-45 410 -405 0
-46 -405 410 0
-46 -403 410 0
-46 -410 405 403 0
-47 -410 405 0
-47 410 -405 0
-48 -405 410 0
-48 -404 410 0
-48 -410 405 404 0
-49 -410 405 0
-49 410 -405 0
-50 -410 405 0
-50 -410 406 0
-50 410 -405 -406 0
-65 -410 405 0
-65 410 -405 0
-41 -411 406 0
-41 411 -406 0
-42 -411 406 0
-42 411 -406 0
-43 -411 406 0
-43 411 -406 0
-44 -406 411 0
-44 -402 411 0
-44 -411 406 402 0
-45 -411 406 0
-45 411 -406 0
-46 -411 406 0
-46 411 -406 0
-47 -406 411 0
-47 -403 411 0
-47 -411 406 403 0
-48 -411 406 0
-48 411 -406 0
-49 -406 411 0
-49 -404 411 0
-49 -411 406 404 0
-50 -406 411 0
-50 -405 411 0
-50 -411 406 405 0
-65 -411 406 0
-65 411 -406 0
-51 -412 407 0
-51 -412 408 0
-51 412 -407 -408 0
-52 -412 407 0
-52 -412 409 0
-52 412 -407 -409 0
-53 -412 407 0
-53 -412 410 0
-53 412 -407 -410 0
-54 -412 407 0
-54 -412 411 0
-54 412 -407 -411 0
-55 -412 407 0
-55 412 -407 0
-56 -412 407 0
-56 412 -407 0
-57 -412 407 0
-57 412 -407 0
-58 -412 407 0
-58 412 -407 0
-59 -412 407 0
-59 412 -407 0
-60 -412 407 0
-60 412 -407 0
-66 -412 407 0
-66 412 -407 0
-51 -408 413 0
-51 -407 413 0
-51 -413 408 407 0
-52 -413 408 0
-52 413 -408 0
-53 -413 408 0
-53 413 -408 0
-54 -413 408 0
-54 413 -408 0
-55 -413 408 0
-55 -413 409 0
-55 413 -408 -409 0
-56 -413 408 0
-56 -413 410 0
-56 413 -408 -410 0
-57 -413 408 0
-57 -413 411 0
-57 413 -408 -411 0
-58 -413 408 0
-58 413 -408 0
-59 -413 408 0
-59 413 -408 0
-60 -413 408 0
-60 413 -408 0
-66 -413 408 0
-66 413 -408 0
-51 -414 409 0
-51 414 -409 0
-52 -409 414 0
-52 -407 414 0
-52 -414 409 407 0
-53 -414 409 0
-53 414 -409 0
-54 -414 409 0
-54 414 -409 0
-55 -409 414 0
-55 -408 414 0
-55 -414 409 408 0
-56 -414 409 0
-56 414 -409 0
-57 -414 409 0
-57 414 -409 0
-58 -414 409 0
-58 -414 410 0
-58 414 -409 -410 0
-59 -414 409 0
-59 -414 411 0
-59 414 -409 -411 0
-60 -414 409 0
-60 414 -409 0
-66 -414 409 0
-66 414 -409 0
-51 -415 410 0
-51 415 -410 0
-52 -415 410 0
-52 415 -410 0
-53 -410 415 0
-53 -407 415 0
-53 -415 410 407 0
-54 -415 410 0
-54 415 -410 0
-55 -415 410 0
-55 415 -410 0
-56 -410 415 0
-56 -408 415 0
-56 -415 410 408 0
-57 -415 410 0
-57 415 -410 0
-58 -410 415 0
-58 -409 415 0
-58 -415 410 409 0
-59 -415 410 0
-59 415 -410 0
-60 -415 410 0
-60 -415 411 0
-60 415 -410 -411 0
-66 -415 410 0
-66 415 -410 0
-51 -416 411 0
-51 416 -411 0
-52 -416 411 0
-52 416 -411 0
-53 -416 411 0
-53 416 -411 0
-54 -411 416 0
-54 -407 416 0
-54 -416 411 407 0
-55 -416 411 0
-55 416 -411 0
-56 -416 411 0
-56 416 -411 0
-57 -411 416 0
-57 -408 416 0
-57 -416 411 408 0
-58 -416 411 0
-58 416 -411 0
-59 -411 416 0
-59 -409 416 0
-59 -416 411 409 0
-60 -411 416 0
-60 -410 416 0
-60 -416 411 410 0
-66 -416 411 0
-66 416 -411 0
-417 0
-1 -422 417 0
-1 -422 418 0
-1 422 -417 -418 0
-2 -422 417 0
-2 -422 419 0
-2 422 -417 -419 0
-3 -422 417 0
-3 -422 420 0
-3 422 -417 -420 0
-4 -422 417 0
-4 -422 421 0
-4 422 -417 -421 0
-5 -422 417 0
-5 422 -417 0
-6 -422 417 0
-6 422 -417 0
-7 -422 417 0
-7 422 -417 0
-8 -422 417 0
-8 422 -417 0
-9 -422 417 0
-9 422 -417 0
-10 -422 417 0
-10 422 -417 0
-61 -422 417 0
-61 422 -417 0
418 0
-1 -418 423 0
-1 -417 423 0
-1 -423 418 417 0
-2 -423 418 0
-2 423 -418 0
-3 -423 418 0
-3 423 -418 0
-4 -423 418 0
-4 423 -418 0
-5 -423 418 0
-5 -423 419 0
-5 423 -418 -419 0
-6 -423 418 0
-6 -423 420 0
-6 423 -418 -420 0
-7 -423 418 0
-7 -423 421 0
-7 423 -418 -421 0
-8 -423 418 0
-8 423 -418 0
-9 -423 418 0
-9 423 -418 0
-10 -423 418 0
-10 423 -418 0
-61 -423 418 0
-61 423 -418 0
419 0
-1 -424 419 0
-1 424 -419 0
-2 -419 424 0
-2 -417 424 0
-2 -424 419 417 0
-3 -424 419 0
-3 424 -419 0
-4 -424 419 0
-4 424 -419 0
-5 -419 424 0
-5 -418 424 0
-5 -424 419 418 0
-6 -424 419 0
-6 424 -419 0
-7 -424 419 0
-7 424 -419 0
-8 -424 419 0
-8 -424 420 0
-8 424 -419 -420 0
-9 -424 419 0
-9 -424 421 0
-9 424 -419 -421 0
-10 -424 419 0
-10 424 -419 0
-61 -424 419 0
-61 424 -419 0
420 0
-1 -425 420 0
-1 425 -420 0
-2 -425 420 0
-2 425 -420 0
-3 -420 425 0
-3 -417 425 0
-3 -425 420 417 0
-4 -425 420 0
-4 425 -420 0
-5 -425 420 0
-5 425 -420 0
-6 -420 425 0
-6 -418 425 0
-6 -425 420 418 0
-7 -425 420 0
-7 425 -420 0
-8 -420 425 0
-8 -419 425 0
-8 -425 420 419 0
-9 -425 420 0
-9 425 -420 0
-10 -425 420 0
-10 -425 421 0
-10 425 -420 -421 0
-61 -425 420 0
-61 425 -420 0
-421 0
-1 -426 421 0
-1 426 -421 0
-2 -426 421 0
-2 426 -421 0
-3 -426 421 0
-3 426 -421 0
-4 -421 426 0
-4 -417 426 0
-4 -426 421 417 0
-5 -426 421 0
-5 426 -421 0
-6 -426 421 0
-6 426 -421 0
-7 -421 426 0
-7 -418 426 0
-7 -426 421 418 0
-8 -426 421 0
-8 426 -421 0
-9 -421 426 0
-9 -419 426 0
-9 -426 421 419 0
-10 -421 426 0
-10 -420 426 0
-10 -426 421 420 0
-61 -426 421 0
-61 426 -421 0
-11 -427 422 0
-11 -427 423 0
-11 427 -422 -423 0
-12 -427 422 0
-12 -427 424 0
-12 427 -422 -424 0
-13 -427 422 0
-13 -427 425 0
-13 427 -422 -425 0
-14 -427 422 0
-14 -427 426 0
-14 427 -422 -426 0
-15 -427 422 0
-15 427 -422 0
-16 -427 422 0
-16 427 -422 0
-17 -427 422 0
-17 427 -422 0
-18 -427 422 0
-18 427 -422 0
-19 -427 422 0
-19 427 -422 0
-20 -427 422 0
-20 427 -422 0
-62 -427 422 0
-62 427 -422 0
-11 -423 428 0
-11 -422 428 0
-11 -428 423 422 0
-12 -428 423 0
-12 428 -423 0
-13 -428 423 0
-13 428 -423 0
-14 -428 423 0
-14 428 -423 0
-15 -428 423 0
-15 -428 424 0
-15 428 -423 -424 0
-16 -428 423 0
-16 -428 425 0
-16 428 -423 -425 0
-17 -428 423 0
-17 -428 426 0
-17 428 -423 -426 0
-18 -428 423 0
-18 428 -423 0
-19 -428 423 0
-19 428 -423 0
-20 -428 423 0
-20 428 -423 0
-62 -428 423 0
-62 428 -423 0
-11 -429 424 0
-11 429 -424 0
-12 -424 429 0
-12 -422 429 0
-12 -429 424 422 0
-13 -429 424 0
-13 429 -424 0
-14 -429 424 0
-14 429 -424 0
-15 -424 429 0
-15 -423 429 0
-15 -429 424 423 0
-16 -429 424 0
-16 429 -424 0
-17 -429 424 0
-17 429 -424 0
-18 -429 424 0
-18 -429 425 0
-18 429 -424 -425 0
-19 -429 424 0
-19 -429 426 0
-19 429 -424 -426 0
-20 -429 424 0
-20 429 -424 0
-62 -429 424 0
-62 429 -424 0
-11 -430 425 0
-11 430 -425 0
-12 -430 425 0
-12 430 -425 0
-13 -425 430 0
-13 -422 430 0
-13 -430 425 422 0
-14 -430 425 0
-14 430 -425 0
-15 -430 425 0
-15 430 -425 0
-16 -425 430 0
-16 -423 430 0
-16 -430 425 423 0
-17 -430 425 0
-17 430 -425 0
-18 -425 430 0
-18 -424 430 0
-18 -430 425 424 0
-19 -430 425 0
-19 430 -425 0
-20 -430 425 0
-20 -430 426 0
-20 430 -425 -426 0
-62 -430 425 0
-62 430 -425 0
-11 -431 426 0
-11 431 -426 0
-12 -431 426 0
-12 431 -426 0
-13 -431 426 0
-13 431 -426 0
-14 -426 431 0
-14 -422 431 0
-14 -431 426 422 0
-15 -431 426 0
-15 431 -426 0
-16 -431 426 0
-16 431 -426 0
-17 -426 431 0
-17 -423 431 0
-17 -431 426 423 0
-18 -431 426 0
-18 431 -426 0
-19 -426 431 0
-19 -424 431 0
-19 -431 426 424 0
-20 -426 431 0
-20 -425 431 0
-20 -431 426 425 0
-62 -431 426 0
-62 431 -426 0
-21 -432 427 0
-21 -432 428 0
-21 432 -427 -428 0
-22 -432 427 0
-22 -432 429 0
-22 432 -427 -429 0
-23 -432 427 0
-23 -432 430 0
-23 432 -427 -430 0
-24 -432 427 0
-24 -432 431 0
-24 432 -427 -431 0
-25 -432 427 0
-25 432 -427 0
-26 -432 427 0
-26 432 -427 0
-27 -432 427 0
-27 432 -427 0
-28 -432 427 0
-28 432 -427 0
-29 -432 427 0
-29 432 -427 0
-30 -432 427 0
-30 432 -427 0
-63 -432 427 0
-63 432 -427 0
-21 -428 433 0
-21 -427 433 0
-21 -433 428 427 0
-22 -433 428 0
-22 433 -428 0
-23 -433 428 0
-23 433 -428 0
-24 -433 428 0
-24 433 -428 0
-25 -433 428 0
-25 -433 429 0
-25 433 -428 -429 0
-26 -433 428 0
-26 -433 430 0
-26 433 -428 -430 0
-27 -433 428 0
-27 -433 431 0
-27 433 -428 -431 0
-28 -433 428 0
-28 433 -428 0
-29 -433 428 0
-29 433 -428 0
-30 -433 428 0
-30 433 -428 0
-63 -433 428 0
-63 433 -428 0
-21 -434 429 0
-21 434 -429 0
-22 -429 434 0
-22 -427 434 0
-22 -434 429 427 0
-23 -434 429 0
-23 434 -429 0
-24 -434 429 0
-24 434 -429 0
-25 -429 434 0
-25 -428 434 0
-25 -434 429 428 0
-26 -434 429 0
-26 434 -429 0
-27 -434 429 0
-27 434 -429 0
-28 -434 429 0
-28 -434 430 0
-28 434 -429 -430 0
-29 -434 429 0
-29 -434 431 0
-29 434 -429 -431 0
-30 -434 429 0
-30 434 -429 0
-63 -434 429 0
-63 434 -429 0
-21 -435 430 0
-21 435 -430 0
-22 -435 430 0
-22 435 -430 0
-23 -430 435 0
-23 -427 435 0
-23 -435 430 427 0
-24 -435 430 0
-24 435 -430 0
-25 -435 430 0
-25 435 -430 0
-26 -430 435 0
-26 -428 435 0
-26 -435 430 428 0
-27 -435 430 0
-27 435 -430 0
-28 -430 435 0
-28 -429 435 0
-28 -435 430 429 0
-29 -435 430 0
-29 435 -430 0
-30 -435 430 0
-30 -435 431 0
-30 435 -430 -431 0
-63 -435 430 0
-63 435 -430 0
-21 -436 431 0
-21 436 -431 0
-22 -436 431 0
-22 436 -431 0
-23 -436 431 0
-23 436 -431 0
-24 -431 436 0
-24 -427 436 0
-24 -436 431 427 0
-25 -436 431 0
-25 436 -431 0
-26 -436 431 0
-26 436 -431 0
-27 -431 436 0
-27 -428 436 0
-27 -436 431 428 0
-28 -436 431 0
-28 436 -431 0
-29 -431 436 0
-29 -429 436 0
-29 -436 431 429 0
-30 -431 436 0
-30 -430 436 0
-30 -436 431 430 0
-63 -436 431 0
-63 436 -431 0
-31 -437 432 0
-31 -437 433 0
-31 437 -432 -433 0
-32 -437 432 0
-32 -437 434 0
-32 437 -432 -434 0
-33 -437 432 0
-33 -437 435 0
-33 437 -432 -435 0
-34 -437 432 0
-34 -437 436 0
-34 437 -432 -436 0
-35 -437 432 0
-35 437 -432 0
-36 -437 432 0
-36 437 -432 0
-37 -437 432 0
-37 437 -432 0
-38 -437 432 0
-38 437 -432 0
-39 -437 432 0
-39 437 -432 0
-40 -437 432 0
-40 437 -432 0
-64 -437 432 0
-64 437 -432 0
-31 -433 438 0
-31 -432 438 0
-31 -438 433 432 0
-32 -438 433 0
-32 438 -433 0
-33 -438 433 0
-33 438 -433 0
-34 -438 433 0
-34 438 -433 0
-35 -438 433 0
-35 -438 434 0
-35 438 -433 -434 0
-36 -438 433 0
-36 -438 435 0
-36 438 -433 -435 0
-37 -438 433 0
-37 -438 436 0
-37 438 -433 -436 0
-38 -438 433 0
-38 438 -433 0
-39 -438 433 0
-39 438 -433 0
-40 -438 433 0
-40 438 -433 0
-64 -438 433 0
-64 438 -433 0
-31 -439 434 0
-31 439 -434 0
-32 -434 439 0
-32 -432 439 0
-32 -439 434 432 0
-33 -439 434 0
-33 439 -434 0
-34 -439 434 0
-34 439 -434 0
-35 -434 439 0
-35 -433 439 0
-35 -439 434 433 0
-36 -439 434 0
-36 439 -434 0
-37 -439 434 0
-37 439 -434 0
-38 -439 434 0
-38 -439 435 0
-38 439 -434 -435 0
-39 -439 434 0
-39 -439 436 0
-39 439 -434 -436 0
-40 -439 434 0
-40 439 -434 0
-64 -439 434 0
-64 439 -434 0
-31 -440 435 0
-31 440 -435 0
-32 -440 435 0
-32 440 -435 0
-33 -435 440 0
-33 -432 440 0
-33 -440 435 432 0
-34 -440 435 0
-34 440 -435 0
-35 -440 435 0
-35 440 -435 0
-36 -435 440 0
-36 -433 440 0
-36 -440 435 433 0
-37 -440 435 0
-37 440 -435 0
-38 -435 440 0
-38 -434 440 0
-38 -440 435 434 0
-39 -440 435 0
-39 440 -435 0
-40 -440 435 0
-40 -440 436 0
-40 440 -435 -436 0
-64 -440 435 0
-64 440 -435 0
-31 -441 436 0
-31 441 -436 0
-32 -441 436 0
-32 441 -436 0
-33 -441 436 0
-33 441 -436 0
-34 -436 441 0
-34 -432 441 0
-34 -441 436 432 0
-35 -441 436 0
-35 441 -436 0
-36 -441 436 0
-36 441 -436 0
-37 -436 441 0
-37 -433 441 0
-37 -441 436 433 0
-38 -441 436 0
-38 441 -436 0
-39 -436 441 0
-39 -434 441 0
-39 -441 436 434 0
-40 -436 441 0
-40 -435 441 0
-40 -441 436 435 0
-64 -441 436 0
-64 441 -436 0
-41 -442 437 0
-41 -442 438 0
-41 442 -437 -438 0
-42 -442 437 0
-42 -442 439 0
-42 442 -437 -439 0
-43 -442 437 0
-43 -442 440 0
-43 442 -437 -440 0
-44 -442 437 0
-44 -442 441 0
-44 442 -437 -441 0
-45 -442 437 0
-45 442 -437 0
-46 -442 437 0
-46 442 -437 0
-47 -442 437 0
-47 442 -437 0
-48 -442 437 0
-48 442 -437 0
-49 -442 437 0
-49 442 -437 0
-50 -442 437 0
-50 442 -437 0
-65 -442 437 0
-65 442 -437 0
-41 -438 443 0
-41 -437 443 0
-41 -443 438 437 0
-42 -443 438 0
-42 443 -438 0
-43 -443 438 0
-43 443 -438 0
-44 -443 438 0
-44 443 -438 0
-45 -443 438 0
-45 -443 439 0
-45 443 -438 -439 0
-46 -443 438 0
-46 -443 440 0
-46 443 -438 -440 0
-47 -443 438 0
-47 -443 441 0
-47 443 -438 -441 0
-48 -443 438 0
-48 443 -438 0
-49 -443 438 0
-49 443 -438 0
-50 -443 438 0
-50 443 -438 0
-65 -443 438 0
-65 443 -438 0
-41 -444 439 0
-41 444 -439 0
-42 -439 444 0
-42 -437 444 0
-42 -444 439 437 0
-43 -444 439 0
-43 444 -439 0
-44 -444 439 0
-44 444 -439 0
-45 -439 444 0
-45 -438 444 0
-45 -444 439 438 0
-46 -444 439 0
-46 444 -439 0
-47 -444 439 0
-47 444 -439 0
-48 -444 439 0
-48 -444 440 0
-48 444 -439 -440 0
-49 -444 439 0
-49 -444 441 0
-49 444 -439 -441 0
-50 -444 439 0
-50 444 -439 0
-65 -444 439 0
-65 444 -439 0
-41 -445 440 0
-41 445 -440 0
-42 -445 440 0
-42 445 -440 0
-43 -440 445 0
-43 -437 445 0
-43 -445 440 437 0
-44 -445 440 0
-44 445 -440 0
-45 -445 440 0
-45 445 -440 0
-46 -440 445 0
-46 -438 445 0
-46 -445 440 438 0
-47 -445 440 0
-47 445 -440 0
-48 -440 445 0
-48 -439 445 0
-48 -445 440 439 0
-49 -445 440 0
-49 445 -440 0
-50 -445 440 0
-50 -445 441 0
-50 445 -440 -441 0
-65 -445 440 0
-65 445 -440 0
-41 -446 441 0
-41 446 -441 0
-42 -446 441 0
-42 446 -441 0
-43 -446 441 0
-43 446 -441 0
-44 -441 446 0
-44 -437 446 0
-44 -446 441 437 0
-45 -446 441 0
-45 446 -441 0
-46 -446 441 0
-46 446 -441 0
-47 -441 446 0
-47 -438 446 0
-47 -446 441 438 0
-48 -446 441 0
-48 446 -441 0
-49 -441 446 0
-49 -439 446 0
-49 -446 441 439 0
-50 -441 446 0
-50 -440 446 0
-50 -446 441 440 0
-65 -446 441 0
-65 446 -441 0
-51 -447 442 0
-51 -447 443 0
-51 447 -442 -443 0
-52 -447 442 0
-52 -447 444 0
-52 447 -442 -444 0
-53 -447 442 0
-53 -447 445 0
-53 447 -442 -445 0
-54 -447 442 0
-54 -447 446 0
-54 447 -442 -446 0
-55 -447 442 0
-55 447 -442 0
-56 -447 442 0
-56 447 -442 0
-57 -447 442 0
-57 447 -442 0
-58 -447 442 0
-58 447 -442 0
-59 -447 442 0
-59 447 -442 0
-60 -447 442 0
-60 447 -442 0
-66 -447 442 0
-66 447 -442 0
-51 -443 448 0
-51 -442 448 0
-51 -448 443 442 0
-52 -448 443 0
-52 448 -443 0
-53 -448 443 0
-53 448 -443 0
-54 -448 443 0
-54 448 -443 0
-55 -448 443 0
-55 -448 444 0
-55 448 -443 -444 0
-56 -448 443 0
-56 -448 445 0
-56 448 -443 -445 0
-57 -448 443 0
-57 -448 446 0
-57 448 -443 -446 0
-58 -448 443 0
-58 448 -443 0
-59 -448 443 0
-59 448 -443 0
-60 -448 443 0
-60 448 -443 0
-66 -448 443 0
-66 448 -443 0
-51 -449 444 0
-51 449 -444 0
-52 -444 449 0
-52 -442 449 0
-52 -449 444 442 0
-53 -449 444 0
-53 449 -444 0
-54 -449 444 0
-54 449 -444 0
-55 -444 449 0
-55 -443 449 0
-55 -449 444 443 0
-56 -449 444 0
-56 449 -444 0
-57 -449 444 0
-57 449 -444 0
-58 -449 444 0
-58 -449 445 0
-58 449 -444 -445 0
-59 -449 444 0
-59 -449 446 0
-59 449 -444 -446 0
-60 -449 444 0
-60 449 -444 0
-66 -449 444 0
-66 449 -444 0
-51 -450 445 0
-51 450 -445 0
-52 -450 445 0
-52 450 -445 0
-53 -445 450 0
-53 -442 450 0
-53 -450 445 442 0
-54 -450 445 0
-54 450 -445 0
-55 -450 445 0
-55 450 -445 0
-56 -445 450 0
-56 -443 450 0
-56 -450 445 443 0
-57 -450 445 0
-57 450 -445 0
-58 -445 450 0
-58 -444 450 0
-58 -450 445 444 0
-59 -450 445 0
-59 450 -445 0
-60 -450 445 0
-60 -450 446 0
-60 450 -445 -446 0
-66 -450 445 0
-66 450 -445 0
-51 -451 446 0
-51 451 -446 0
-52 -451 446 0
-52 451 -446 0
-53 -451 446 0
-53 451 -446 0
-54 -446 451 0
-54 -442 451 0
-54 -451 446 442 0
-55 -451 446 0
-55 451 -446 0
-56 -451 446 0
-56 451 -446 0
-57 -446 451 0
-57 -443 451 0
-57 -451 446 443 0
-58 -451 446 0
-58 451 -446 0
-59 -446 451 0
-59 -444 451 0
-59 -451 446 444 0
-60 -446 451 0
-60 -445 451 0
-60 -451 446 445 0
-66 -451 446 0
-66 451 -446 0
452 0
-1 -457 452 0
-1 -457 453 0
-1 457 -452 -453 0
-2 -457 452 0
-2 -457 454 0
-2 457 -452 -454 0
-3 -457 452 0
-3 -457 455 0
-3 457 -452 -455 0
-4 -457 452 0
-4 -457 456 0
-4 457 -452 -456 0
-5 -457 452 0
-5 457 -452 0
-6 -457 452 0
-6 457 -452 0
-7 -457 452 0
-7 457 -452 0
-8 -457 452 0
-8 457 -452 0
-9 -457 452 0
-9 457 -452 0
-10 -457 452 0
-10 457 -452 0
-61 -457 452 0
-61 457 -452 0
-453 0
-1 -453 458 0
-1 -452 458 0
-1 -458 453 452 0
-2 -458 453 0
-2 458 -453 0
-3 -458 453 0
-3 458 -453 0
-4 -458 453 0
-4 458 -453 0
-5 -458 453 0
-5 -458 454 0
-5 458 -453 -454 0
-6 -458 453 0
-6 -458 455 0
-6 458 -453 -455 0
-7 -458 453 0
-7 -458 456 0
-7 458 -453 -456 0
-8 -458 453 0
-8 458 -453 0
-9 -458 453 0
-9 458 -453 0
-10 -458 453 0
-10 458 -453 0
-61 -458 453 0
-61 458 -453 0
-454 0
-1 -459 454 0
-1 459 -454 0
-2 -454 459 0
-2 -452 459 0
-2 -459 454 452 0
-3 -459 454 0
-3 459 -454 0
-4 -459 454 0
-4 459 -454 0
-5 -454 459 0
-5 -453 459 0
-5 -459 454 453 0
-6 -459 454 0
-6 459 -454 0
-7 -459 454 0
-7 459 -454 0
-8 -459 454 0
-8 -459 455 0
-8 459 -454 -455 0
-9 -459 454 0
-9 -459 456 0
-9 459 -454 -456 0
-10 -459 454 0
-10 459 -454 0
-61 -459 454 0
-61 459 -454 0
-455 0
-1 -460 455 0
-1 460 -455 0
-2 -460 455 0
-2 460 -455 0
-3 -455 460 0
-3 -452 460 0
-3 -460 455 452 0
-4 -460 455 0
-4 460 -455 0
-5 -460 455 0
-5 460 -455 0
-6 -455 460 0
-6 -453 460 0
-6 -460 455 453 0
-7 -460 455 0
-7 460 -455 0
-8 -455 460 0
-8 -454 460 0
-8 -460 455 454 0
-9 -460 455 0
-9 460 -455 0
-10 -460 455 0
-10 -460 456 0
-10 460 -455 -456 0
-61 -460 455 0
-61 460 -455 0
-456 0
-1 -461 456 0
-1 461 -456 0
-2 -461 456 0
-2 461 -456 0
-3 -461 456 0
-3 461 -456 0
-4 -456 461 0
-4 -452 461 0
-4 -461 456 452 0
-5 -461 456 0
-5 461 -456 0
-6 -461 456 0
-6 461 -456 0
-7 -456 461 0
-7 -453 461 0
-7 -461 456 453 0
-8 -461 456 0
-8 461 -456 0
-9 -456 461 0
-9 -454 461 0
-9 -461 456 454 0
-10 -456 461 0
-10 -455 461 0
-10 -461 456 455 0
-61 -461 456 0
-61 461 -456 0
-11 -462 457 0
-11 -462 458 0
-11 462 -457 -458 0
-12 -462 457 0
-12 -462 459 0
-12 462 -457 -459 0
-13 -462 457 0
-13 -462 460 0
-13 462 -457 -460 0
-14 -462 457 0
-14 -462 461 0
-14 462 -457 -461 0
-15 -462 457 0
-15 462 -457 0
-16 -462 457 0
-16 462 -457 0
-17 -462 457 0
-17 462 -457 0
-18 -462 457 0
-18 462 -457 0
-19 -462 457 0
-19 462 -457 0
-20 -462 457 0
-20 462 -457 0
-62 -462 457 0
-62 462 -457 0
-11 -458 463 0
-11 -457 463 0
-11 -463 458 457 0
-12 -463 458 0
-12 463 -458 0
-13 -463 458 0
-13 463 -458 0
-14 -463 458 0
-14 463 -458 0
-15 -463 458 0
-15 -463 459 0
-15 463 -458 -459 0
-16 -463 458 0
-16 -463 460 0
-16 463 -458 -460 0
-17 -463 458 0
-17 -463 461 0
-17 463 -458 -461 0
-18 -463 458 0
-18 463 -458 0
-19 -463 458 0
-19 463 -458 0
-20 -463 458 0
-20 463 -458 0
-62 -463 458 0
-62 463 -458 0
-11 -464 459 0
-11 464 -459 0
-12 -459 464 0
-12 -457 464 0
-12 -464 459 457 0
-13 -464 459 0
-13 464 -459 0
-14 -464 459 0
-14 464 -459 0
-15 -459 464 0
-15 -458 464 0
-15 -464 459 458 0
-16 -464 459 0
-16 464 -459 0
-17 -464 459 0
-17 464 -459 0
-18 -464 459 0
-18 -464 460 0
-18 464 -459 -460 0
-19 -464 459 0
-19 -464 461 0
-19 464 -459 -461 0
-20 -464 459 0
-20 464 -459 0
-62 -464 459 0
-62 464 -459 0
-11 -465 460 0
-11 465 -460 0
-12 -465 460 0
-12 465 -460 0
-13 -460 465 0
-13 -457 465 0
-13 -465 460 457 0
-14 -465 460 0
-14 465 -460 0
-15 -465 460 0
-15 465 -460 0
-16 -460 465 0
-16 -458 465 0
-16 -465 460 458 0
-17 -465 460 0
-17 465 -460 0
-18 -460 465 0
-18 -459 465 0
-18 -465 460 459 0
-19 -465 460 0
-19 465 -460 0
-20 -465 460 0
-20 -465 461 0
-20 465 -460 -461 0
-62 -465 460 0
-62 465 -460 0
-11 -466 461 0
-11 466 -461 0
-12 -466 461 0
-12 466 -461 0
-13 -466 461 0
-13 466 -461 0
-14 -461 466 0
-14 -457 466 0
-14 -466 461 457 0
-15 -466 461 0
-15 466 -461 0
-16 -466 461 0
-16 466 -461 0
-17 -461 466 0
-17 -458 466 0
-17 -466 461 458 0
-18 -466 461 0
-18 466 -461 0
-19 -461 466 0
-19 -459 466 0
-19 -466 461 459 0
-20 -461 466 0
-20 -460 466 0
-20 -466 461 460 0
-62 -466 461 0
-62 466 -461 0
-21 -467 462 0
-21 -467 463 0
-21 467 -462 -463 0
-22 -467 462 0
-22 -467 464 0
-22 467 -462 -464 0
-23 -467 462 0
-23 -467 465 0
-23 467 -462 -465 0
-24 -467 462 0
-24 -467 466 0
-24 467 -462 -466 0
-25 -467 462 0
-25 467 -462 0
-26 -467 462 0
-26 467 -462 0
-27 -467 462 0
-27 467 -462 0
-28 -467 462 0
-28 467 -462 0
-29 -467 462 0
-29 467 -462 0
-30 -467 462 0
-30 467 -462 0
-63 -467 462 0
-63 467 -462 0
-21 -463 468 0
-21 -462 468 0
-21 -468 463 462 0
-22 -468 463 0
-22 468 -463 0
-23 -468 463 0
-23 468 -463 0
-24 -468 463 0
-24 468 -463 0
-25 -468 463 0
-25 -468 464 0
-25 468 -463 -464 0
-26 -468 463 0
-26 -468 465 0
-26 468 -463 -465 0
-27 -468 463 0
-27 -468 466 0
-27 468 -463 -466 0
-28 -468 463 0
-28 468 -463 0
-29 -468 463 0
-29 468 -463 0
-30 -468 463 0
-30 468 -463 0
-63 -468 463 0
-63 468 -463 0
-21 -469 464 0
-21 469 -464 0
-22 -464 469 0
-22 -462 469 0
-22 -469 464 462 0
-23 -469 464 0
-23 469 -464 0
-24 -469 464 0
-24 469 -464 0
-25 -464 469 0
-25 -463 469 0
-25 -469 464 463 0
-26 -469 464 0
-26 469 -464 0
-27 -469 464 0
-27 469 -464 0
-28 -469 464 0
-28 -469 465 0
-28 469 -464 -465 0
-29 -469 464 0
-29 -469 466 0
-29 469 -464 -466 0
-30 -469 464 0
-30 469 -464 0
-63 -469 464 0
-63 469 -464 0
-21 -470 465 0
-21 470 -465 0
-22 -470 465 0
-22 470 -465 0
-23 -465 470 0
-23 -462 470 0
-23 -470 465 462 0
-24 -470 465 0
-24 470 -465 0
-25 -470 465 0
-25 470 -465 0
-26 -465 470 0
-26 -463 470 0
-26 -470 465 463 0
-27 -470 465 0
-27 470 -465 0
-28 -465 470 0
-28 -464 470 0
-28 -470 465 464 0
-29 -470 465 0
-29 470 -465 0
-30 -470 465 0
-30 -470 466 0
-30 470 -465 -466 0
-63 -470 465 0
-63 470 -465 0
-21 -471 466 0
-21 471 -466 0
-22 -471 466 0
-22 471 -466 0
-23 -471 466 0
-23 471 -466 0
-24 -466 471 0
-24 -462 471 0
-24 -471 466 462 0
-25 -471 466 0
-25 471 -466 0
-26 -471 466 0
-26 471 -466 0
-27 -466 471 0
-27 -463 471 0
-27 -471 466 463 0
-28 -471 466 0
-28 471 -466 0
-29 -466 471 0
-29 -464 471 0
-29 -471 466 464 0
-30 -466 471 0
-30 -465 471 0
-30 -471 466 465 0
-63 -471 466 0
-63 471 -466 0
-31 -472 467 0
-31 -472 468 0
-31 472 -467 -468 0
-32 -472 467 0
-32 -472 469 0
-32 472 -467 -469 0
-33 -472 467 0
-33 -472 470 0
-33 472 -467 -470 0
-34 -472 467 0
-34 -472 471 0
-34 472 -467 -471 0
-35 -472 467 0
-35 472 -467 0
-36 -472 467 0
-36 472 -467 0
-37 -472 467 0
-37 472 -467 0
-38 -472 467 0
-38 472 -467 0
-39 -472 467 0
-39 472 -467 0
-40 -472 467 0
-40 472 -467 0
-64 -472 467 0
-64 472 -467 0
-31 -468 473 0
-31 -467 473 0
-31 -473 468 467 0
-32 -473 468 0
-32 473 -468 0
-33 -473 468 0
-33 473 -468 0
-34 -473 468 0
-34 473 -468 0
-35 -473 468 0
-35 -473 469 0
-35 473 -468 -469 0
-36 -473 468 0
-36 -473 470 0
-36 473 -468 -470 0
-37 -473 468 0
-37 -473 471 0
-37 473 -468 -471 0
-38 -473 468 0
-38 473 -468 0
-39 -473 468 0
-39 473 -468 0
-40 -473 468 0
-40 473 -468 0
-64 -473 468 0
-64 473 -468 0
-31 -474 469 0
-31 474 -469 0
-32 -469 474 0
-32 -467 474 0
-32 -474 469 467 0
-33 -474 469 0
-33 474 -469 0
-34 -474 469 0
-34 474 -469 0
-35 -469 474 0
-35 -468 474 0
-35 -474 469 468 0
-36 -474 469 0
-36 474 -469 0
-37 -474 469 0
-37 474 -469 0
-38 -474 469 0
-38 -474 470 0
-38 474 -469 -470 0
-39 -474 469 0
-39 -474 471 0
-39 474 -469 -471 0
-40 -474 469 0
-40 474 -469 0
-64 -474 469 0
-64 474 -469 0
-31 -475 470 0
-31 475 -470 0
-32 -475 470 0
-32 475 -470 0
-33 -470 475 0
-33 -467 475 0
-33 -475 470 467 0
-34 -475 470 0
-34 475 -470 0
-35 -475 470 0
-35 475 -470 0
-36 -470 475 0
-36 -468 475 0
-36 -475 470 468 0
-37 -475 470 0
-37 475 -470 0
-38 -470 475 0
-38 -469 475 0
-38 -475 470 469 0
-39 -475 470 0
-39 475 -470 0
-40 -475 470 0
-40 -475 471 0
-40 475 -470 -471 0
-64 -475 470 0
-64 475 -470 0
-31 -476 471 0
-31 476 -471 0
-32 -476 471 0
-32 476 -471 0
-33 -476 471 0
-33 476 -471 0
-34 -471 476 0
-34 -467 476 0
-34 -476 471 467 0
-35 -476 471 0
-35 476 -471 0
-36 -476 471 0
-36 476 -471 0
-37 -471 476 0
-37 -468 476 0
-37 -476 471 468 0
-38 -476 471 0
-38 476 -471 0
-39 -471 476 0
-39 -469 476 0
-39 -476 471 469 0
-40 -471 476 0
-40 -470 476 0
-40 -476 471 470 0
-64 -476 471 0
-64 476 -471 0
-41 -477 472 0
-41 -477 473 0
-41 477 -472 -473 0
-42 -477 472 0
-42 -477 474 0
-42 477 -472 -474 0
-43 -477 472 0
-43 -477 475 0
-43 477 -472 -475 0
-44 -477 472 0
-44 -477 476 0
-44 477 -472 -476 0
-45 -477 472 0
-45 477 -472 0
-46 -477 472 0
-46 477 -472 0
-47 -477 472 0
-47 477 -472 0
-48 -477 472 0
-48 477 -472 0
-49 -477 472 0
-49 477 -472 0
-50 -477 472 0
-50 477 -472 0
-65 -477 472 0
-65 477 -472 0
-41 -473 478 0
-41 -472 478 0
-41 -478 473 472 0
-42 -478 473 0
-42 478 -473 0
-43 -478 473 0
-43 478 -473 0
-44 -478 473 0
-44 478 -473 0
-45 -478 473 0
-45 -478 474 0
-45 478 -473 -474 0
-46 -478 473 0
-46 -478 475 0
-46 478 -473 -475 0
-47 -478 473 0
-47 -478 476 0
-47 478 -473 -476 0
-48 -478 473 0
-48 478 -473 0
-49 -478 473 0
-49 478 -473 0
-50 -478 473 0
-50 478 -473 0
-65 -478 473 0
-65 478 -473 0
-41 -479 474 0
-41 479 -474 0
-42 -474 479 0
-42 -472 479 0
-42 -479 474 472 0
-43 -479 474 0
-43 479 -474 0
-44 -479 474 0
-44 479 -474 0
-45 -474 479 0
-45 -473 479 0
-45 -479 474 473 0
-46 -479 474 0
-46 479 -474 0
-47 -479 474 0
-47 479 -474 0
-48 -479 474 0
-48 -479 475 0
-48 479 -474 -475 0
-49 -479 474 0
-49 -479 476 0
-49 479 -474 -476 0
-50 -479 474 0
-50 479 -474 0
-65 -479 474 0
-65 479 -474 0
-41 -480 475 0
-41 480 -475 0
-42 -480 475 0
-42 480 -475 0
-43 -475 480 0
-43 -472 480 0
-43 -480 475 472 0
-44 -480 475 0
-44 480 -475 0
-45 -480 475 0
-45 480 -475 0
-46 -475 480 0
-46 -473 480 0
-46 -480 475 473 0
-47 -480 475 0
-47 480 -475 0
-48 -475 480 0
-48 -474 480 0
-48 -480 475 474 0
-49 -480 475 0
-49 480 -475 0
-50 -480 475 0
-50 -480 476 0
-50 480 -475 -476 0
-65 -480 475 0
-65 480 -475 0
-41 -481 476 0
-41 481 -476 0
-42 -481 476 0
-42 481 -476 0
-43 -481 476 0
-43 481 -476 0
-44 -476 481 0
-44 -472 481 0
-44 -481 476 472 0
-45 -481 476 0
-45 481 -476 0
-46 -481 476 0
-46 481 -476 0
-47 -476 481 0
-47 -473 481 0
-47 -481 476 473 0
-48 -481 476 0
-48 481 -476 0
-49 -476 481 0
-49 -474 481 0
-49 -481 476 474 0
-50 -476 481 0
-50 -475 481 0
-50 -481 476 475 0
-65 -481 476 0
-65 481 -476 0
-51 -482 477 0
-51 -482 478 0
-51 482 -477 -478 0
-52 -482 477 0
-52 -482 479 0
-52 482 -477 -479 0
-53 -482 477 0
-53 -482 480 0
-53 482 -477 -480 0
-54 -482 477 0
-54 -482 481 0
-54 482 -477 -481 0
-55 -482 477 0
-55 482 -477 0
-56 -482 477 0
-56 482 -477 0
-57 -482 477 0
-57 482 -477 0
-58 -482 477 0
-58 482 -477 0
-59 -482 477 0
-59 482 -477 0
-60 -482 477 0
-60 482 -477 0
-66 -482 477 0
-66 482 -477 0
-51 -478 483 0
-51 -477 483 0
-51 -483 478 477 0
-52 -483 478 0
-52 483 -478 0
-53 -483 478 0
-53 483 -478 0
-54 -483 478 0
-54 483 -478 0
-55 -483 478 0
-55 -483 479 0
-55 483 -478 -479 0
-56 -483 478 0
-56 -483 480 0
-56 483 -478 -480 0
-57 -483 478 0
-57 -483 481 0
-57 483 -478 -481 0
-58 -483 478 0
-58 483 -478 0
-59 -483 478 0
-59 483 -478 0
-60 -483 478 0
-60 483 -478 0
-66 -483 478 0
-66 483 -478 0
-51 -484 479 0
-51 484 -479 0
-52 -479 484 0
-52 -477 484 0
-52 -484 479 477 0
-53 -484 479 0
-53 484 -479 0
-54 -484 479 0
-54 484 -479 0
-55 -479 484 0
-55 -478 484 0
-55 -484 479 478 0
-56 -484 479 0
-56 484 -479 0
-57 -484 479 0
-57 484 -479 0
-58 -484 479 0
-58 -484 480 0
-58 484 -479 -480 0
-59 -484 479 0
-59 -484 481 0
-59 484 -479 -481 0
-60 -484 479 0
-60 484 -479 0
-66 -484 479 0
-66 484 -479 0
-51 -485 480 0
-51 485 -480 0
-52 -485 480 0
-52 485 -480 0
-53 -480 485 0
-53 -477 485 0
-53 -485 480 477 0
-54 -485 480 0
-54 485 -480 0
-55 -485 480 0
-55 485 -480 0
-56 -480 485 0
-56 -478 485 0
-56 -485 480 478 0
-57 -485 480 0
-57 485 -480 0
-58 -480 485 0
-58 -479 485 0
-58 -485 480 479 0
-59 -485 480 0
-59 485 -480 0
-60 -485 480 0
-60 -485 481 0
-60 485 -480 -481 0
-66 -485 480 0
-66 485 -480 0
-51 -486 481 0
-51 486 -481 0
-52 -486 481 0
-52 486 -481 0
-53 -486 481 0
-53 486 -481 0
-54 -481 486 0
-54 -477 486 0
-54 -486 481 477 0
-55 -486 481 0
-55 486 -481 0
-56 -486 481 0
-56 486 -481 0
-57 -481 486 0
-57 -478 486 0
-57 -486 481 478 0
-58 -486 481 0
-58 486 -481 0
-59 -481 486 0
-59 -479 486 0
-59 -486 481 479 0
-60 -481 486 0
-60 -480 486 0
-60 -486 481 480 0
-66 -486 481 0
-66 486 -481 0
487 0
-1 -492 487 0
-1 -492 488 0
-1 492 -487 -488 0
-2 -492 487 0
-2 -492 489 0
-2 492 -487 -489 0
-3 -492 487 0
-3 -492 490 0
-3 492 -487 -490 0
-4 -492 487 0
-4 -492 491 0
-4 492 -487 -491 0
-5 -492 487 0
-5 492 -487 0
-6 -492 487 0
-6 492 -487 0
-7 -492 487 0
-7 492 -487 0
-8 -492 487 0
-8 492 -487 0
-9 -492 487 0
-9 492 -487 0
-10 -492 487 0
-10 492 -487 0
-61 -492 487 0
-61 492 -487 0
-488 0
-1 -488 493 0
-1 -487 493 0
-1 -493 488 487 0
-2 -493 488 0
-2 493 -488 0
-3 -493 488 0
-3 493 -488 0
-4 -493 488 0
-4 493 -488 0
-5 -493 488 0
-5 -493 489 0
-5 493 -488 -489 0
-6 -493 488 0
-6 -493 490 0
-6 493 -488 -490 0
-7 -493 488 0
-7 -493 491 0
-7 493 -488 -491 0
-8 -493 488 0
-8 493 -488 0
-9 -493 488 0
-9 493 -488 0
-10 -493 488 0
-10 493 -488 0
-61 -493 488 0
-61 493 -488 0
-489 0
-1 -494 489 0
-1 494 -489 0
-2 -489 494 0
-2 -487 494 0
-2 -494 489 487 0
-3 -494 489 0
-3 494 -489 0
-4 -494 489 0
-4 494 -489 0
-5 -489 494 0
-5 -488 494 0
-5 -494 489 488 0
-6 -494 489 0
-6 494 -489 0
-7 -494 489 0
-7 494 -489 0
-8 -494 489 0
-8 -494 490 0
-8 494 -489 -490 0
-9 -494 489 0
-9 -494 491 0
-9 494 -489 -491 0
-10 -494 489 0
-10 494 -489 0
-61 -494 489 0
-61 494 -489 0
-490 0
-1 -495 490 0
-1 495 -490 0
-2 -495 490 0
-2 495 -490 0
-3 -490 495 0
-3 -487 495 0
-3 -495 490 487 0
-4 -495 490 0
-4 495 -490 0
-5 -495 490 0
-5 495 -490 0
-6 -490 495 0
-6 -488 495 0
-6 -495 490 488 0
-7 -495 490 0
-7 495 -490 0
-8 -490 495 0
-8 -489 495 0
-8 -495 490 489 0
-9 -495 490 0
-9 495 -490 0
-10 -495 490 0
-10 -495 491 0
-10 495 -490 -491 0
-61 -495 490 0
-61 495 -490 0
491 0
-1 -496 491 0
-1 496 -491 0
-2 -496 491 0
-2 496 -491 0
-3 -496 491 0
-3 496 -491 0
-4 -491 496 0
-4 -487 496 0
-4 -496 491 487 0
-5 -496 491 0
-5 496 -491 0
-6 -496 491 0
-6 496 -491 0
-7 -491 496 0
-7 -488 496 0
-7 -496 491 488 0
-8 -496 491 0
-8 496 -491 0
-9 -491 496 0
-9 -489 496 0
-9 -496 491 489 0
-10 -491 496 0
-10 -490 496 0
-10 -496 491 490 0
-61 -496 491 0
-61 496 -491 0
-11 -497 492 0
-11 -497 493 0
-11 497 -492 -493 0
-12 -497 492 0
-12 -497 494 0
-12 497 -492 -494 0
-13 -497 492 0
-13 -497 495 0
-13 497 -492 -495 0
-14 -497 492 0
-14 -497 496 0
-14 497 -492 -496 0
-15 -497 492 0
-15 497 -492 0
-16 -497 492 0
-16 497 -492 0
-17 -497 492 0
-17 497 -492 0
-18 -497 492 0
-18 497 -492 0
-19 -497 492 0
-19 497 -492 0
-20 -497 492 0
-20 497 -492 0
-62 -497 492 0
-62 497 -492 0
-11 -493 498 0
-11 -492 498 0
-11 -498 493 492 0
-12 -498 493 0
-12 498 -493 0
-13 -498 493 0
-13 498 -493 0
-14 -498 493 0
-14 498 -493 0
-15 -498 493 0
-15 -498 494 0
-15 498 -493 -494 0
-16 -498 493 0
-16 -498 495 0
-16 498 -493 -495 0
-17 -498 493 0
-17 -498 496 0
-17 498 -493 -496 0
-18 -498 493 0
-18 498 -493 0
-19 -498 493 0
-19 498 -493 0
-20 -498 493 0
-20 498 -493 0
-62 -498 493 0
-62 498 -493 0
-11 -499 494 0
-11 499 -494 0
-12 -494 499 0
-12 -492 499 0
-12 -499 494 492 0
-13 -499 494 0
-13 499 -494 0
-14 -499 494 0
-14 499 -494 0
-15 -494 499 0
-15 -493 499 0
-15 -499 494 493 0
-16 -499 494 0
-16 499 -494 0
-17 -499 494 0
-17 499 -494 0
-18 -499 494 0
-18 -499 495 0
-18 499 -494 -495 0
-19 -499 494 0
-19 -499 496 0
-19 499 -494 -496 0
-20 -499 494 0
-20 499 -494 0
-62 -499 494 0
-62 499 -494 0
-11 -500 495 0
-11 500 -495 0
-12 -500 495 0
-12 500 -495 0
-13 -495 500 0
-13 -492 500 0
-13 -500 495 492 0
-14 -500 495 0
-14 500 -495 0
-15 -500 495 0
-15 500 -495 0
-16 -495 500 0
-16 -493 500 0
-16 -500 495 493 0
-17 -500 495 0
-17 500 -495 0
-18 -495 500 0
-18 -494 500 0
-18 -500 495 494 0
-19 -500 495 0
-19 500 -495 0
-20 -500 495 0
-20 -500 496 0
-20 500 -495 -496 0
-62 -500 495 0
-62 500 -495 0
-11 -501 496 0
-11 501 -496 0
-12 -501 496 0
-12 501 -496 0
-13 -501 496 0
-13 501 -496 0
-14 -496 501 0
-14 -492 501 0
-14 -501 496 492 0
-15 -501 496 0
-15 501 -496 0
-16 -501 496 0
-16 501 -496 0
-17 -496 501 0
-17 -493 501 0
-17 -501 496 493 0
-18 -501 496 0
-18 501 -496 0
-19 -496 501 0
-19 -494 501 0
-19 -501 496 494 0
-20 -496 501 0
-20 -495 501 0
-20 -501 496 495 0
-62 -501 496 0
-62 501 -496 0
-21 -502 497 0
-21 -502 498 0
-21 502 -497 -498 0
-22 -502 497 0
-22 -502 499 0
-22 502 -497 -499 0
-23 -502 497 0
-23 -502 500 0
-23 502 -497 -500 0
-24 -502 497 0
-24 -502 501 0
-24 502 -497 -501 0
-25 -502 497 0
-25 502 -497 0
-26 -502 497 0
-26 502 -497 0
-27 -502 497 0
-27 502 -497 0
-28 -502 497 0
-28 502 -497 0
-29 -502 497 0
-29 502 -497 0
-30 -502 497 0
-30 502 -497 0
-63 -502 497 0
-63 502 -497 0
-21 -498 503 0
-21 -497 503 0
-21 -503 498 497 0
-22 -503 498 0
-22 503 -498 0
-23 -503 498 0
-23 503 -498 0
-24 -503 498 0
-24 503 -498 0
-25 -503 498 0
-25 -503 499 0
-25 503 -498 -499 0
-26 -503 498 0
-26 -503 500 0
-26 503 -498 -500 0
-27 -503 498 0
-27 -503 501 0
-27 503 -498 -501 0
-28 -503 498 0
-28 503 -498 0
-29 -503 498 0
-29 503 -498 0
-30 -503 498 0
-30 503 -498 0
-63 -503 498 0
-63 503 -498 0
-21 -504 499 0
-21 504 -499 0
-22 -499 504 0
-22 -497 504 0
-22 -504 499 497 0
-23 -504 499 0
-23 504 -499 0
-24 -504 499 0
-24 504 -499 0
-25 -499 504 0
-25 -498 504 0
-25 -504 499 498 0
-26 -504 499 0
-26 504 -499 0
-27 -504 499 0
-27 504 -499 0
-28 -504 499 0
-28 -504 500 0
-28 504 -499 -500 0
-29 -504 499 0
-29 -504 501 0
-29 504 -499 -501 0
-30 -504 499 0
-30 504 -499 0
-63 -504 499 0
-63 504 -499 0
-21 -505 500 0
-21 505 -500 0
-22 -505 500 0
-22 505 -500 0
-23 -500 505 0
-23 -497 505 0
-23 -505 500 497 0
-24 -505 500 0
-24 505 -500 0
-25 -505 500 0
-25 505 -500 0
-26 -500 505 0
-26 -498 505 0
-26 -505 500 498 0
-27 -505 500 0
-27 505 -500 0
-28 -500 505 0
-28 -499 505 0
-28 -505 500 499 0
-29 -505 500 0
-29 505 -500 0
-30 -505 500 0
-30 -505 501 0
-30 505 -500 -501 0
-63 -505 500 0
-63 505 -500 0
-21 -506 501 0
-21 506 -501 0
-22 -506 501 0
-22 506 -501 0
-23 -506 501 0
-23 506 -501 0
-24 -501 506 0
-24 -497 506 0
-24 -506 501 497 0
-25 -506 501 0
-25 506 -501 0
-26 -506 501 0
-26 506 -501 0
-27 -501 506 0
-27 -498 506 0
-27 -506 501 498 0
-28 -506 501 0
-28 506 -501 0
-29 -501 506 0
-29 -499 506 0
-29 -506 501 499 0
-30 -501 506 0
-30 -500 506 0
-30 -506 501 500 0
-63 -506 501 0
-63 506 -501 0
-31 -507 502 0
-31 -507 503 0
-31 507 -502 -503 0
-32 -507 502 0
-32 -507 504 0
-32 507 -502 -504 0
-33 -507 502 0
-33 -507 505 0
-33 507 -502 -505 0
-34 -507 502 0
-34 -507 506 0
-34 507 -502 -506 0
-35 -507 502 0
-35 507 -502 0
-36 -507 502 0
-36 507 -502 0
-37 -507 502 0
-37 507 -502 0
-38 -507 502 0
-38 507 -502 0
-39 -507 502 0
-39 507 -502 0
-40 -507 502 0
-40 507 -502 0
-64 -507 502 0
-64 507 -502 0
-31 -503 508 0
-31 -502 508 0
-31 -508 503 502 0
-32 -508 503 0
-32 508 -503 0
-33 -508 503 0
-33 508 -503 0
-34 -508 503 0
-34 508 -503 0
-35 -508 503 0
-35 -508 504 0
-35 508 -503 -504 0
-36 -508 503 0
-36 -508 505 0
-36 508 -503 -505 0
-37 -508 503 0
-37 -508 506 0
-37 508 -503 -506 0
-38 -508 503 0
-38 508 -503 0
-39 -508 503 0
-39 508 -503 0
-40 -508 503 0
-40 508 -503 0
-64 -508 503 0
-64 508 -503 0
-31 -509 504 0
-31 509 -504 0
-32 -504 509 0
-32 -502 509 0
-32 -509 504 502 0
-33 -509 504 0
-33 509 -504 0
-34 -509 504 0
-34 509 -504 0
-35 -504 509 0
-35 -503 509 0
-35 -509 504 503 0
-36 -509 504 0
-36 509 -504 0
-37 -509 504 0
-37 509 -504 0
-38 -509 504 0
-38 -509 505 0
-38 509 -504 -505 0
-39 -509 504 0
-39 -509 506 0
-39 509 -504 -506 0
-40 -509 504 0
-40 509 -504 0
-64 -509 504 0
-64 509 -504 0
-31 -510 505 0
-31 510 -505 0
-32 -510 505 0
-32 510 -505 0
-33 -505 510 0
-33 -502 510 0
-33 -510 505 502 0
-34 -510 505 0
-34 510 -505 0
-35 -510 505 0
-35 510 -505 0
-36 -505 510 0
-36 -503 510 0
-36 -510 505 503 0
-37 -510 505 0
-37 510 -505 0
-38 -505 510 0
-38 -504 510 0
-38 -510 505 504 0
-39 -510 505 0
-39 510 -505 0
-40 -510 505 0
-40 -510 506 0
-40 510 -505 -506 0
-64 -510 505 0
-64 510 -505 0
-31 -511 506 0
-31 511 -506 0
-32 -511 506 0
-32 511 -506 0
-33 -511 506 0
-33 511 -506 0
-34 -506 511 0
-34 -502 511 0
-34 -511 506 502 0
-35 -511 506 0
-35 511 -506 0
-36 -511 506 0
-36 511 -506 0
-37 -506 511 0
-37 -503 511 0
-37 -511 506 503 0
-38 -511 506 0
-38 511 -506 0
-39 -506 511 0
-39 -504 511 0
-39 -511 506 504 0
-40 -506 511 0
-40 -505 511 0
-40 -511 506 505 0
-64 -511 506 0
-64 511 -506 0
-41 -512 507 0
-41 -512 508 0
-41 512 -507 -508 0
-42 -512 507 0
-42 -512 509 0
-42 512 -507 -509 0
-43 -512 507 0
-43 -512 510 0
-43 512 -507 -510 0
-44 -512 507 0
-44 -512 511 0
-44 512 -507 -511 0
-45 -512 507 0
-45 512 -507 0
-46 -512 507 0
-46 512 -507 0
-47 -512 507 0
-47 512 -507 0
-48 -512 507 0
-48 512 -507 0
-49 -512 507 0
-49 512 -507 0
-50 -512 507 0
-50 512 -507 0
-65 -512 507 0
-65 512 -507 0
-41 -508 513 0
-41 -507 513 0
-41 -513 508 507 0
-42 -513 508 0
-42 513 -508 0
-43 -513 508 0
-43 513 -508 0
-44 -513 508 0
-44 513 -508 0
-45 -513 508 0
-45 -513 509 0
-45 513 -508 -509 0
-46 -513 508 0
-46 -513 510 0
-46 513 -508 -510 0
-47 -513 508 0
-47 -513 511 0
-47 513 -508 -511 0
-48 -513 508 0
-48 513 -508 0
-49 -513 508 0
-49 513 -508 0
-50 -513 508 0
-50 513 -508 0
-65 -513 508 0
-65 513 -508 0
-41 -514 509 0
-41 514 -509 0
-42 -509 514 0
-42 -507 514 0
-42 -514 509 507 0
-43 -514 509 0
-43 514 -509 0
-44 -514 509 0
-44 514 -509 0
-45 -509 514 0
-45 -508 514 0
-45 -514 509 508 0
-46 -514 509 0
-46 514 -509 0
-47 -514 509 0
-47 514 -509 0
-48 -514 509 0
-48 -514 510 0
-48 514 -509 -510 0
-49 -514 509 0
-49 -514 511 0
-49 514 -509 -511 0
-50 -514 509 0
-50 514 -509 0
-65 -514 509 0
-65 514 -509 0
-41 -515 510 0
-41 515 -510 0
-42 -515 510 0
-42 515 -510 0
-43 -510 515 0
-43 -507 515 0
-43 -515 510 507 0
-44 -515 510 0
-44 515 -510 0
-45 -515 510 0
-45 515 -510 0
-46 -510 515 0
-46 -508 515 0
-46 -515 510 508 0
-47 -515 510 0
-47 515 -510 0
-48 -510 515 0
-48 -509 515 0
-48 -515 510 509 0
-49 -515 510 0
-49 515 -510 0
-50 -515 510 0
-50 -515 511 0
-50 515 -510 -511 0
-65 -515 510 0
-65 515 -510 0
-41 -516 511 0
-41 516 -511 0
-42 -516 511 0
-42 516 -511 0
-43 -516 511 0
-43 516 -511 0
-44 -511 516 0
-44 -507 516 0
-44 -516 511 507 0
-45 -516 511 0
-45 516 -511 0
-46 -516 511 0
-46 516 -511 0
-47 -511 516 0
-47 -508 516 0
-47 -516 511 508 0
-48 -516 511 0
-48 516 -511 0
-49 -511 516 0
-49 -509 516 0
-49 -516 511 509 0
-50 -511 516 0
-50 -510 516 0
-50 -516 511 510 0
-65 -516 511 0
-65 516 -511 0
-51 -517 512 0
-51 -517 513 0
-51 517 -512 -513 0
-52 -517 512 0
-52 -517 514 0
-52 517 -512 -514 0
-53 -517 512 0
-53 -517 515 0
-53 517 -512 -515 0
-54 -517 512 0
-54 -517 516 0
-54 517 -512 -516 0
-55 -517 512 0
-55 517 -512 0
-56 -517 512 0
-56 517 -512 0
-57 -517 512 0
-57 517 -512 0
-58 -517 512 0
-58 517 -512 0
-59 -517 512 0
-59 517 -512 0
-60 -517 512 0
-60 517 -512 0
-66 -517 512 0
-66 517 -512 0
-51 -513 518 0
-51 -512 518 0
-51 -518 513 512 0
-52 -518 513 0
-52 518 -513 0
-53 -518 513 0
-53 518 -513 0
-54 -518 513 0
-54 518 -513 0
-55 -518 513 0
-55 -518 514 0
-55 518 -513 -514 0
-56 -518 513 0
-56 -518 515 0
-56 518 -513 -515 0
-57 -518 513 0
-57 -518 516 0
-57 518 -513 -516 0
-58 -518 513 0
-58 518 -513 0
-59 -518 513 0
-59 518 -513 0
-60 -518 513 0
-60 518 -513 0
-66 -518 513 0
-66 518 -513 0
-51 -519 514 0
-51 519 -514 0
-52 -514 519 0
-52 -512 519 0
-52 -519 514 512 0
-53 -519 514 0
-53 519 -514 0
-54 -519 514 0
-54 519 -514 0
-55 -514 519 0
-55 -513 519 0
-55 -519 514 513 0
-56 -519 514 0
-56 519 -514 0
-57 -519 514 0
-57 519 -514 0
-58 -519 514 0
-58 -519 515 0
-58 519 -514 -515 0
-59 -519 514 0
-59 -519 516 0
-59 519 -514 -516 0
-60 -519 514 0
-60 519 -514 0
-66 -519 514 0
-66 519 -514 0
-51 -520 515 0
-51 520 -515 0
-52 -520 515 0
-52 520 -515 0
-53 -515 520 0
-53 -512 520 0
-53 -520 515 512 0
-54 -520 515 0
-54 520 -515 0
-55 -520 515 0
-55 520 -515 0
-56 -515 520 0
-56 -513 520 0
-56 -520 515 513 0
-57 -520 515 0
-57 520 -515 0
-58 -515 520 0
-58 -514 520 0
-58 -520 515 514 0
-59 -520 515 0
-59 520 -515 0
-60 -520 515 0
-60 -520 516 0
-60 520 -515 -516 0
-66 -520 515 0
-66 520 -515 0
-51 -521 516 0
-51 521 -516 0
-52 -521 516 0
-52 521 -516 0
-53 -521 516 0
-53 521 -516 0
-54 -516 521 0
-54 -512 521 0
-54 -521 516 512 0
-55 -521 516 0
-55 521 -516 0
-56 -521 516 0
-56 521 -516 0
-57 -516 521 0
-57 -513 521 0
-57 -521 516 513 0
-58 -521 516 0
-58 521 -516 0
-59 -516 521 0
-59 -514 521 0
-59 -521 516 514 0
-60 -516 521 0
-60 -515 521 0
-60 -521 516 515 0
-66 -521 516 0
-66 521 -516 0
522 0
-1 -527 522 0
-1 -527 523 0
-1 527 -522 -523 0
-2 -527 522 0
-2 -527 524 0
-2 527 -522 -524 0
-3 -527 522 0
-3 -527 525 0
-3 527 -522 -525 0
-4 -527 522 0
-4 -527 526 0
-4 527 -522 -526 0
-5 -527 522 0
-5 527 -522 0
-6 -527 522 0
-6 527 -522 0
-7 -527 522 0
-7 527 -522 0
-8 -527 522 0
-8 527 -522 0
-9 -527 522 0
-9 527 -522 0
-10 -527 522 0
-10 527 -522 0
-61 -527 522 0
-61 527 -522 0
-523 0
-1 -523 528 0
-1 -522 528 0
-1 -528 523 522 0
-2 -528 523 0
-2 528 -523 0
-3 -528 523 0
-3 528 -523 0
-4 -528 523 0
-4 528 -523 0
-5 -528 523 0
-5 -528 524 0
-5 528 -523 -524 0
-6 -528 523 0
-6 -528 525 0
-6 528 -523 -525 0
-7 -528 523 0
-7 -528 526 0
-7 528 -523 -526 0
-8 -528 523 0
-8 528 -523 0
-9 -528 523 0
-9 528 -523 0
-10 -528 523 0
-10 528 -523 0
-61 -528 523 0
-61 528 -523 0
-524 0
-1 -529 524 0
-1 529 -524 0
-2 -524 529 0
-2 -522 529 0
-2 -529 524 522 0
-3 -529 524 0
-3 529 -524 0
-4 -529 524 0
-4 529 -524 0
-5 -524 529 0
-5 -523 529 0
-5 -529 524 523 0
-6 -529 524 0
-6 529 -524 0
-7 -529 524 0
-7 529 -524 0
-8 -529 524 0
-8 -529 525 0
-8 529 -524 -525 0
-9 -529 524 0
-9 -529 526 0
-9 529 -524 -526 0
-10 -529 524 0
-10 529 -524 0
-61 -529 524 0
-61 529 -524 0
525 0
-1 -530 525 0
-1 530 -525 0
-2 -530 525 0
-2 530 -525 0
-3 -525 530 0
-3 -522 530 0
-3 -530 525 522 0
-4 -530 525 0
-4 530 -525 0
-5 -530 525 0
-5 530 -525 0
-6 -525 530 0
-6 -523 530 0
-6 -530 525 523 0
-7 -530 525 0
-7 530 -525 0
-8 -525 530 0
-8 -524 530 0
-8 -530 525 524 0
-9 -530 525 0
-9 530 -525 0
-10 -530 525 0
-10 -530 526 0
-10 530 -525 -526 0
-61 -530 525 0
-61 530 -525 0
-526 0
-1 -531 526 0
-1 531 -526 0
-2 -531 526 0
-2 531 -526 0
-3 -531 526 0
-3 531 -526 0
-4 -526 531 0
-4 -522 531 0
-4 -531 526 522 0
-5 -531 526 0
-5 531 -526 0
-6 -531 526 0
-6 531 -526 0
-7 -526 531 0
-7 -523 531 0
-7 -531 526 523 0
-8 -531 526 0
-8 531 -526 0
-9 -526 531 0
-9 -524 531 0
-9 -531 526 524 0
-10 -526 531 0
-10 -525 531 0
-10 -531 526 525 0
-61 -531 526 0
-61 531 -526 0
-11 -532 527 0
-11 -532 528 0
-11 532 -527 -528 0
-12 -532 527 0
-12 -532 529 0
-12 532 -527 -529 0
-13 -532 527 0
-13 -532 530 0
-13 532 -527 -530 0
-14 -532 527 0
-14 -532 531 0
-14 532 -527 -531 0
-15 -532 527 0
-15 532 -527 0
-16 -532 527 0
-16 532 -527 0
-17 -532 527 0
-17 532 -527 0
-18 -532 527 0
-18 532 -527 0
-19 -532 527 0
-19 532 -527 0
-20 -532 527 0
-20 532 -527 0
-62 -532 527 0
-62 532 -527 0
-11 -528 533 0
-11 -527 533 0
-11 -533 528 527 0
-12 -533 528 0
-12 533 -528 0
-13 -533 528 0
-13 533 -528 0
-14 -533 528 0
-14 533 -528 0
-15 -533 528 0
-15 -533 529 0
-15 533 -528 -529 0
-16 -533 528 0
-16 -533 530 0
-16 533 -528 -530 0
-17 -533 528 0
-17 -533 531 0
-17 533 -528 -531 0
-18 -533 528 0
-18 533 -528 0
-19 -533 528 0
-19 533 -528 0
-20 -533 528 0
-20 533 -528 0
-62 -533 528 0
-62 533 -528 0
-11 -534 529 0
-11 534 -529 0
-12 -529 534 0
-12 -527 534 0
-12 -534 529 527 0
-13 -534 529 0
-13 534 -529 0
-14 -534 529 0
-14 534 -529 0
-15 -529 534 0
-15 -528 534 0
-15 -534 529 528 0
-16 -534 529 0
-16 534 -529 0
-17 -534 529 0
-17 534 -529 0
-18 -534 529 0
-18 -534 530 0
-18 534 -529 -530 0
-19 -534 529 0
-19 -534 531 0
-19 534 -529 -531 0
-20 -534 529 0
-20 534 -529 0
-62 -534 529 0
-62 534 -529 0
-11 -535 530 0
-11 535 -530 0
-12 -535 530 0
-12 535 -530 0
-13 -530 535 0
-13 -527 535 0
-13 -535 530 527 0
-14 -535 530 0
-14 535 -530 0
-15 -535 530 0
-15 535 -530 0
-16 -530 535 0
-16 -528 535 0
-16 -535 530 528 0
-17 -535 530 0
-17 535 -530 0
-18 -530 535 0
-18 -529 535 0
-18 -535 530 529 0
-19 -535 530 0
-19 535 -530 0
-20 -535 530 0
-20 -535 531 0
-20 535 -530 -531 0
-62 -535 530 0
-62 535 -530 0
-11 -536 531 0
-11 536 -531 0
-12 -536 531 0
-12 536 -531 0
-13 -536 531 0
-13 536 -531 0
-14 -531 536 0
-14 -527 536 0
-14 -536 531 527 0
-15 -536 531 0
-15 536 -531 0
-16 -536 531 0
-16 536 -531 0
-17 -531 536 0
-17 -528 536 0
-17 -536 531 528 0
-18 -536 531 0
-18 536 -531 0
-19 -531 536 0
-19 -529 536 0
-19 -536 531 529 0
-20 -531 536 0
-20 -530 536 0
-20 -536 531 530 0
-62 -536 531 0
-62 536 -531 0
-21 -537 532 0
-21 -537 533 0
-21 537 -532 -533 0
-22 -537 532 0
-22 -537 534 0
-22 537 -532 -534 0
-23 -537 532 0
-23 -537 535 0
-23 537 -532 -535 0
-24 -537 532 0
-24 -537 536 0
-24 537 -532 -536 0
-25 -537 532 0
-25 537 -532 0
-26 -537 532 0
-26 537 -532 0
-27 -537 532 0
-27 537 -532 0
-28 -537 532 0
-28 537 -532 0
-29 -537 532 0
-29 537 -532 0
-30 -537 532 0
-30 537 -532 0
-63 -537 532 0
-63 537 -532 0
-21 -533 538 0
-21 -532 538 0
-21 -538 533 532 0
-22 -538 533 0
-22 538 -533 0
-23 -538 533 0
-23 538 -533 0
-24 -538 533 0
-24 538 -533 0
-25 -538 533 0
-25 -538 534 0
-25 538 -533 -534 0
-26 -538 533 0
-26 -538 535 0
-26 538 -533 -535 0
-27 -538 533 0
-27 -538 536 0
-27 538 -533 -536 0
-28 -538 533 0
-28 538 -533 0
-29 -538 533 0
-29 538 -533 0
-30 -538 533 0
-30 538 -533 0
-63 -538 533 0
-63 538 -533 0
-21 -539 534 0
-21 539 -534 0
-22 -534 539 0
-22 -532 539 0
-22 -539 534 532 0
-23 -539 534 0
-23 539 -534 0
-24 -539 534 0
-24 539 -534 0
-25 -534 539 0
-25 -533 539 0
-25 -539 534 533 0
-26 -539 534 0
-26 539 -534 0
-27 -539 534 0
-27 539 -534 0
-28 -539 534 0
-28 -539 535 0
-28 539 -534 -535 0
-29 -539 534 0
-29 -539 536 0
-29 539 -534 -536 0
-30 -539 534 0
-30 539 -534 0
-63 -539 534 0
-63 539 -534 0
-21 -540 535 0
-21 540 -535 0
-22 -540 535 0
-22 540 -535 0
-23 -535 540 0
-23 -532 540 0
-23 -540 535 532 0
-24 -540 535 0
-24 540 -535 0
-25 -540 535 0
-25 540 -535 0
-26 -535 540 0
-26 -533 540 0
-26 -540 535 533 0
-27 -540 535 0
-27 540 -535 0
-28 -535 540 0
-28 -534 540 0
-28 -540 535 534 0
-29 -540 535 0
-29 540 -535 0
-30 -540 535 0
-30 -540 536 0
-30 540 -535 -536 0
-63 -540 535 0
-63 540 -535 0
-21 -541 536 0
-21 541 -536 0
-22 -541 536 0
-22 541 -536 0
-23 -541 536 0
-23 541 -536 0
-24 -536 541 0
-24 -532 541 0
-24 -541 536 532 0
-25 -541 536 0
-25 541 -536 0
-26 -541 536 0
-26 541 -536 0
-27 -536 541 0
-27 -533 541 0
-27 -541 536 533 0
-28 -541 536 0
-28 541 -536 0
-29 -536 541 0
-29 -534 541 0
-29 -541 536 534 0
-30 -536 541 0
-30 -535 541 0
-30 -541 536 535 0
-63 -541 536 0
-63 541 -536 0
-31 -542 537 0
-31 -542 538 0
-31 542 -537 -538 0
-32 -542 537 0
-32 -542 539 0
-32 542 -537 -539 0
-33 -542 537 0
-33 -542 540 0
-33 542 -537 -540 0
-34 -542 537 0
-34 -542 541 0
-34 542 -537 -541 0
-35 -542 537 0
-35 542 -537 0
-36 -542 537 0
-36 542 -537 0
-37 -542 537 0
-37 542 -537 0
-38 -542 537 0
-38 542 -537 0
-39 -542 537 0
-39 542 -537 0
-40 -542 537 0
-40 542 -537 0
-64 -542 537 0
-64 542 -537 0
-31 -538 543 0
-31 -537 543 0
-31 -543 538 537 0
-32 -543 538 0
-32 543 -538 0
-33 -543 538 0
-33 543 -538 0
-34 -543 538 0
-34 543 -538 0
-35 -543 538 0
-35 -543 539 0
-35 543 -538 -539 0
-36 -543 538 0
-36 -543 540 0
-36 543 -538 -540 0
-37 -543 538 0
-37 -543 541 0
-37 543 -538 -541 0
-38 -543 538 0
-38 543 -538 0
-39 -543 538 0
-39 543 -538 0
-40 -543 538 0
-40 543 -538 0
-64 -543 538 0
-64 543 -538 0
-31 -544 539 0
-31 544 -539 0
-32 -539 544 0
-32 -537 544 0
-32 -544 539 537 0
-33 -544 539 0
-33 544 -539 0
-34 -544 539 0
-34 544 -539 0
-35 -539 544 0
-35 -538 544 0
-35 -544 539 538 0
-36 -544 539 0
-36 544 -539 0
-37 -544 539 0
-37 544 -539 0
-38 -544 539 0
-38 -544 540 0
-38 544 -539 -540 0
-39 -544 539 0
-39 -544 541 0
-39 544 -539 -541 0
-40 -544 539 0
-40 544 -539 0
-64 -544 539 0
-64 544 -539 0
-31 -545 540 0
-31 545 -540 0
-32 -545 540 0
-32 545 -540 0
-33 -540 545 0
-33 -537 545 0
-33 -545 540 537 0
-34 -545 540 0
-34 545 -540 0
-35 -545 540 0
-35 545 -540 0
-36 -540 545 0
-36 -538 545 0
-36 -545 540 538 0
-37 -545 540 0
-37 545 -540 0
-38 -540 545 0
-38 -539 545 0
-38 -545 540 539 0
-39 -545 540 0
-39 545 -540 0
-40 -545 540 0
-40 -545 541 0
-40 545 -540 -541 0
-64 -545 540 0
-64 545 -540 0
-31 -546 541 0
-31 546 -541 0
-32 -546 541 0
-32 546 -541 0
-33 -546 541 0
-33 546 -541 0
-34 -541 546 0
-34 -537 546 0
-34 -546 541 537 0
-35 -546 541 0
-35 546 -541 0
-36 -546 541 0
-36 546 -541 0
-37 -541 546 0
-37 -538 546 0
-37 -546 541 538 0
-38 -546 541 0
-38 546 -541 0
-39 -541 546 0
-39 -539 546 0
-39 -546 541 539 0
-40 -541 546 0
-40 -540 546 0
-40 -546 541 540 0
-64 -546 541 0
-64 546 -541 0
-41 -547 542 0
-41 -547 543 0
-41 547 -542 -543 0
-42 -547 542 0
-42 -547 544 0
-42 547 -542 -544 0
-43 -547 542 0
-43 -547 545 0
-43 547 -542 -545 0
-44 -547 542 0
-44 -547 546 0
-44 547 -542 -546 0
-45 -547 542 0
-45 547 -542 0
-46 -547 542 0
-46 547 -542 0
-47 -547 542 0
-47 547 -542 0
-48 -547 542 0
-48 547 -542 0
-49 -547 542 0
-49 547 -542 0
-50 -547 542 0
-50 547 -542 0
-65 -547 542 0
-65 547 -542 0
-41 -543 548 0
-41 -542 548 0
-41 -548 543 542 0
-42 -548 543 0
-42 548 -543 0
-43 -548 543 0
-43 548 -543 0
-44 -548 543 0
-44 548 -543 0
-45 -548 543 0
-45 -548 544 0
-45 548 -543 -544 0
-46 -548 543 0
-46 -548 545 0
-46 548 -543 -545 0
-47 -548 543 0
-47 -548 546 0
-47 548 -543 -546 0
-48 -548 543 0
-48 548 -543 0
-49 -548 543 0
-49 548 -543 0
-50 -548 543 0
-50 548 -543 0
-65 -548 543 0
-65 548 -543 0
-41 -549 544 0
-41 549 -544 0
-42 -544 549 0
-42 -542 549 0
-42 -549 544 542 0
-43 -549 544 0
-43 549 -544 0
-44 -549 544 0
-44 549 -544 0
-45 -544 549 0
-45 -543 549 0
-45 -549 544 543 0
-46 -549 544 0
-46 549 -544 0
-47 -549 544 0
-47 549 -544 0
-48 -549 544 0
-48 -549 545 0
-48 549 -544 -545 0
-49 -549 544 0
-49 -549 546 0
-49 549 -544 -546 0
-50 -549 544 0
-50 549 -544 0
-65 -549 544 0
-65 549 -544 0
-41 -550 545 0
-41 550 -545 0
-42 -550 545 0
-42 550 -545 0
-43 -545 550 0
-43 -542 550 0
-43 -550 545 542 0
-44 -550 545 0
-44 550 -545 0
-45 -550 545 0
-45 550 -545 0
-46 -545 550 0
-46 -543 550 0
-46 -550 545 543 0
-47 -550 545 0
-47 550 -545 0
-48 -545 550 0
-48 -544 550 0
-48 -550 545 544 0
-49 -550 545 0
-49 550 -545 0
-50 -550 545 0
-50 -550 546 0
-50 550 -545 -546 0
-65 -550 545 0
-65 550 -545 0
-41 -551 546 0
-41 551 -546 0
-42 -551 546 0
-42 551 -546 0
-43 -551 546 0
-43 551 -546 0
-44 -546 551 0
-44 -542 551 0
-44 -551 546 542 0
-45 -551 546 0
-45 551 -546 0
-46 -551 546 0
-46 551 -546 0
-47 -546 551 0
-47 -543 551 0
-47 -551 546 543 0
-48 -551 546 0
-48 551 -546 0
-49 -546 551 0
-49 -544 551 0
-49 -551 546 544 0
-50 -546 551 0
-50 -545 551 0
-50 -551 546 545 0
-65 -551 546 0
-65 551 -546 0
-51 -552 547 0
-51 -552 548 0
-51 552 -547 -548 0
-52 -552 547 0
-52 -552 549 0
-52 552 -547 -549 0
-53 -552 547 0
-53 -552 550 0
-53 552 -547 -550 0
-54 -552 547 0
-54 -552 551 0
-54 552 -547 -551 0
-55 -552 547 0
-55 552 -547 0
-56 -552 547 0
-56 552 -547 0
-57 -552 547 0
-57 552 -547 0
-58 -552 547 0
-58 552 -547 0
-59 -552 547 0
-59 552 -547 0
-60 -552 547 0
-60 552 -547 0
-66 -552 547 0
-66 552 -547 0
-51 -548 553 0
-51 -547 553 0
-51 -553 548 547 0
-52 -553 548 0
-52 553 -548 0
-53 -553 548 0
-53 553 -548 0
-54 -553 548 0
-54 553 -548 0
-55 -553 548 0
-55 -553 549 0
-55 553 -548 -549 0
-56 -553 548 0
-56 -553 550 0
-56 553 -548 -550 0
-57 -553 548 0
-57 -553 551 0
-57 553 -548 -551 0
-58 -553 548 0
-58 553 -548 0
-59 -553 548 0
-59 553 -548 0
-60 -553 548 0
-60 553 -548 0
-66 -553 548 0
-66 553 -548 0
-51 -554 549 0
-51 554 -549 0
-52 -549 554 0
-52 -547 554 0
-52 -554 549 547 0
-53 -554 549 0
-53 554 -549 0
-54 -554 549 0
-54 554 -549 0
-55 -549 554 0
-55 -548 554 0
-55 -554 549 548 0
-56 -554 549 0
-56 554 -549 0
-57 -554 549 0
-57 554 -549 0
-58 -554 549 0
-58 -554 550 0
-58 554 -549 -550 0
-59 -554 549 0
-59 -554 551 0
-59 554 -549 -551 0
-60 -554 549 0
-60 554 -549 0
-66 -554 549 0
-66 554 -549 0
-51 -555 550 0
-51 555 -550 0
-52 -555 550 0
-52 555 -550 0
-53 -550 555 0
-53 -547 555 0
-53 -555 550 547 0
-54 -555 550 0
-54 555 -550 0
-55 -555 550 0
-55 555 -550 0
-56 -550 555 0
-56 -548 555 0
-56 -555 550 548 0
-57 -555 550 0
-57 555 -550 0
-58 -550 555 0
-58 -549 555 0
-58 -555 550 549 0
-59 -555 550 0
-59 555 -550 0
-60 -555 550 0
-60 -555 551 0
-60 555 -550 -551 0
-66 -555 550 0
-66 555 -550 0
-51 -556 551 0
-51 556 -551 0
-52 -556 551 0
-52 556 -551 0
-53 -556 551 0
-53 556 -551 0
-54 -551 556 0
-54 -547 556 0
-54 -556 551 547 0
-55 -556 551 0
-55 556 -551 0
-56 -556 551 0
-56 556 -551 0
-57 -551 556 0
-57 -548 556 0
-57 -556 551 548 0
-58 -556 551 0
-58 556 -551 0
-59 -551 556 0
-59 -549 556 0
-59 -556 551 549 0
-60 -551 556 0
-60 -550 556 0
-60 -556 551 550 0
-66 -556 551 0
-66 556 -551 0
557 0
-1 -562 557 0
-1 -562 558 0
-1 562 -557 -558 0
-2 -562 557 0
-2 -562 559 0
-2 562 -557 -559 0
-3 -562 557 0
-3 -562 560 0
-3 562 -557 -560 0
-4 -562 557 0
-4 -562 561 0
-4 562 -557 -561 0
-5 -562 557 0
-5 562 -557 0
-6 -562 557 0
-6 562 -557 0
-7 -562 557 0
-7 562 -557 0
-8 -562 557 0
-8 562 -557 0
-9 -562 557 0
-9 562 -557 0
-10 -562 557 0
-10 562 -557 0
-61 -562 557 0
-61 562 -557 0
-558 0
-1 -558 563 0
-1 -557 563 0
-1 -563 558 557 0
-2 -563 558 0
-2 563 -558 0
-3 -563 558 0
-3 563 -558 0
-4 -563 558 0
-4 563 -558 0
-5 -563 558 0
-5 -563 559 0
-5 563 -558 -559 0
-6 -563 558 0
-6 -563 560 0
-6 563 -558 -560 0
-7 -563 558 0
-7 -563 561 0
-7 563 -558 -561 0
-8 -563 558 0
-8 563 -558 0
-9 -563 558 0
-9 563 -558 0
-10 -563 558 0
-10 563 -558 0
-61 -563 558 0
-61 563 -558 0
-559 0
-1 -564 559 0
-1 564 -559 0
-2 -559 564 0
-2 -557 564 0
-2 -564 559 557 0
-3 -564 559 0
-3 564 -559 0
-4 -564 559 0
-4 564 -559 0
-5 -559 564 0
-5 -558 564 0
-5 -564 559 558 0
-6 -564 559 0
-6 564 -559 0
-7 -564 559 0
-7 564 -559 0
-8 -564 559 0
-8 -564 560 0
-8 564 -559 -560 0
-9 -564 559 0
-9 -564 561 0
-9 564 -559 -561 0
-10 -564 559 0
-10 564 -559 0
-61 -564 559 0
-61 564 -559 0
560 0
-1 -565 560 0
-1 565 -560 0
-2 -565 560 0
-2 565 -560 0
-3 -560 565 0
-3 -557 565 0
-3 -565 560 557 0
-4 -565 560 0
-4 565 -560 0
-5 -565 560 0
-5 565 -560 0
-6 -560 565 0
-6 -558 565 0
-6 -565 560 558 0
-7 -565 560 0
-7 565 -560 0
-8 -560 565 0
-8 -559 565 0
-8 -565 560 559 0
-9 -565 560 0
-9 565 -560 0
-10 -565 560 0
-10 -565 561 0
-10 565 -560 -561 0
-61 -565 560 0
-61 565 -560 0
561 0
-1 -566 561 0
-1 566 -561 0
-2 -566 561 0
-2 566 -561 0
-3 -566 561 0
-3 566 -561 0
-4 -561 566 0
-4 -557 566 0
-4 -566 561 557 0
-5 -566 561 0
-5 566 -561 0
-6 -566 561 0
-6 566 -561 0
-7 -561 566 0
-7 -558 566 0
-7 -566 561 558 0
-8 -566 561 0
-8 566 -561 0
-9 -561 566 0
-9 -559 566 0
-9 -566 561 559 0
-10 -561 566 0
-10 -560 566 0
-10 -566 561 560 0
-61 -566 561 0
-61 566 -561 0
-11 -567 562 0
-11 -567 563 0
-11 567 -562 -563 0
-12 -567 562 0
-12 -567 564 0
-12 567 -562 -564 0
-13 -567 562 0
-13 -567 565 0
-13 567 -562 -565 0
-14 -567 562 0
-14 -567 566 0
-14 567 -562 -566 0
-15 -567 562 0
-15 567 -562 0
-16 -567 562 0
-16 567 -562 0
-17 -567 562 0
-17 567 -562 0
-18 -567 562 0
-18 567 -562 0
-19 -567 562 0
-19 567 -562 0
-20 -567 562 0
-20 567 -562 0
-62 -567 562 0
-62 567 -562 0
-11 -563 568 0
-11 -562 568 0
-11 -568 563 562 0
-12 -568 563 0
-12 568 -563 0
-13 -568 563 0
-13 568 -563 0
-14 -568 563 0
-14 568 -563 0
-15 -568 563 0
-15 -568 564 0
-15 568 -563 -564 0
-16 -568 563 0
-16 -568 565 0
-16 568 -563 -565 0
-17 -568 563 0
-17 -568 566 0
-17 568 -563 -566 0
-18 -568 563 0
-18 568 -563 0
-19 -568 563 0
-19 568 -563 0
-20 -568 563 0
-20 568 -563 0
-62 -568 563 0
-62 568 -563 0
-11 -569 564 0
-11 569 -564 0
-12 -564 569 0
-12 -562 569 0
-12 -569 564 562 0
-13 -569 564 0
-13 569 -564 0
-14 -569 564 0
-14 569 -564 0
-15 -564 569 0
-15 -563 569 0
-15 -569 564 563 0
-16 -569 564 0
-16 569 -564 0
-17 -569 564 0
-17 569 -564 0
-18 -569 564 0
-18 -569 565 0
-18 569 -564 -565 0
-19 -569 564 0
-19 -569 566 0
-19 569 -564 -566 0
-20 -569 564 0
-20 569 -564 0
-62 -569 564 0
-62 569 -564 0
-11 -570 565 0
-11 570 -565 0
-12 -570 565 0
-12 570 -565 0
-13 -565 570 0
-13 -562 570 0
-13 -570 565 562 0
-14 -570 565 0
-14 570 -565 0
-15 -570 565 0
-15 570 -565 0
-16 -565 570 0
-16 -563 570 0
-16 -570 565 563 0
-17 -570 565 0
-17 570 -565 0
-18 -565 570 0
-18 -564 570 0
-18 -570 565 564 0
-19 -570 565 0
-19 570 -565 0
-20 -570 565 0
-20 -570 566 0
-20 570 -565 -566 0
-62 -570 565 0
-62 570 -565 0
-11 -571 566 0
-11 571 -566 0
-12 -571 566 0
-12 571 -566 0
-13 -571 566 0
-13 571 -566 0
-14 -566 571 0
-14 -562 571 0
-14 -571 566 562 0
-15 -571 566 0
-15 571 -566 0
-16 -571 566 0
-16 571 -566 0
-17 -566 571 0
-17 -563 571 0
-17 -571 566 563 0
-18 -571 566 0
-18 571 -566 0
-19 -566 571 0
-19 -564 571 0
-19 -571 566 564 0
-20 -566 571 0
-20 -565 571 0
-20 -571 566 565 0
-62 -571 566 0
-62 571 -566 0
-21 -572 567 0
-21 -572 568 0
-21 572 -567 -568 0
-22 -572 567 0
-22 -572 569 0
-22 572 -567 -569 0
-23 -572 567 0
-23 -572 570 0
-23 572 -567 -570 0
-24 -572 567 0
-24 -572 571 0
-24 572 -567 -571 0
-25 -572 567 0
-25 572 -567 0
-26 -572 567 0
-26 572 -567 0
-27 -572 567 0
-27 572 -567 0
-28 -572 567 0
-28 572 -567 0
-29 -572 567 0
-29 572 -567 0
-30 -572 567 0
-30 572 -567 0
-63 -572 567 0
-63 572 -567 0
-21 -568 573 0
-21 -567 573 0
-21 -573 568 567 0
-22 -573 568 0
-22 573 -568 0
-23 -573 568 0
-23 573 -568 0
-24 -573 568 0
-24 573 -568 0
-25 -573 568 0
-25 -573 569 0
-25 573 -568 -569 0
-26 -573 568 0
-26 -573 570 0
-26 573 -568 -570 0
-27 -573 568 0
-27 -573 571 0
-27 573 -568 -571 0
-28 -573 568 0
-28 573 -568 0
-29 -573 568 0
-29 573 -568 0
-30 -573 568 0
-30 573 -568 0
-63 -573 568 0
-63 573 -568 0
-21 -574 569 0
-21 574 -569 0
-22 -569 574 0
-22 -567 574 0
-22 -574 569 567 0
-23 -574 569 0
-23 574 -569 0
-24 -574 569 0
-24 574 -569 0
-25 -569 574 0
-25 -568 574 0
-25 -574 569 568 0
-26 -574 569 0
-26 574 -569 0
-27 -574 569 0
-27 574 -569 0
-28 -574 569 0
-28 -574 570 0
-28 574 -569 -570 0
-29 -574 569 0
-29 -574 571 0
-29 574 -569 -571 0
-30 -574 569 0
-30 574 -569 0
-63 -574 569 0
-63 574 -569 0
-21 -575 570 0
-21 575 -570 0
-22 -575 570 0
-22 575 -570 0
-23 -570 575 0
-23 -567 575 0
-23 -575 570 567 0
-24 -575 570 0
-24 575 -570 0
-25 -575 570 0
-25 575 -570 0
-26 -570 575 0
-26 -568 575 0
-26 -575 570 568 0
-27 -575 570 0
-27 575 -570 0
-28 -570 575 0
-28 -569 575 0
-28 -575 570 569 0
-29 -575 570 0
-29 575 -570 0
-30 -575 570 0
-30 -575 571 0
-30 575 -570 -571 0
-63 -575 570 0
-63 575 -570 0
-21 -576 571 0
-21 576 -571 0
-22 -576 571 0
-22 576 -571 0
-23 -576 571 0
-23 576 -571 0
-24 -571 576 0
-24 -567 576 0
-24 -576 571 567 0
-25 -576 571 0
-25 576 -571 0
-26 -576 571 0
-26 576 -571 0
-27 -571 576 0
-27 -568 576 0
-27 -576 571 568 0
-28 -576 571 0
-28 576 -571 0
-29 -571 576 0
-29 -569 576 0
-29 -576 571 569 0
-30 -571 576 0
-30 -570 576 0
-30 -576 571 570 0
-63 -576 571 0
-63 576 -571 0
-31 -577 572 0
-31 -577 573 0
-31 577 -572 -573 0
-32 -577 572 0
-32 -577 574 0
-32 577 -572 -574 0
-33 -577 572 0
-33 -577 575 0
-33 577 -572 -575 0
-34 -577 572 0
-34 -577 576 0
-34 577 -572 -576 0
-35 -577 572 0
-35 577 -572 0
-36 -577 572 0
-36 577 -572 0
-37 -577 572 0
-37 577 -572 0
-38 -577 572 0
-38 577 -572 0
-39 -577 572 0
-39 577 -572 0
-40 -577 572 0
-40 577 -572 0
-64 -577 572 0
-64 577 -572 0
-31 -573 578 0
-31 -572 578 0
-31 -578 573 572 0
-32 -578 573 0
-32 578 -573 0
-33 -578 573 0
-33 578 -573 0
-34 -578 573 0
-34 578 -573 0
-35 -578 573 0
-35 -578 574 0
-35 578 -573 -574 0
-36 -578 573 0
-36 -578 575 0
-36 578 -573 -575 0
-37 -578 573 0
-37 -578 576 0
-37 578 -573 -576 0
-38 -578 573 0
-38 578 -573 0
-39 -578 573 0
-39 578 -573 0
-40 -578 573 0
-40 578 -573 0
-64 -578 573 0
-64 578 -573 0
-31 -579 574 0
-31 579 -574 0
-32 -574 579 0
-32 -572 579 0
-32 -579 574 572 0
-33 -579 574 0
-33 579 -574 0
-34 -579 574 0
-34 579 -574 0
-35 -574 579 0
-35 -573 579 0
-35 -579 574 573 0
-36 -579 574 0
-36 579 -574 0
-37 -579 574 0
-37 579 -574 0
-38 -579 574 0
-38 -579 575 0
-38 579 -574 -575 0
-39 -579 574 0
-39 -579 576 0
-39 579 -574 -576 0
-40 -579 574 0
-40 579 -574 0
-64 -579 574 0
-64 579 -574 0
-31 -580 575 0
-31 580 -575 0
-32 -580 575 0
-32 580 -575 0
-33 -575 580 0
-33 -572 580 0
-33 -580 575 572 0
-34 -580 575 0
-34 580 -575 0
-35 -580 575 0
-35 580 -575 0
-36 -575 580 0
-36 -573 580 0
-36 -580 575 573 0
-37 -580 575 0
-37 580 -575 0
-38 -575 580 0
-38 -574 580 0
-38 -580 575 574 0
-39 -580 575 0
-39 580 -575 0
-40 -580 575 0
-40 -580 576 0
-40 580 -575 -576 0
-64 -580 575 0
-64 580 -575 0
-31 -581 576 0
-31 581 -576 0
-32 -581 576 0
-32 581 -576 0
-33 -581 576 0
-33 581 -576 0
-34 -576 581 0
-34 -572 581 0
-34 -581 576 572 0
-35 -581 576 0
-35 581 -576 0
-36 -581 576 0
-36 581 -576 0
-37 -576 581 0
-37 -573 581 0
-37 -581 576 573 0
-38 -581 576 0
-38 581 -576 0
-39 -576 581 0
-39 -574 581 0
-39 -581 576 574 0
-40 -576 581 0
-40 -575 581 0
-40 -581 576 575 0
-64 -581 576 0
-64 581 -576 0
-41 -582 577 0
-41 -582 578 0
-41 582 -577 -578 0
-42 -582 577 0
-42 -582 579 0
-42 582 -577 -579 0
-43 -582 577 0
-43 -582 580 0
-43 582 -577 -580 0
-44 -582 577 0
-44 -582 581 0
-44 582 -577 -581 0
-45 -582 577 0
-45 582 -577 0
-46 -582 577 0
-46 582 -577 0
-47 -582 577 0
-47 582 -577 0
-48 -582 577 0
-48 582 -577 0
-49 -582 577 0
-49 582 -577 0
-50 -582 577 0
-50 582 -577 0
-65 -582 577 0
-65 582 -577 0
-41 -578 583 0
-41 -577 583 0
-41 -583 578 577 0
-42 -583 578 0
-42 583 -578 0
-43 -583 578 0
-43 583 -578 0
-44 -583 578 0
-44 583 -578 0
-45 -583 578 0
-45 -583 579 0
-45 583 -578 -579 0
-46 -583 578 0
-46 -583 580 0
-46 583 -578 -580 0
-47 -583 578 0
-47 -583 581 0
-47 583 -578 -581 0
-48 -583 578 0
-48 583 -578 0
-49 -583 578 0
-49 583 -578 0
-50 -583 578 0
-50 583 -578 0
-65 -583 578 0
-65 583 -578 0
-41 -584 579 0
-41 584 -579 0
-42 -579 584 0
-42 -577 584 0
-42 -584 579 577 0
-43 -584 579 0
-43 584 -579 0
-44 -584 579 0
-44 584 -579 0
-45 -579 584 0
-45 -578 584 0
-45 -584 579 578 0
-46 -584 579 0
-46 584 -579 0
-47 -584 579 0
-47 584 -579 0
-48 -584 579 0
-48 -584 580 0
-48 584 -579 -580 0
-49 -584 579 0
-49 -584 581 0
-49 584 -579 -581 0
-50 -584 579 0
-50 584 -579 0
-65 -584 579 0
-65 584 -579 0
-41 -585 580 0
-41 585 -580 0
-42 -585 580 0
-42 585 -580 0
-43 -580 585 0
-43 -577 585 0
-43 -585 580 577 0
-44 -585 580 0
-44 585 -580 0
-45 -585 580 0
-45 585 -580 0
-46 -580 585 0
-46 -578 585 0
-46 -585 580 578 0
-47 -585 580 0
-47 585 -580 0
-48 -580 585 0
-48 -579 585 0
-48 -585 580 579 0
-49 -585 580 0
-49 585 -580 0
-50 -585 580 0
-50 -585 581 0
-50 585 -580 -581 0
-65 -585 580 0
-65 585 -580 0
-41 -586 581 0
-41 586 -581 0
-42 -586 581 0
-42 586 -581 0
-43 -586 581 0
-43 586 -581 0
-44 -581 586 0
-44 -577 586 0
-44 -586 581 577 0
-45 -586 581 0
-45 586 -581 0
-46 -586 581 0
-46 586 -581 0
-47 -581 586 0
-47 -578 586 0
-47 -586 581 578 0
-48 -586 581 0
-48 586 -581 0
-49 -581 586 0
-49 -579 586 0
-49 -586 581 579 0
-50 -581 586 0
-50 -580 586 0
-50 -586 581 580 0
-65 -586 581 0
-65 586 -581 0
-51 -587 582 0
-51 -587 583 0
-51 587 -582 -583 0
-52 -587 582 0
-52 -587 584 0
-52 587 -582 -584 0
-53 -587 582 0
-53 -587 585 0
-53 587 -582 -585 0
-54 -587 582 0
-54 -587 586 0
-54 587 -582 -586 0
-55 -587 582 0
-55 587 -582 0
-56 -587 582 0
-56 587 -582 0
-57 -587 582 0
-57 587 -582 0
-58 -587 582 0
-58 587 -582 0
-59 -587 582 0
-59 587 -582 0
-60 -587 582 0
-60 587 -582 0
-66 -587 582 0
-66 587 -582 0
-51 -583 588 0
-51 -582 588 0
-51 -588 583 582 0
-52 -588 583 0
-52 588 -583 0
-53 -588 583 0
-53 588 -583 0
-54 -588 583 0
-54 588 -583 0
-55 -588 583 0
-55 -588 584 0
-55 588 -583 -584 0
-56 -588 583 0
-56 -588 585 0
-56 588 -583 -585 0
-57 -588 583 0
-57 -588 586 0
-57 588 -583 -586 0
-58 -588 583 0
-58 588 -583 0
-59 -588 583 0
-59 588 -583 0
-60 -588 583 0
-60 588 -583 0
-66 -588 583 0
-66 588 -583 0
-51 -589 584 0
-51 589 -584 0
-52 -584 589 0
-52 -582 589 0
-52 -589 584 582 0
-53 -589 584 0
-53 589 -584 0
-54 -589 584 0
-54 589 -584 0
-55 -584 589 0
-55 -583 589 0
-55 -589 584 583 0
-56 -589 584 0
-56 589 -584 0
-57 -589 584 0
-57 589 -584 0
-58 -589 584 0
-58 -589 585 0
-58 589 -584 -585 0
-59 -589 584 0
-59 -589 586 0
-59 589 -584 -586 0
-60 -589 584 0
-60 589 -584 0
-66 -589 584 0
-66 589 -584 0
-51 -590 585 0
-51 590 -585 0
-52 -590 585 0
-52 590 -585 0
-53 -585 590 0
-53 -582 590 0
-53 -590 585 582 0
-54 -590 585 0
-54 590 -585 0
-55 -590 585 0
-55 590 -585 0
-56 -585 590 0
-56 -583 590 0
-56 -590 585 583 0
-57 -590 585 0
-57 590 -585 0
-58 -585 590 0
-58 -584 590 0
-58 -590 585 584 0
-59 -590 585 0
-59 590 -585 0
-60 -590 585 0
-60 -590 586 0
-60 590 -585 -586 0
-66 -590 585 0
-66 590 -585 0
-51 -591 586 0
-51 591 -586 0
-52 -591 586 0
-52 591 -586 0
-53 -591 586 0
-53 591 -586 0
-54 -586 591 0
-54 -582 591 0
-54 -591 586 582 0
-55 -591 586 0
-55 591 -586 0
-56 -591 586 0
-56 591 -586 0
-57 -586 591 0
-57 -583 591 0
-57 -591 586 583 0
-58 -591 586 0
-58 591 -586 0
-59 -586 591 0
-59 -584 591 0
-59 -591 586 584 0
-60 -586 591 0
-60 -585 591 0
-60 -591 586 585 0
-66 -591 586 0
-66 591 -586 0
592 0
-1 -597 592 0
-1 -597 593 0
-1 597 -592 -593 0
-2 -597 592 0
-2 -597 594 0
-2 597 -592 -594 0
-3 -597 592 0
-3 -597 595 0
-3 597 -592 -595 0
-4 -597 592 0
-4 -597 596 0
-4 597 -592 -596 0
-5 -597 592 0
-5 597 -592 0
-6 -597 592 0
-6 597 -592 0
-7 -597 592 0
-7 597 -592 0
-8 -597 592 0
-8 597 -592 0
-9 -597 592 0
-9 597 -592 0
-10 -597 592 0
-10 597 -592 0
-61 -597 592 0
-61 597 -592 0
-593 0
-1 -593 598 0
-1 -592 598 0
-1 -598 593 592 0
-2 -598 593 0
-2 598 -593 0
-3 -598 593 0
-3 598 -593 0
-4 -598 593 0
-4 598 -593 0
-5 -598 593 0
-5 -598 594 0
-5 598 -593 -594 0
-6 -598 593 0
-6 -598 595 0
-6 598 -593 -595 0
-7 -598 593 0
-7 -598 596 0
-7 598 -593 -596 0
-8 -598 593 0
-8 598 -593 0
-9 -598 593 0
-9 598 -593 0
-10 -598 593 0
-10 598 -593 0
-61 -598 593 0
-61 598 -593 0
594 0
-1 -599 594 0
-1 599 -594 0
-2 -594 599 0
-2 -592 599 0
-2 -599 594 592 0
-3 -599 594 0
-3 599 -594 0
-4 -599 594 0
-4 599 -594 0
-5 -594 599 0
-5 -593 599 0
-5 -599 594 593 0
-6 -599 594 0
-6 599 -594 0
-7 -599 594 0
-7 599 -594 0
-8 -599 594 0
-8 -599 595 0
-8 599 -594 -595 0
-9 -599 594 0
-9 -599 596 0
-9 599 -594 -596 0
-10 -599 594 0
-10 599 -594 0
-61 -599 594 0
-61 599 -594 0
-595 0
-1 -600 595 0
-1 600 -595 0
-2 -600 595 0
-2 600 -595 0
-3 -595 600 0
-3 -592 600 0
-3 -600 595 592 0
-4 -600 595 0
-4 600 -595 0
-5 -600 595 0
-5 600 -595 0
-6 -595 600 0
-6 -593 600 0
-6 -600 595 593 0
-7 -600 595 0
-7 600 -595 0
-8 -595 600 0
-8 -594 600 0
-8 -600 595 594 0
-9 -600 595 0
-9 600 -595 0
-10 -600 595 0
-10 -600 596 0
-10 600 -595 -596 0
-61 -600 595 0
-61 600 -595 0
-596 0
-1 -601 596 0
-1 601 -596 0
-2 -601 596 0
-2 601 -596 0
-3 -601 596 0
-3 601 -596 0
-4 -596 601 0
-4 -592 601 0
-4 -601 596 592 0
-5 -601 596 0
-5 601 -596 0
-6 -601 596 0
-6 601 -596 0
-7 -596 601 0
-7 -593 601 0
-7 -601 596 593 0
-8 -601 596 0
-8 601 -596 0
-9 -596 601 0
-9 -594 601 0
-9 -601 596 594 0
-10 -596 601 0
-10 -595 601 0
-10 -601 596 595 0
-61 -601 596 0
-61 601 -596 0
-11 -602 597 0
-11 -602 598 0
-11 602 -597 -598 0
-12 -602 597 0
-12 -602 599 0
-12 602 -597 -599 0
-13 -602 597 0
-13 -602 600 0
-13 602 -597 -600 0
-14 -602 597 0
-14 -602 601 0
-14 602 -597 -601 0
-15 -602 597 0
-15 602 -597 0
-16 -602 597 0
-16 602 -597 0
-17 -602 597 0
-17 602 -597 0
-18 -602 597 0
-18 602 -597 0
-19 -602 597 0
-19 602 -597 0
-20 -602 597 0
-20 602 -597 0
-62 -602 597 0
-62 602 -597 0
-11 -598 603 0
-11 -597 603 0
-11 -603 598 597 0
-12 -603 598 0
-12 603 -598 0
-13 -603 598 0
-13 603 -598 0
-14 -603 598 0
-14 603 -598 0
-15 -603 598 0
-15 -603 599 0
-15 603 -598 -599 0
-16 -603 598 0
-16 -603 600 0
-16 603 -598 -600 0
-17 -603 598 0
-17 -603 601 0
-17 603 -598 -601 0
-18 -603 598 0
-18 603 -598 0
-19 -603 598 0
-19 603 -598 0
-20 -603 598 0
-20 603 -598 0
-62 -603 598 0
-62 603 -598 0
-11 -604 599 0
-11 604 -599 0
-12 -599 604 0
-12 -597 604 0
-12 -604 599 597 0
-13 -604 599 0
-13 604 -599 0
-14 -604 599 0
-14 604 -599 0
-15 -599 604 0
-15 -598 604 0
-15 -604 599 598 0
-16 -604 599 0
-16 604 -599 0
-17 -604 599 0
-17 604 -599 0
-18 -604 599 0
-18 -604 600 0
-18 604 -599 -600 0
-19 -604 599 0
-19 -604 601 0
-19 604 -599 -601 0
-20 -604 599 0
-20 604 -599 0
-62 -604 599 0
-62 604 -599 0
-11 -605 600 0
-11 605 -600 0
-12 -605 600 0
-12 605 -600 0
-13 -600 605 0
-13 -597 605 0
-13 -605 600 597 0
-14 -605 600 0
-14 605 -600 0
-15 -605 600 0
-15 605 -600 0
-16 -600 605 0
-16 -598 605 0
-16 -605 600 598 0
-17 -605 600 0
-17 605 -600 0
-18 -600 605 0
-18 -599 605 0
-18 -605 600 599 0
-19 -605 600 0
-19 605 -600 0
-20 -605 600 0
-20 -605 601 0
-20 605 -600 -601 0
-62 -605 600 0
-62 605 -600 0
-11 -606 601 0
-11 606 -601 0
-12 -606 601 0
-12 606 -601 0
-13 -606 601 0
-13 606 -601 0
-14 -601 606 0
-14 -597 606 0
-14 -606 601 597 0
-15 -606 601 0
-15 606 -601 0
-16 -606 601 0
-16 606 -601 0
-17 -601 606 0
-17 -598 606 0
-17 -606 601 598 0
-18 -606 601 0
-18 606 -601 0
-19 -601 606 0
-19 -599 606 0
-19 -606 601 599 0
-20 -601 606 0
-20 -600 606 0
-20 -606 601 600 0
-62 -606 601 0
-62 606 -601 0
-21 -607 602 0
-21 -607 603 0
-21 607 -602 -603 0
-22 -607 602 0
-22 -607 604 0
-22 607 -602 -604 0
-23 -607 602 0
-23 -607 605 0
-23 607 -602 -605 0
-24 -607 602 0
-24 -607 606 0
-24 607 -602 -606 0
-25 -607 602 0
-25 607 -602 0
-26 -607 602 0
-26 607 -602 0
-27 -607 602 0
-27 607 -602 0
-28 -607 602 0
-28 607 -602 0
-29 -607 602 0
-29 607 -602 0
-30 -607 602 0
-30 607 -602 0
-63 -607 602 0
-63 607 -602 0
-21 -603 608 0
-21 -602 608 0
-21 -608 603 602 0
-22 -608 603 0
-22 608 -603 0
-23 -608 603 0
-23 608 -603 0
-24 -608 603 0
-24 608 -603 0
-25 -608 603 0
-25 -608 604 0
-25 608 -603 -604 0
-26 -608 603 0
-26 -608 605 0
-26 608 -603 -605 0
-27 -608 603 0
-27 -608 606 0
-27 608 -603 -606 0
-28 -608 603 0
-28 608 -603 0
-29 -608 603 0
-29 608 -603 0
-30 -608 603 0
-30 608 -603 0
-63 -608 603 0
-63 608 -603 0
-21 -609 604 0
-21 609 -604 0
-22 -604 609 0
-22 -602 609 0
-22 -609 604 602 0
-23 -609 604 0
-23 609 -604 0
-24 -609 604 0
-24 609 -604 0
-25 -604 609 0
-25 -603 609 0
-25 -609 604 603 0
-26 -609 604 0
-26 609 -604 0
-27 -609 604 0
-27 609 -604 0
-28 -609 604 0
-28 -609 605 0
-28 609 -604 -605 0
-29 -609 604 0
-29 -609 606 0
-29 609 -604 -606 0
-30 -609 604 0
-30 609 -604 0
-63 -609 604 0
-63 609 -604 0
-21 -610 605 0
-21 610 -605 0
-22 -610 605 0
-22 610 -605 0
-23 -605 610 0
-23 -602 610 0
-23 -610 605 602 0
-24 -610 605 0
-24 610 -605 0
-25 -610 605 0
-25 610 -605 0
-26 -605 610 0
-26 -603 610 0
-26 -610 605 603 0
-27 -610 605 0
-27 610 -605 0
-28 -605 610 0
-28 -604 610 0
-28 -610 605 604 0
-29 -610 605 0
-29 610 -605 0
-30 -610 605 0
-30 -610 606 0
-30 610 -605 -606 0
-63 -610 605 0
-63 610 -605 0
-21 -611 606 0
-21 611 -606 0
-22 -611 606 0
-22 611 -606 0
-23 -611 606 0
-23 611 -606 0
-24 -606 611 0
-24 -602 611 0
-24 -611 606 602 0
-25 -611 606 0
-25 611 -606 0
-26 -611 606 0
-26 611 -606 0
-27 -606 611 0
-27 -603 611 0
-27 -611 606 603 0
-28 -611 606 0
-28 611 -606 0
-29 -606 611 0
-29 -604 611 0
-29 -611 606 604 0
-30 -606 611 0
-30 -605 611 0
-30 -611 606 605 0
-63 -611 606 0
-63 611 -606 0
-31 -612 607 0
-31 -612 608 0
-31 612 -607 -608 0
-32 -612 607 0
-32 -612 609 0
-32 612 -607 -609 0
-33 -612 607 0
-33 -612 610 0
-33 612 -607 -610 0
-34 -612 607 0
-34 -612 611 0
-34 612 -607 -611 0
-35 -612 607 0
-35 612 -607 0
-36 -612 607 0
-36 612 -607 0
-37 -612 607 0
-37 612 -607 0
-38 -612 607 0
-38 612 -607 0
-39 -612 607 0
-39 612 -607 0
-40 -612 607 0
-40 612 -607 0
-64 -612 607 0
-64 612 -607 0
-31 -608 613 0
-31 -607 613 0
-31 -613 608 607 0
-32 -613 608 0
-32 613 -608 0
-33 -613 608 0
-33 613 -608 0
-34 -613 608 0
-34 613 -608 0
-35 -613 608 0
-35 -613 609 0
-35 613 -608 -609 0
-36 -613 608 0
-36 -613 610 0
-36 613 -608 -610 0
-37 -613 608 0
-37 -613 611 0
-37 613 -608 -611 0
-38 -613 608 0
-38 613 -608 0
-39 -613 608 0
-39 613 -608 0
-40 -613 608 0
-40 613 -608 0
-64 -613 608 0
-64 613 -608 0
-31 -614 609 0
-31 614 -609 0
-32 -609 614 0
-32 -607 614 0
-32 -614 609 607 0
-33 -614 609 0
-33 614 -609 0
-34 -614 609 0
-34 614 -609 0
-35 -609 614 0
-35 -608 614 0
-35 -614 609 608 0
-36 -614 609 0
-36 614 -609 0
-37 -614 609 0
-37 614 -609 0
-38 -614 609 0
-38 -614 610 0
-38 614 -609 -610 0
-39 -614 609 0
-39 -614 611 0
-39 614 -609 -611 0
-40 -614 609 0
-40 614 -609 0
-64 -614 609 0
-64 614 -609 0
-31 -615 610 0
-31 615 -610 0
-32 -615 610 0
-32 615 -610 0
-33 -610 615 0
-33 -607 615 0
-33 -615 610 607 0
-34 -615 610 0
-34 615 -610 0
-35 -615 610 0
-35 615 -610 0
-36 -610 615 0
-36 -608 615 0
-36 -615 610 608 0
-37 -615 610 0
-37 615 -610 0
-38 -610 615 0
-38 -609 615 0
-38 -615 610 609 0
-39 -615 610 0
-39 615 -610 0
-40 -615 610 0
-40 -615 611 0
-40 615 -610 -611 0
-64 -615 610 0
-64 615 -610 0
-31 -616 611 0
-31 616 -611 0
-32 -616 611 0
-32 616 -611 0
-33 -616 611 0
-33 616 -611 0
-34 -611 616 0
-34 -607 616 0
-34 -616 611 607 0
-35 -616 611 0
-35 616 -611 0
-36 -616 611 0
-36 616 -611 0
-37 -611 616 0
-37 -608 616 0
-37 -616 611 608 0
-38 -616 611 0
-38 616 -611 0
-39 -611 616 0
-39 -609 616 0
-39 -616 611 609 0
-40 -611 616 0
-40 -610 616 0
-40 -616 611 610 0
-64 -616 611 0
-64 616 -611 0
-41 -617 612 0
-41 -617 613 0
-41 617 -612 -613 0
-42 -617 612 0
-42 -617 614 0
-42 617 -612 -614 0
-43 -617 612 0
-43 -617 615 0
-43 617 -612 -615 0
-44 -617 612 0
-44 -617 616 0
-44 617 -612 -616 0
-45 -617 612 0
-45 617 -612 0
-46 -617 612 0
-46 617 -612 0
-47 -617 612 0
-47 617 -612 0
-48 -617 612 0
-48 617 -612 0
-49 -617 612 0
-49 617 -612 0
-50 -617 612 0
-50 617 -612 0
-65 -617 612 0
-65 617 -612 0
-41 -613 618 0
-41 -612 618 0
-41 -618 613 612 0
-42 -618 613 0
-42 618 -613 0
-43 -618 613 0
-43 618 -613 0
-44 -618 613 0
-44 618 -613 0
-45 -618 613 0
-45 -618 614 0
-45 618 -613 -614 0
-46 -618 613 0
-46 -618 615 0
-46 618 -613 -615 0
-47 -618 613 0
-47 -618 616 0
-47 618 -613 -616 0
-48 -618 613 0
-48 618 -613 0
-49 -618 613 0
-49 618 -613 0
-50 -618 613 0
-50 618 -613 0
-65 -618 613 0
-65 618 -613 0
-41 -619 614 0
-41 619 -614 0
-42 -614 619 0
-42 -612 619 0
-42 -619 614 612 0
-43 -619 614 0
-43 619 -614 0
-44 -619 614 0
-44 619 -614 0
-45 -614 619 0
-45 -613 619 0
-45 -619 614 613 0
-46 -619 614 0
-46 619 -614 0
-47 -619 614 0
-47 619 -614 0
-48 -619 614 0
-48 -619 615 0
-48 619 -614 -615 0
-49 -619 614 0
-49 -619 616 0
-49 619 -614 -616 0
-50 -619 614 0
-50 619 -614 0
-65 -619 614 0
-65 619 -614 0
-41 -620 615 0
-41 620 -615 0
-42 -620 615 0
-42 620 -615 0
-43 -615 620 0
-43 -612 620 0
-43 -620 615 612 0
-44 -620 615 0
-44 620 -615 0
-45 -620 615 0
-45 620 -615 0
-46 -615 620 0
-46 -613 620 0
-46 -620 615 613 0
-47 -620 615 0
-47 620 -615 0
-48 -615 620 0
-48 -614 620 0
-48 -620 615 614 0
-49 -620 615 0
-49 620 -615 0
-50 -620 615 0
-50 -620 616 0
-50 620 -615 -616 0
-65 -620 615 0
-65 620 -615 0
-41 -621 616 0
-41 621 -616 0
-42 -621 616 0
-42 621 -616 0
-43 -621 616 0
-43 621 -616 0
-44 -616 621 0
-44 -612 621 0
-44 -621 616 612 0
-45 -621 616 0
-45 621 -616 0
-46 -621 616 0
-46 621 -616 0
-47 -616 621 0
-47 -613 621 0
-47 -621 616 613 0
-48 -621 616 0
-48 621 -616 0
-49 -616 621 0
-49 -614 621 0
-49 -621 616 614 0
-50 -616 621 0
-50 -615 621 0
-50 -621 616 615 0
-65 -621 616 0
-65 621 -616 0
-51 -622 617 0
-51 -622 618 0
-51 622 -617 -618 0
-52 -622 617 0
-52 -622 619 0
-52 622 -617 -619 0
-53 -622 617 0
-53 -622 620 0
-53 622 -617 -620 0
-54 -622 617 0
-54 -622 621 0
-54 622 -617 -621 0
-55 -622 617 0
-55 622 -617 0
-56 -622 617 0
-56 622 -617 0
-57 -622 617 0
-57 622 -617 0
-58 -622 617 0
-58 622 -617 0
-59 -622 617 0
-59 622 -617 0
-60 -622 617 0
-60 622 -617 0
-66 -622 617 0
-66 622 -617 0
-51 -618 623 0
-51 -617 623 0
-51 -623 618 617 0
-52 -623 618 0
-52 623 -618 0
-53 -623 618 0
-53 623 -618 0
-54 -623 618 0
-54 623 -618 0
-55 -623 618 0
-55 -623 619 0
-55 623 -618 -619 0
-56 -623 618 0
-56 -623 620 0
-56 623 -618 -620 0
-57 -623 618 0
-57 -623 621 0
-57 623 -618 -621 0
-58 -623 618 0
-58 623 -618 0
-59 -623 618 0
-59 623 -618 0
-60 -623 618 0
-60 623 -618 0
-66 -623 618 0
-66 623 -618 0
-51 -624 619 0
-51 624 -619 0
-52 -619 624 0
-52 -617 624 0
-52 -624 619 617 0
-53 -624 619 0
-53 624 -619 0
-54 -624 619 0
-54 624 -619 0
-55 -619 624 0
-55 -618 624 0
-55 -624 619 618 0
-56 -624 619 0
-56 624 -619 0
-57 -624 619 0
-57 624 -619 0
-58 -624 619 0
-58 -624 620 0
-58 624 -619 -620 0
-59 -624 619 0
-59 -624 621 0
-59 624 -619 -621 0
-60 -624 619 0
-60 624 -619 0
-66 -624 619 0
-66 624 -619 0
-51 -625 620 0
-51 625 -620 0
-52 -625 620 0
-52 625 -620 0
-53 -620 625 0
-53 -617 625 0
-53 -625 620 617 0
-54 -625 620 0
-54 625 -620 0
-55 -625 620 0
-55 625 -620 0
-56 -620 625 0
-56 -618 625 0
-56 -625 620 618 0
-57 -625 620 0
-57 625 -620 0
-58 -620 625 0
-58 -619 625 0
-58 -625 620 619 0
-59 -625 620 0
-59 625 -620 0
-60 -625 620 0
-60 -625 621 0
-60 625 -620 -621 0
-66 -625 620 0
-66 625 -620 0
-51 -626 621 0
-51 626 -621 0
-52 -626 621 0
-52 626 -621 0
-53 -626 621 0
-53 626 -621 0
-54 -621 626 0
-54 -617 626 0
-54 -626 621 617 0
-55 -626 621 0
-55 626 -621 0
-56 -626 621 0
-56 626 -621 0
-57 -621 626 0
-57 -618 626 0
-57 -626 621 618 0
-58 -626 621 0
-58 626 -621 0
-59 -621 626 0
-59 -619 626 0
-59 -626 621 619 0
-60 -621 626 0
-60 -620 626 0
-60 -626 621 620 0
-66 -626 621 0
-66 626 -621 0
627 0
-1 -632 627 0
-1 -632 628 0
-1 632 -627 -628 0
-2 -632 627 0
-2 -632 629 0
-2 632 -627 -629 0
-3 -632 627 0
-3 -632 630 0
-3 632 -627 -630 0
-4 -632 627 0
-4 -632 631 0
-4 632 -627 -631 0
-5 -632 627 0
-5 632 -627 0
-6 -632 627 0
-6 632 -627 0
-7 -632 627 0
-7 632 -627 0
-8 -632 627 0
-8 632 -627 0
-9 -632 627 0
-9 632 -627 0
-10 -632 627 0
-10 632 -627 0
-61 -632 627 0
-61 632 -627 0
-628 0
-1 -628 633 0
-1 -627 633 0
-1 -633 628 627 0
-2 -633 628 0
-2 633 -628 0
-3 -633 628 0
-3 633 -628 0
-4 -633 628 0
-4 633 -628 0
-5 -633 628 0
-5 -633 629 0
-5 633 -628 -629 0
-6 -633 628 0
-6 -633 630 0
-6 633 -628 -630 0
-7 -633 628 0
-7 -633 631 0
-7 633 -628 -631 0
-8 -633 628 0
-8 633 -628 0
-9 -633 628 0
-9 633 -628 0
-10 -633 628 0
-10 633 -628 0
-61 -633 628 0
-61 633 -628 0
629 0
-1 -634 629 0
-1 634 -629 0
-2 -629 634 0
-2 -627 634 0
-2 -634 629 627 0
-3 -634 629 0
-3 634 -629 0
-4 -634 629 0
-4 634 -629 0
-5 -629 634 0
-5 -628 634 0
-5 -634 629 628 0
-6 -634 629 0
-6 634 -629 0
-7 -634 629 0
-7 634 -629 0
-8 -634 629 0
-8 -634 630 0
-8 634 -629 -630 0
-9 -634 629 0
-9 -634 631 0
-9 634 -629 -631 0
-10 -634 629 0
-10 634 -629 0
-61 -634 629 0
-61 634 -629 0
-630 0
-1 -635 630 0
-1 635 -630 0
-2 -635 630 0
-2 635 -630 0
-3 -630 635 0
-3 -627 635 0
-3 -635 630 627 0
-4 -635 630 0
-4 635 -630 0
-5 -635 630 0
-5 635 -630 0
-6 -630 635 0
-6 -628 635 0
-6 -635 630 628 0
-7 -635 630 0
-7 635 -630 0
-8 -630 635 0
-8 -629 635 0
-8 -635 630 629 0
-9 -635 630 0
-9 635 -630 0
-10 -635 630 0
-10 -635 631 0
-10 635 -630 -631 0
-61 -635 630 0
-61 635 -630 0
631 0
-1 -636 631 0
-1 636 -631 0
-2 -636 631 0
-2 636 -631 0
-3 -636 631 0
-3 636 -631 0
-4 -631 636 0
-4 -627 636 0
-4 -636 631 627 0
-5 -636 631 0
-5 636 -631 0
-6 -636 631 0
-6 636 -631 0
-7 -631 636 0
-7 -628 636 0
-7 -636 631 628 0
-8 -636 631 0
-8 636 -631 0
-9 -631 636 0
-9 -629 636 0
-9 -636 631 629 0
-10 -631 636 0
-10 -630 636 0
-10 -636 631 630 0
-61 -636 631 0
-61 636 -631 0
-11 -637 632 0
-11 -637 633 0
-11 637 -632 -633 0
-12 -637 632 0
-12 -637 634 0
-12 637 -632 -634 0
-13 -637 632 0
-13 -637 635 0
-13 637 -632 -635 0
-14 -637 632 0
-14 -637 636 0
-14 637 -632 -636 0
-15 -637 632 0
-15 637 -632 0
-16 -637 632 0
-16 637 -632 0
-17 -637 632 0
-17 637 -632 0
-18 -637 632 0
-18 637 -632 0
-19 -637 632 0
-19 637 -632 0
-20 -637 632 0
-20 637 -632 0
-62 -637 632 0
-62 637 -632 0
-11 -633 638 0
-11 -632 638 0
-11 -638 633 632 0
-12 -638 633 0
-12 638 -633 0
-13 -638 633 0
-13 638 -633 0
-14 -638 633 0
-14 638 -633 0
-15 -638 633 0
-15 -638 634 0
-15 638 -633 -634 0
-16 -638 633 0
-16 -638 635 0
-16 638 -633 -635 0
-17 -638 633 0
-17 -638 636 0
-17 638 -633 -636 0
-18 -638 633 0
-18 638 -633 0
-19 -638 633 0
-19 638 -633 0
-20 -638 633 0
-20 638 -633 0
-62 -638 633 0
-62 638 -633 0
-11 -639 634 0
-11 639 -634 0
-12 -634 639 0
-12 -632 639 0
-12 -639 634 632 0
-13 -639 634 0
-13 639 -634 0
-14 -639 634 0
-14 639 -634 0
-15 -634 639 0
-15 -633 639 0
-15 -639 634 633 0
-16 -639 634 0
-16 639 -634 0
-17 -639 634 0
-17 639 -634 0
-18 -639 634 0
-18 -639 635 0
-18 639 -634 -635 0
-19 -639 634 0
-19 -639 636 0
-19 639 -634 -636 0
-20 -639 634 0
-20 639 -634 0
-62 -639 634 0
-62 639 -634 0
-11 -640 635 0
-11 640 -635 0
-12 -640 635 0
-12 640 -635 0
-13 -635 640 0
-13 -632 640 0
-13 -640 635 632 0
-14 -640 635 0
-14 640 -635 0
-15 -640 635 0
-15 640 -635 0
-16 -635 640 0
-16 -633 640 0
-16 -640 635 633 0
-17 -640 635 0
-17 640 -635 0
-18 -635 640 0
-18 -634 640 0
-18 -640 635 634 0
-19 -640 635 0
-19 640 -635 0
-20 -640 635 0
-20 -640 636 0
-20 640 -635 -636 0
-62 -640 635 0
-62 640 -635 0
-11 -641 636 0
-11 641 -636 0
-12 -641 636 0
-12 641 -636 0
-13 -641 636 0
-13 641 -636 0
-14 -636 641 0
-14 -632 641 0
-14 -641 636 632 0
-15 -641 636 0
-15 641 -636 0
-16 -641 636 0
-16 641 -636 0
-17 -636 641 0
-17 -633 641 0
-17 -641 636 633 0
-18 -641 636 0
-18 641 -636 0
-19 -636 641 0
-19 -634 641 0
-19 -641 636 634 0
-20 -636 641 0
-20 -635 641 0
-20 -641 636 635 0
-62 -641 636 0
-62 641 -636 0
-21 -642 637 0
-21 -642 638 0
-21 642 -637 -638 0
-22 -642 637 0
-22 -642 639 0
-22 642 -637 -639 0
-23 -642 637 0
-23 -642 640 0
-23 642 -637 -640 0
-24 -642 637 0
-24 -642 641 0
-24 642 -637 -641 0
-25 -642 637 0
-25 642 -637 0
-26 -642 637 0
-26 642 -637 0
-27 -642 637 0
-27 642 -637 0
-28 -642 637 0
-28 642 -637 0
-29 -642 637 0
-29 642 -637 0
-30 -642 637 0
-30 642 -637 0
-63 -642 637 0
-63 642 -637 0
-21 -638 643 0
-21 -637 643 0
-21 -643 638 637 0
-22 -643 638 0
-22 643 -638 0
-23 -643 638 0
-23 643 -638 0
-24 -643 638 0
-24 643 -638 0
-25 -643 638 0
-25 -643 639 0
-25 643 -638 -639 0
-26 -643 638 0
-26 -643 640 0
-26 643 -638 -640 0
-27 -643 638 0
-27 -643 641 0
-27 643 -638 -641 0
-28 -643 638 0
-28 643 -638 0
-29 -643 638 0
-29 643 -638 0
-30 -643 638 0
-30 643 -638 0
-63 -643 638 0
-63 643 -638 0
-21 -644 639 0
-21 644 -639 0
-22 -639 644 0
-22 -637 644 0
-22 -644 639 637 0
-23 -644 639 0
-23 644 -639 0
-24 -644 639 0
-24 644 -639 0
-25 -639 644 0
-25 -638 644 0
-25 -644 639 638 0
-26 -644 639 0
-26 644 -639 0
-27 -644 639 0
-27 644 -639 0
-28 -644 639 0
-28 -644 640 0
-28 644 -639 -640 0
-29 -644 639 0
-29 -644 641 0
-29 644 -639 -641 0
-30 -644 639 0
-30 644 -639 0
-63 -644 639 0
-63 644 -639 0
-21 -645 640 0
-21 645 -640 0
-22 -645 640 0
-22 645 -640 0
-23 -640 645 0
-23 -637 645 0
-23 -645 640 637 0
-24 -645 640 0
-24 645 -640 0
-25 -645 640 0
-25 645 -640 0
-26 -640 645 0
-26 -638 645 0
-26 -645 640 638 0
-27 -645 640 0
-27 645 -640 0
-28 -640 645 0
-28 -639 645 0
-28 -645 640 639 0
-29 -645 640 0
-29 645 -640 0
-30 -645 640 0
-30 -645 641 0
-30 645 -640 -641 0
-63 -645 640 0
-63 645 -640 0
-21 -646 641 0
-21 646 -641 0
-22 -646 641 0
-22 646 -641 0
-23 -646 641 0
-23 646 -641 0
-24 -641 646 0
-24 -637 646 0
-24 -646 641 637 0
-25 -646 641 0
-25 646 -641 0
-26 -646 641 0
-26 646 -641 0
-27 -641 646 0
-27 -638 646 0
-27 -646 641 638 0
-28 -646 641 0
-28 646 -641 0
-29 -641 646 0
-29 -639 646 0
-29 -646 641 639 0
-30 -641 646 0
-30 -640 646 0
-30 -646 641 640 0
-63 -646 641 0
-63 646 -641 0
-31 -647 642 0
-31 -647 643 0
-31 647 -642 -643 0
-32 -647 642 0
-32 -647 644 0
-32 647 -642 -644 0
-33 -647 642 0
-33 -647 645 0
-33 647 -642 -645 0
-34 -647 642 0
-34 -647 646 0
-34 647 -642 -646 0
-35 -647 642 0
-35 647 -642 0
-36 -647 642 0
-36 647 -642 0
-37 -647 642 0
-37 647 -642 0
-38 -647 642 0
-38 647 -642 0
-39 -647 642 0
-39 647 -642 0
-40 -647 642 0
-40 647 -642 0
-64 -647 642 0
-64 647 -642 0
-31 -643 648 0
-31 -642 648 0
-31 -648 643 642 0
-32 -648 643 0
-32 648 -643 0
-33 -648 643 0
-33 648 -643 0
-34 -648 643 0
-34 648 -643 0
-35 -648 643 0
-35 -648 644 0
-35 648 -643 -644 0
-36 -648 643 0
-36 -648 645 0
-36 648 -643 -645 0
-37 -648 643 0
-37 -648 646 0
-37 648 -643 -646 0
-38 -648 643 0
-38 648 -643 0
-39 -648 643 0
-39 648 -643 0
-40 -648 643 0
-40 648 -643 0
-64 -648 643 0
-64 648 -643 0
-31 -649 644 0
-31 649 -644 0
-32 -644 649 0
-32 -642 649 0
-32 -649 644 642 0
-33 -649 644 0
-33 649 -644 0
-34 -649 644 0
-34 649 -644 0
-35 -644 649 0
-35 -643 649 0
-35 -649 644 643 0
-36 -649 644 0
-36 649 -644 0
-37 -649 644 0
-37 649 -644 0
-38 -649 644 0
-38 -649 645 0
-38 649 -644 -645 0
-39 -649 644 0
-39 -649 646 0
-39 649 -644 -646 0
-40 -649 644 0
-40 649 -644 0
-64 -649 644 0
-64 649 -644 0
-31 -650 645 0
-31 650 -645 0
-32 -650 645 0
-32 650 -645 0
-33 -645 650 0
-33 -642 650 0
-33 -650 645 642 0
-34 -650 645 0
-34 650 -645 0
-35 -650 645 0
-35 650 -645 0
-36 -645 650 0
-36 -643 650 0
-36 -650 645 643 0
-37 -650 645 0
-37 650 -645 0
-38 -645 650 0
-38 -644 650 0
-38 -650 645 644 0
-39 -650 645 0
-39 650 -645 0
-40 -650 645 0
-40 -650 646 0
-40 650 -645 -646 0
-64 -650 645 0
-64 650 -645 0
-31 -651 646 0
-31 651 -646 0
-32 -651 646 0
-32 651 -646 0
-33 -651 646 0
-33 651 -646 0
-34 -646 651 0
-34 -642 651 0
-34 -651 646 642 0
-35 -651 646 0
-35 651 -646 0
-36 -651 646 0
-36 651 -646 0
-37 -646 651 0
-37 -643 651 0
-37 -651 646 643 0
-38 -651 646 0
-38 651 -646 0
-39 -646 651 0
-39 -644 651 0
-39 -651 646 644 0
-40 -646 651 0
-40 -645 651 0
-40 -651 646 645 0
-64 -651 646 0
-64 651 -646 0
-41 -652 647 0
-41 -652 648 0
-41 652 -647 -648 0
-42 -652 647 0
-42 -652 649 0
-42 652 -647 -649 0
-43 -652 647 0
-43 -652 650 0
-43 652 -647 -650 0
-44 -652 647 0
-44 -652 651 0
-44 652 -647 -651 0
-45 -652 647 0
-45 652 -647 0
-46 -652 647 0
-46 652 -647 0
-47 -652 647 0
-47 652 -647 0
-48 -652 647 0
-48 652 -647 0
-49 -652 647 0
-49 652 -647 0
-50 -652 647 0
-50 652 -647 0
-65 -652 647 0
-65 652 -647 0
-41 -648 653 0
-41 -647 653 0
-41 -653 648 647 0
-42 -653 648 0
-42 653 -648 0
-43 -653 648 0
-43 653 -648 0
-44 -653 648 0
-44 653 -648 0
-45 -653 648 0
-45 -653 649 0
-45 653 -648 -649 0
-46 -653 648 0
-46 -653 650 0
-46 653 -648 -650 0
-47 -653 648 0
-47 -653 651 0
-47 653 -648 -651 0
-48 -653 648 0
-48 653 -648 0
-49 -653 648 0
-49 653 -648 0
-50 -653 648 0
-50 653 -648 0
-65 -653 648 0
-65 653 -648 0
-41 -654 649 0
-41 654 -649 0
-42 -649 654 0
-42 -647 654 0
-42 -654 649 647 0
-43 -654 649 0
-43 654 -649 0
-44 -654 649 0
-44 654 -649 0
-45 -649 654 0
-45 -648 654 0
-45 -654 649 648 0
-46 -654 649 0
-46 654 -649 0
-47 -654 649 0
-47 654 -649 0
-48 -654 649 0
-48 -654 650 0
-48 654 -649 -650 0
-49 -654 649 0
-49 -654 651 0
-49 654 -649 -651 0
-50 -654 649 0
-50 654 -649 0
-65 -654 649 0
-65 654 -649 0
-41 -655 650 0
-41 655 -650 0
-42 -655 650 0
-42 655 -650 0
-43 -650 655 0
-43 -647 655 0
-43 -655 650 647 0
-44 -655 650 0
-44 655 -650 0
-45 -655 650 0
-45 655 -650 0
-46 -650 655 0
-46 -648 655 0
-46 -655 650 648 0
-47 -655 650 0
-47 655 -650 0
-48 -650 655 0
-48 -649 655 0
-48 -655 650 649 0
-49 -655 650 0
-49 655 -650 0
-50 -655 650 0
-50 -655 651 0
-50 655 -650 -651 0
-65 -655 650 0
-65 655 -650 0
-41 -656 651 0
-41 656 -651 0
-42 -656 651 0
-42 656 -651 0
-43 -656 651 0
-43 656 -651 0
-44 -651 656 0
-44 -647 656 0
-44 -656 651 647 0
-45 -656 651 0
-45 656 -651 0
-46 -656 651 0
-46 656 -651 0
-47 -651 656 0
-47 -648 656 0
-47 -656 651 648 0
-48 -656 651 0
-48 656 -651 0
-49 -651 656 0
-49 -649 656 0
-49 -656 651 649 0
-50 -651 656 0
-50 -650 656 0
-50 -656 651 650 0
-65 -656 651 0
-65 656 -651 0
-51 -657 652 0
-51 -657 653 0
-51 657 -652 -653 0
-52 -657 652 0
-52 -657 654 0
-52 657 -652 -654 0
-53 -657 652 0
-53 -657 655 0
-53 657 -652 -655 0
-54 -657 652 0
-54 -657 656 0
-54 657 -652 -656 0
-55 -657 652 0
-55 657 -652 0
-56 -657 652 0
-56 657 -652 0
-57 -657 652 0
-57 657 -652 0
-58 -657 652 0
-58 657 -652 0
-59 -657 652 0
-59 657 -652 0
-60 -657 652 0
-60 657 -652 0
-66 -657 652 0
-66 657 -652 0
-51 -653 658 0
-51 -652 658 0
-51 -658 653 652 0
-52 -658 653 0
-52 658 -653 0
-53 -658 653 0
-53 658 -653 0
-54 -658 653 0
-54 658 -653 0
-55 -658 653 0
-55 -658 654 0
-55 658 -653 -654 0
-56 -658 653 0
-56 -658 655 0
-56 658 -653 -655 0
-57 -658 653 0
-57 -658 656 0
-57 658 -653 -656 0
-58 -658 653 0
-58 658 -653 0
-59 -658 653 0
-59 658 -653 0
-60 -658 653 0
-60 658 -653 0
-66 -658 653 0
-66 658 -653 0
-51 -659 654 0
-51 659 -654 0
-52 -654 659 0
-52 -652 659 0
-52 -659 654 652 0
-53 -659 654 0
-53 659 -654 0
-54 -659 654 0
-54 659 -654 0
-55 -654 659 0
-55 -653 659 0
-55 -659 654 653 0
-56 -659 654 0
-56 659 -654 0
-57 -659 654 0
-57 659 -654 0
-58 -659 654 0
-58 -659 655 0
-58 659 -654 -655 0
-59 -659 654 0
-59 -659 656 0
-59 659 -654 -656 0
-60 -659 654 0
-60 659 -654 0
-66 -659 654 0
-66 659 -654 0
-51 -660 655 0
-51 660 -655 0
-52 -660 655 0
-52 660 -655 0
-53 -655 660 0
-53 -652 660 0
-53 -660 655 652 0
-54 -660 655 0
-54 660 -655 0
-55 -660 655 0
-55 660 -655 0
-56 -655 660 0
-56 -653 660 0
-56 -660 655 653 0
-57 -660 655 0
-57 660 -655 0
-58 -655 660 0
-58 -654 660 0
-58 -660 655 654 0
-59 -660 655 0
-59 660 -655 0
-60 -660 655 0
-60 -660 656 0
-60 660 -655 -656 0
-66 -660 655 0
-66 660 -655 0
-51 -661 656 0
-51 661 -656 0
-52 -661 656 0
-52 661 -656 0
-53 -661 656 0
-53 661 -656 0
-54 -656 661 0
-54 -652 661 0
-54 -661 656 652 0
-55 -661 656 0
-55 661 -656 0
-56 -661 656 0
-56 661 -656 0
-57 -656 661 0
-57 -653 661 0
-57 -661 656 653 0
-58 -661 656 0
-58 661 -656 0
-59 -656 661 0
-59 -654 661 0
-59 -661 656 654 0
-60 -656 661 0
-60 -655 661 0
-60 -661 656 655 0
-66 -661 656 0
-66 661 -656 0
662 0
-1 -667 662 0
-1 -667 663 0
-1 667 -662 -663 0
-2 -667 662 0
-2 -667 664 0
-2 667 -662 -664 0
-3 -667 662 0
-3 -667 665 0
-3 667 -662 -665 0
-4 -667 662 0
-4 -667 666 0
-4 667 -662 -666 0
-5 -667 662 0
-5 667 -662 0
-6 -667 662 0
-6 667 -662 0
-7 -667 662 0
-7 667 -662 0
-8 -667 662 0
-8 667 -662 0
-9 -667 662 0
-9 667 -662 0
-10 -667 662 0
-10 667 -662 0
-61 -667 662 0
-61 667 -662 0
-663 0
-1 -663 668 0
-1 -662 668 0
-1 -668 663 662 0
-2 -668 663 0
-2 668 -663 0
-3 -668 663 0
-3 668 -663 0
-4 -668 663 0
-4 668 -663 0
-5 -668 663 0
-5 -668 664 0
-5 668 -663 -664 0
-6 -668 663 0
-6 -668 665 0
-6 668 -663 -665 0
-7 -668 663 0
-7 -668 666 0
-7 668 -663 -666 0
-8 -668 663 0
-8 668 -663 0
-9 -668 663 0
-9 668 -663 0
-10 -668 663 0
-10 668 -663 0
-61 -668 663 0
-61 668 -663 0
664 0
-1 -669 664 0
-1 669 -664 0
-2 -664 669 0
-2 -662 669 0
-2 -669 664 662 0
-3 -669 664 0
-3 669 -664 0
-4 -669 664 0
-4 669 -664 0
-5 -664 669 0
-5 -663 669 0
-5 -669 664 663 0
-6 -669 664 0
-6 669 -664 0
-7 -669 664 0
-7 669 -664 0
-8 -669 664 0
-8 -669 665 0
-8 669 -664 -665 0
-9 -669 664 0
-9 -669 666 0
-9 669 -664 -666 0
-10 -669 664 0
-10 669 -664 0
-61 -669 664 0
-61 669 -664 0
665 0
-1 -670 665 0
-1 670 -665 0
-2 -670 665 0
-2 670 -665 0
-3 -665 670 0
-3 -662 670 0
-3 -670 665 662 0
-4 -670 665 0
-4 670 -665 0
-5 -670 665 0
-5 670 -665 0
-6 -665 670 0
-6 -663 670 0
-6 -670 665 663 0
-7 -670 665 0
-7 670 -665 0
-8 -665 670 0
-8 -664 670 0
-8 -670 665 664 0
-9 -670 665 0
-9 670 -665 0
-10 -670 665 0
-10 -670 666 0
-10 670 -665 -666 0
-61 -670 665 0
-61 670 -665 0
-666 0
-1 -671 666 0
-1 671 -666 0
-2 -671 666 0
-2 671 -666 0
-3 -671 666 0
-3 671 -666 0
-4 -666 671 0
-4 -662 671 0
-4 -671 666 662 0
-5 -671 666 0
-5 671 -666 0
-6 -671 666 0
-6 671 -666 0
-7 -666 671 0
-7 -663 671 0
-7 -671 666 663 0
-8 -671 666 0
-8 671 -666 0
-9 -666 671 0
-9 -664 671 0
-9 -671 666 664 0
-10 -666 671 0
-10 -665 671 0
-10 -671 666 665 0
-61 -671 666 0
-61 671 -666 0
-11 -672 667 0
-11 -672 668 0
-11 672 -667 -668 0
-12 -672 667 0
-12 -672 669 0
-12 672 -667 -669 0
-13 -672 667 0
-13 -672 670 0
-13 672 -667 -670 0
-14 -672 667 0
-14 -672 671 0
-14 672 -667 -671 0
-15 -672 667 0
-15 672 -667 0
-16 -672 667 0
-16 672 -667 0
-17 -672 667 0
-17 672 -667 0
-18 -672 667 0
-18 672 -667 0
-19 -672 667 0
-19 672 -667 0
-20 -672 667 0
-20 672 -667 0
-62 -672 667 0
-62 672 -667 0
-11 -668 673 0
-11 -667 673 0
-11 -673 668 667 0
-12 -673 668 0
-12 673 -668 0
-13 -673 668 0
-13 673 -668 0
-14 -673 668 0
-14 673 -668 0
-15 -673 668 0
-15 -673 669 0
-15 673 -668 -669 0
-16 -673 668 0
-16 -673 670 0
-16 673 -668 -670 0
-17 -673 668 0
-17 -673 671 0
-17 673 -668 -671 0
-18 -673 668 0
-18 673 -668 0
-19 -673 668 0
-19 673 -668 0
-20 -673 668 0
-20 673 -668 0
-62 -673 668 0
-62 673 -668 0
-11 -674 669 0
-11 674 -669 0
-12 -669 674 0
-12 -667 674 0
-12 -674 669 667 0
-13 -674 669 0
-13 674 -669 0
-14 -674 669 0
-14 674 -669 0
-15 -669 674 0
-15 -668 674 0
-15 -674 669 668 0
-16 -674 669 0
-16 674 -669 0
-17 -674 669 0
-17 674 -669 0
-18 -674 669 0
-18 -674 670 0
-18 674 -669 -670 0
-19 -674 669 0
-19 -674 671 0
-19 674 -669 -671 0
-20 -674 669 0
-20 674 -669 0
-62 -674 669 0
-62 674 -669 0
-11 -675 670 0
-11 675 -670 0
-12 -675 670 0
-12 675 -670 0
-13 -670 675 0
-13 -667 675 0
-13 -675 670 667 0
-14 -675 670 0
-14 675 -670 0
-15 -675 670 0
-15 675 -670 0
-16 -670 675 0
-16 -668 675 0
-16 -675 670 668 0
-17 -675 670 0
-17 675 -670 0
-18 -670 675 0
-18 -669 675 0
-18 -675 670 669 0
-19 -675 670 0
-19 675 -670 0
-20 -675 670 0
-20 -675 671 0
-20 675 -670 -671 0
-62 -675 670 0
-62 675 -670 0
-11 -676 671 0
-11 676 -671 0
-12 -676 671 0
-12 676 -671 0
-13 -676 671 0
-13 676 -671 0
-14 -671 676 0
-14 -667 676 0
-14 -676 671 667 0
-15 -676 671 0
-15 676 -671 0
-16 -676 671 0
-16 676 -671 0
-17 -671 676 0
-17 -668 676 0
-17 -676 671 668 0
-18 -676 671 0
-18 676 -671 0
-19 -671 676 0
-19 -669 676 0
-19 -676 671 669 0
-20 -671 676 0
-20 -670 676 0
-20 -676 671 670 0
-62 -676 671 0
-62 676 -671 0
-21 -677 672 0
-21 -677 673 0
-21 677 -672 -673 0
-22 -677 672 0
-22 -677 674 0
-22 677 -672 -674 0
-23 -677 672 0
-23 -677 675 0
-23 677 -672 -675 0
-24 -677 672 0
-24 -677 676 0
-24 677 -672 -676 0
-25 -677 672 0
-25 677 -672 0
-26 -677 672 0
-26 677 -672 0
-27 -677 672 0
-27 677 -672 0
-28 -677 672 0
-28 677 -672 0
-29 -677 672 0
-29 677 -672 0
-30 -677 672 0
-30 677 -672 0
-63 -677 672 0
-63 677 -672 0
-21 -673 678 0
-21 -672 678 0
-21 -678 673 672 0
-22 -678 673 0
-22 678 -673 0
-23 -678 673 0
-23 678 -673 0
-24 -678 673 0
-24 678 -673 0
-25 -678 673 0
-25 -678 674 0
-25 678 -673 -674 0
-26 -678 673 0
-26 -678 675 0
-26 678 -673 -675 0
-27 -678 673 0
-27 -678 676 0
-27 678 -673 -676 0
-28 -678 673 0
-28 678 -673 0
-29 -678 673 0
-29 678 -673 0
-30 -678 673 0
-30 678 -673 0
-63 -678 673 0
-63 678 -673 0
-21 -679 674 0
-21 679 -674 0
-22 -674 679 0
-22 -672 679 0
-22 -679 674 672 0
-23 -679 674 0
-23 679 -674 0
-24 -679 674 0
-24 679 -674 0
-25 -674 679 0
-25 -673 679 0
-25 -679 674 673 0
-26 -679 674 0
-26 679 -674 0
-27 -679 674 0
-27 679 -674 0
-28 -679 674 0
-28 -679 675 0
-28 679 -674 -675 0
-29 -679 674 0
-29 -679 676 0
-29 679 -674 -676 0
-30 -679 674 0
-30 679 -674 0
-63 -679 674 0
-63 679 -674 0
-21 -680 675 0
-21 680 -675 0
-22 -680 675 0
-22 680 -675 0
-23 -675 680 0
-23 -672 680 0
-23 -680 675 672 0
-24 -680 675 0
-24 680 -675 0
-25 -680 675 0
-25 680 -675 0
-26 -675 680 0
-26 -673 680 0
-26 -680 675 673 0
-27 -680 675 0
-27 680 -675 0
-28 -675 680 0
-28 -674 680 0
-28 -680 675 674 0
-29 -680 675 0
-29 680 -675 0
-30 -680 675 0
-30 -680 676 0
-30 680 -675 -676 0
-63 -680 675 0
-63 680 -675 0
-21 -681 676 0
-21 681 -676 0
-22 -681 676 0
-22 681 -676 0
-23 -681 676 0
-23 681 -676 0
-24 -676 681 0
-24 -672 681 0
-24 -681 676 672 0
-25 -681 676 0
-25 681 -676 0
-26 -681 676 0
-26 681 -676 0
-27 -676 681 0
-27 -673 681 0
-27 -681 676 673 0
-28 -681 676 0
-28 681 -676 0
-29 -676 681 0
-29 -674 681 0
-29 -681 676 674 0
-30 -676 681 0
-30 -675 681 0
-30 -681 676 675 0
-63 -681 676 0
-63 681 -676 0
-31 -682 677 0
-31 -682 678 0
-31 682 -677 -678 0
-32 -682 677 0
-32 -682 679 0
-32 682 -677 -679 0
-33 -682 677 0
-33 -682 680 0
-33 682 -677 -680 0
-34 -682 677 0
-34 -682 681 0
-34 682 -677 -681 0
-35 -682 677 0
-35 682 -677 0
-36 -682 677 0
-36 682 -677 0
-37 -682 677 0
-37 682 -677 0
-38 -682 677 0
-38 682 -677 0
-39 -682 677 0
-39 682 -677 0
-40 -682 677 0
-40 682 -677 0
-64 -682 677 0
-64 682 -677 0
-31 -678 683 0
-31 -677 683 0
-31 -683 678 677 0
-32 -683 678 0
-32 683 -678 0
-33 -683 678 0
-33 683 -678 0
-34 -683 678 0
-34 683 -678 0
-35 -683 678 0
-35 -683 679 0
-35 683 -678 -679 0
-36 -683 678 0
-36 -683 680 0
-36 683 -678 -680 0
-37 -683 678 0
-37 -683 681 0
-37 683 -678 -681 0
-38 -683 678 0
-38 683 -678 0
-39 -683 678 0
-39 683 -678 0
-40 -683 678 0
-40 683 -678 0
-64 -683 678 0
-64 683 -678 0
-31 -684 679 0
-31 684 -679 0
-32 -679 684 0
-32 -677 684 0
-32 -684 679 677 0
-33 -684 679 0
-33 684 -679 0
-34 -684 679 0
-34 684 -679 0
-35 -679 684 0
-35 -678 684 0
-35 -684 679 678 0
-36 -684 679 0
-36 684 -679 0
-37 -684 679 0
-37 684 -679 0
-38 -684 679 0
-38 -684 680 0
-38 684 -679 -680 0
-39 -684 679 0
-39 -684 681 0
-39 684 -679 -681 0
-40 -684 679 0
-40 684 -679 0
-64 -684 679 0
-64 684 -679 0
-31 -685 680 0
-31 685 -680 0
-32 -685 680 0
-32 685 -680 0
-33 -680 685 0
-33 -677 685 0
-33 -685 680 677 0
-34 -685 680 0
-34 685 -680 0
-35 -685 680 0
-35 685 -680 0
-36 -680 685 0
-36 -678 685 0
-36 -685 680 678 0
-37 -685 680 0
-37 685 -680 0
-38 -680 685 0
-38 -679 685 0
-38 -685 680 679 0
-39 -685 680 0
-39 685 -680 0
-40 -685 680 0
-40 -685 681 0
-40 685 -680 -681 0
-64 -685 680 0
-64 685 -680 0
-31 -686 681 0
-31 686 -681 0
-32 -686 681 0
-32 686 -681 0
-33 -686 681 0
-33 686 -681 0
-34 -681 686 0
-34 -677 686 0
-34 -686 681 677 0
-35 -686 681 0
-35 686 -681 0
-36 -686 681 0
-36 686 -681 0
-37 -681 686 0
-37 -678 686 0
-37 -686 681 678 0
-38 -686 681 0
-38 686 -681 0
-39 -681 686 0
-39 -679 686 0
-39 -686 681 679 0
-40 -681 686 0
-40 -680 686 0
-40 -686 681 680 0
-64 -686 681 0
-64 686 -681 0
-41 -687 682 0
-41 -687 683 0
-41 687 -682 -683 0
-42 -687 682 0
-42 -687 684 0
-42 687 -682 -684 0
-43 -687 682 0
-43 -687 685 0
-43 687 -682 -685 0
-44 -687 682 0
-44 -687 686 0
-44 687 -682 -686 0
-45 -687 682 0
-45 687 -682 0
-46 -687 682 0
-46 687 -682 0
-47 -687 682 0
-47 687 -682 0
-48 -687 682 0
-48 687 -682 0
-49 -687 682 0
-49 687 -682 0
-50 -687 682 0
-50 687 -682 0
-65 -687 682 0
-65 687 -682 0
-41 -683 688 0
-41 -682 688 0
-41 -688 683 682 0
-42 -688 683 0
-42 688 -683 0
-43 -688 683 0
-43 688 -683 0
-44 -688 683 0
-44 688 -683 0
-45 -688 683 0
-45 -688 684 0
-45 688 -683 -684 0
-46 -688 683 0
-46 -688 685 0
-46 688 -683 -685 0
-47 -688 683 0
-47 -688 686 0
-47 688 -683 -686 0
-48 -688 683 0
-48 688 -683 0
-49 -688 683 0
-49 688 -683 0
-50 -688 683 0
-50 688 -683 0
-65 -688 683 0
-65 688 -683 0
-41 -689 684 0
-41 689 -684 0
-42 -684 689 0
-42 -682 689 0
-42 -689 684 682 0
-43 -689 684 0
-43 689 -684 0
-44 -689 684 0
-44 689 -684 0
-45 -684 689 0
-45 -683 689 0
-45 -689 684 683 0
-46 -689 684 0
-46 689 -684 0
-47 -689 684 0
-47 689 -684 0
-48 -689 684 0
-48 -689 685 0
-48 689 -684 -685 0
-49 -689 684 0
-49 -689 686 0
-49 689 -684 -686 0
-50 -689 684 0
-50 689 -684 0
-65 -689 684 0
-65 689 -684 0
-41 -690 685 0
-41 690 -685 0
-42 -690 685 0
-42 690 -685 0
-43 -685 690 0
-43 -682 690 0
-43 -690 685 682 0
-44 -690 685 0
-44 690 -685 0
-45 -690 685 0
-45 690 -685 0
-46 -685 690 0
-46 -683 690 0
-46 -690 685 683 0
-47 -690 685 0
-47 690 -685 0
-48 -685 690 0
-48 -684 690 0
-48 -690 685 684 0
-49 -690 685 0
-49 690 -685 0
-50 -690 685 0
-50 -690 686 0
-50 690 -685 -686 0
-65 -690 685 0
-65 690 -685 0
-41 -691 686 0
-41 691 -686 0
-42 -691 686 0
-42 691 -686 0
-43 -691 686 0
-43 691 -686 0
-44 -686 691 0
-44 -682 691 0
-44 -691 686 682 0
-45 -691 686 0
-45 691 -686 0
-46 -691 686 0
-46 691 -686 0
-47 -686 691 0
-47 -683 691 0
-47 -691 686 683 0
-48 -691 686 0
-48 691 -686 0
-49 -686 691 0
-49 -684 691 0
-49 -691 686 684 0
-50 -686 691 0
-50 -685 691 0
-50 -691 686 685 0
-65 -691 686 0
-65 691 -686 0
-51 -692 687 0
-51 -692 688 0
-51 692 -687 -688 0
-52 -692 687 0
-52 -692 689 0
-52 692 -687 -689 0
-53 -692 687 0
-53 -692 690 0
-53 692 -687 -690 0
-54 -692 687 0
-54 -692 691 0
-54 692 -687 -691 0
-55 -692 687 0
-55 692 -687 0
-56 -692 687 0
-56 692 -687 0
-57 -692 687 0
-57 692 -687 0
-58 -692 687 0
-58 692 -687 0
-59 -692 687 0
-59 692 -687 0
-60 -692 687 0
-60 692 -687 0
-66 -692 687 0
-66 692 -687 0
-51 -688 693 0
-51 -687 693 0
-51 -693 688 687 0
-52 -693 688 0
-52 693 -688 0
-53 -693 688 0
-53 693 -688 0
-54 -693 688 0
-54 693 -688 0
-55 -693 688 0
-55 -693 689 0
-55 693 -688 -689 0
-56 -693 688 0
-56 -693 690 0
-56 693 -688 -690 0
-57 -693 688 0
-57 -693 691 0
-57 693 -688 -691 0
-58 -693 688 0
-58 693 -688 0
-59 -693 688 0
-59 693 -688 0
-60 -693 688 0
-60 693 -688 0
-66 -693 688 0
-66 693 -688 0
-51 -694 689 0
-51 694 -689 0
-52 -689 694 0
-52 -687 694 0
-52 -694 689 687 0
-53 -694 689 0
-53 694 -689 0
-54 -694 689 0
-54 694 -689 0
-55 -689 694 0
-55 -688 694 0
-55 -694 689 688 0
-56 -694 689 0
-56 694 -689 0
-57 -694 689 0
-57 694 -689 0
-58 -694 689 0
-58 -694 690 0
-58 694 -689 -690 0
-59 -694 689 0
-59 -694 691 0
-59 694 -689 -691 0
-60 -694 689 0
-60 694 -689 0
-66 -694 689 0
-66 694 -689 0
-51 -695 690 0
-51 695 -690 0
-52 -695 690 0
-52 695 -690 0
-53 -690 695 0
-53 -687 695 0
-53 -695 690 687 0
-54 -695 690 0
-54 695 -690 0
-55 -695 690 0
-55 695 -690 0
-56 -690 695 0
-56 -688 695 0
-56 -695 690 688 0
-57 -695 690 0
-57 695 -690 0
-58 -690 695 0
-58 -689 695 0
-58 -695 690 689 0
-59 -695 690 0
-59 695 -690 0
-60 -695 690 0
-60 -695 691 0
-60 695 -690 -691 0
-66 -695 690 0
-66 695 -690 0
-51 -696 691 0
-51 696 -691 0
-52 -696 691 0
-52 696 -691 0
-53 -696 691 0
-53 696 -691 0
-54 -691 696 0
-54 -687 696 0
-54 -696 691 687 0
-55 -696 691 0
-55 696 -691 0
-56 -696 691 0
-56 696 -691 0
-57 -691 696 0
-57 -688 696 0
-57 -696 691 688 0
-58 -696 691 0
-58 696 -691 0
-59 -691 696 0
-59 -689 696 0
-59 -696 691 689 0
-60 -691 696 0
-60 -690 696 0
-60 -696 691 690 0
-66 -696 691 0
-66 696 -691 0
697 0
-1 -702 697 0
-1 -702 698 0
-1 702 -697 -698 0
-2 -702 697 0
-2 -702 699 0
-2 702 -697 -699 0
-3 -702 697 0
-3 -702 700 0
-3 702 -697 -700 0
-4 -702 697 0
-4 -702 701 0
-4 702 -697 -701 0
-5 -702 697 0
-5 702 -697 0
-6 -702 697 0
-6 702 -697 0
-7 -702 697 0
-7 702 -697 0
-8 -702 697 0
-8 702 -697 0
-9 -702 697 0
-9 702 -697 0
-10 -702 697 0
-10 702 -697 0
-61 -702 697 0
-61 702 -697 0
-698 0
-1 -698 703 0
-1 -697 703 0
-1 -703 698 697 0
-2 -703 698 0
-2 703 -698 0
-3 -703 698 0
-3 703 -698 0
-4 -703 698 0
-4 703 -698 0
-5 -703 698 0
-5 -703 699 0
-5 703 -698 -699 0
-6 -703 698 0
-6 -703 700 0
-6 703 -698 -700 0
-7 -703 698 0
-7 -703 701 0
-7 703 -698 -701 0
-8 -703 698 0
-8 703 -698 0
-9 -703 698 0
-9 703 -698 0
-10 -703 698 0
-10 703 -698 0
-61 -703 698 0
-61 703 -698 0
699 0
-1 -704 699 0
-1 704 -699 0
-2 -699 704 0
-2 -697 704 0
-2 -704 699 697 0
-3 -704 699 0
-3 704 -699 0
-4 -704 699 0
-4 704 -699 0
-5 -699 704 0
-5 -698 704 0
-5 -704 699 698 0
-6 -704 699 0
-6 704 -699 0
-7 -704 699 0
-7 704 -699 0
-8 -704 699 0
-8 -704 700 0
-8 704 -699 -700 0
-9 -704 699 0
-9 -704 701 0
-9 704 -699 -701 0
-10 -704 699 0
-10 704 -699 0
-61 -704 699 0
-61 704 -699 0
700 0
-1 -705 700 0
-1 705 -700 0
-2 -705 700 0
-2 705 -700 0
-3 -700 705 0
-3 -697 705 0
-3 -705 700 697 0
-4 -705 700 0
-4 705 -700 0
-5 -705 700 0
-5 705 -700 0
-6 -700 705 0
-6 -698 705 0
-6 -705 700 698 0
-7 -705 700 0
-7 705 -700 0
-8 -700 705 0
-8 -699 705 0
-8 -705 700 699 0
-9 -705 700 0
-9 705 -700 0
-10 -705 700 0
-10 -705 701 0
-10 705 -700 -701 0
-61 -705 700 0
-61 705 -700 0
701 0
-1 -706 701 0
-1 706 -701 0
-2 -706 701 0
-2 706 -701 0
-3 -706 701 0
-3 706 -701 0
-4 -701 706 0
-4 -697 706 0
-4 -706 701 697 0
-5 -706 701 0
-5 706 -701 0
-6 -706 701 0
-6 706 -701 0
-7 -701 706 0
-7 -698 706 0
-7 -706 701 698 0
-8 -706 701 0
-8 706 -701 0
-9 -701 706 0
-9 -699 706 0
-9 -706 701 699 0
-10 -701 706 0
-10 -700 706 0
-10 -706 701 700 0
-61 -706 701 0
-61 706 -701 0
-11 -707 702 0
-11 -707 703 0
-11 707 -702 -703 0
-12 -707 702 0
-12 -707 704 0
-12 707 -702 -704 0
-13 -707 702 0
-13 -707 705 0
-13 707 -702 -705 0
-14 -707 702 0
-14 -707 706 0
-14 707 -702 -706 0
-15 -707 702 0
-15 707 -702 0
-16 -707 702 0
-16 707 -702 0
-17 -707 702 0
-17 707 -702 0
-18 -707 702 0
-18 707 -702 0
-19 -707 702 0
-19 707 -702 0
-20 -707 702 0
-20 707 -702 0
-62 -707 702 0
-62 707 -702 0
-11 -703 708 0
-11 -702 708 0
-11 -708 703 702 0
-12 -708 703 0
-12 708 -703 0
-13 -708 703 0
-13 708 -703 0
-14 -708 703 0
-14 708 -703 0
-15 -708 703 0
-15 -708 704 0
-15 708 -703 -704 0
-16 -708 703 0
-16 -708 705 0
-16 708 -703 -705 0
-17 -708 703 0
-17 -708 706 0
-17 708 -703 -706 0
-18 -708 703 0
-18 708 -703 0
-19 -708 703 0
-19 708 -703 0
-20 -708 703 0
-20 708 -703 0
-62 -708 703 0
-62 708 -703 0
-11 -709 704 0
-11 709 -704 0
-12 -704 709 0
-12 -702 709 0
-12 -709 704 702 0
-13 -709 704 0
-13 709 -704 0
-14 -709 704 0
-14 709 -704 0
-15 -704 709 0
-15 -703 709 0
-15 -709 704 703 0
-16 -709 704 0
-16 709 -704 0
-17 -709 704 0
-17 709 -704 0
-18 -709 704 0
-18 -709 705 0
-18 709 -704 -705 0
-19 -709 704 0
-19 -709 706 0
-19 709 -704 -706 0
-20 -709 704 0
-20 709 -704 0
-62 -709 704 0
-62 709 -704 0
-11 -710 705 0
-11 710 -705 0
-12 -710 705 0
-12 710 -705 0
-13 -705 710 0
-13 -702 710 0
-13 -710 705 702 0
-14 -710 705 0
-14 710 -705 0
-15 -710 705 0
-15 710 -705 0
-16 -705 710 0
-16 -703 710 0
-16 -710 705 703 0
-17 -710 705 0
-17 710 -705 0
-18 -705 710 0
-18 -704 710 0
-18 -710 705 704 0
-19 -710 705 0
-19 710 -705 0
-20 -710 705 0
-20 -710 706 0
-20 710 -705 -706 0
-62 -710 705 0
-62 710 -705 0
-11 -711 706 0
-11 711 -706 0
-12 -711 706 0
-12 711 -706 0
-13 -711 706 0
-13 711 -706 0
-14 -706 711 0
-14 -702 711 0
-14 -711 706 702 0
-15 -711 706 0
-15 711 -706 0
-16 -711 706 0
-16 711 -706 0
-17 -706 711 0
-17 -703 711 0
-17 -711 706 703 0
-18 -711 706 0
-18 711 -706 0
-19 -706 711 0
-19 -704 711 0
-19 -711 706 704 0
-20 -706 711 0
-20 -705 711 0
-20 -711 706 705 0
-62 -711 706 0
-62 711 -706 0
-21 -712 707 0
-21 -712 708 0
-21 712 -707 -708 0
-22 -712 707 0
-22 -712 709 0
-22 712 -707 -709 0
-23 -712 707 0
-23 -712 710 0
-23 712 -707 -710 0
-24 -712 707 0
-24 -712 711 0
-24 712 -707 -711 0
-25 -712 707 0
-25 712 -707 0
-26 -712 707 0
-26 712 -707 0
-27 -712 707 0
-27 712 -707 0
-28 -712 707 0
-28 712 -707 0
-29 -712 707 0
-29 712 -707 0
-30 -712 707 0
-30 712 -707 0
-63 -712 707 0
-63 712 -707 0
-21 -708 713 0
-21 -707 713 0
-21 -713 708 707 0
-22 -713 708 0
-22 713 -708 0
-23 -713 708 0
-23 713 -708 0
-24 -713 708 0
-24 713 -708 0
-25 -713 708 0
-25 -713 709 0
-25 713 -708 -709 0
-26 -713 708 0
-26 -713 710 0
-26 713 -708 -710 0
-27 -713 708 0
-27 -713 711 0
-27 713 -708 -711 0
-28 -713 708 0
-28 713 -708 0
-29 -713 708 0
-29 713 -708 0
-30 -713 708 0
-30 713 -708 0
-63 -713 708 0
-63 713 -708 0
-21 -714 709 0
-21 714 -709 0
-22 -709 714 0
-22 -707 714 0
-22 -714 709 707 0
-23 -714 709 0
-23 714 -709 0
-24 -714 709 0
-24 714 -709 0
-25 -709 714 0
-25 -708 714 0
-25 -714 709 708 0
-26 -714 709 0
-26 714 -709 0
-27 -714 709 0
-27 714 -709 0
-28 -714 709 0
-28 -714 710 0
-28 714 -709 -710 0
-29 -714 709 0
-29 -714 711 0
-29 714 -709 -711 0
-30 -714 709 0
-30 714 -709 0
-63 -714 709 0
-63 714 -709 0
-21 -715 710 0
-21 715 -710 0
-22 -715 710 0
-22 715 -710 0
-23 -710 715 0
-23 -707 715 0
-23 -715 710 707 0
-24 -715 710 0
-24 715 -710 0
-25 -715 710 0
-25 715 -710 0
-26 -710 715 0
-26 -708 715 0
-26 -715 710 708 0
-27 -715 710 0
-27 715 -710 0
-28 -710 715 0
-28 -709 715 0
-28 -715 710 709 0
-29 -715 710 0
-29 715 -710 0
-30 -715 710 0
-30 -715 711 0
-30 715 -710 -711 0
-63 -715 710 0
-63 715 -710 0
-21 -716 711 0
-21 716 -711 0
-22 -716 711 0
-22 716 -711 0
-23 -716 711 0
-23 716 -711 0
-24 -711 716 0
-24 -707 716 0
-24 -716 711 707 0
-25 -716 711 0
-25 716 -711 0
-26 -716 711 0
-26 716 -711 0
-27 -711 716 0
-27 -708 716 0
-27 -716 711 708 0
-28 -716 711 0
-28 716 -711 0
-29 -711 716 0
-29 -709 716 0
-29 -716 711 709 0
-30 -711 716 0
-30 -710 716 0
-30 -716 711 710 0
-63 -716 711 0
-63 716 -711 0
-31 -717 712 0
-31 -717 713 0
-31 717 -712 -713 0
-32 -717 712 0
-32 -717 714 0
-32 717 -712 -714 0
-33 -717 712 0
-33 -717 715 0
-33 717 -712 -715 0
-34 -717 712 0
-34 -717 716 0
-34 717 -712 -716 0
-35 -717 712 0
-35 717 -712 0
-36 -717 712 0
-36 717 -712 0
-37 -717 712 0
-37 717 -712 0
-38 -717 712 0
-38 717 -712 0
-39 -717 712 0
-39 717 -712 0
-40 -717 712 0
-40 717 -712 0
-64 -717 712 0
-64 717 -712 0
-31 -713 718 0
-31 -712 718 0
-31 -718 713 712 0
-32 -718 713 0
-32 718 -713 0
-33 -718 713 0
-33 718 -713 0
-34 -718 713 0
-34 718 -713 0
-35 -718 713 0
-35 -718 714 0
-35 718 -713 -714 0
-36 -718 713 0
-36 -718 715 0
-36 718 -713 -715 0
-37 -718 713 0
-37 -718 716 0
-37 718 -713 -716 0
-38 -718 713 0
-38 718 -713 0
-39 -718 713 0
-39 718 -713 0
-40 -718 713 0
-40 718 -713 0
-64 -718 713 0
-64 718 -713 0
-31 -719 714 0
-31 719 -714 0
-32 -714 719 0
-32 -712 719 0
-32 -719 714 712 0
-33 -719 714 0
-33 719 -714 0
-34 -719 714 0
-34 719 -714 0
-35 -714 719 0
-35 -713 719 0
-35 -719 714 713 0
-36 -719 714 0
-36 719 -714 0
-37 -719 714 0
-37 719 -714 0
-38 -719 714 0
-38 -719 715 0
-38 719 -714 -715 0
-39 -719 714 0
-39 -719 716 0
-39 719 -714 -716 0
-40 -719 714 0
-40 719 -714 0
-64 -719 714 0
-64 719 -714 0
-31 -720 715 0
-31 720 -715 0
-32 -720 715 0
-32 720 -715 0
-33 -715 720 0
-33 -712 720 0
-33 -720 715 712 0
-34 -720 715 0
-34 720 -715 0
-35 -720 715 0
-35 720 -715 0
-36 -715 720 0
-36 -713 720 0
-36 -720 715 713 0
-37 -720 715 0
-37 720 -715 0
-38 -715 720 0
-38 -714 720 0
-38 -720 715 714 0
-39 -720 715 0
-39 720 -715 0
-40 -720 715 0
-40 -720 716 0
-40 720 -715 -716 0
-64 -720 715 0
-64 720 -715 0
-31 -721 716 0
-31 721 -716 0
-32 -721 716 0
-32 721 -716 0
-33 -721 716 0
-33 721 -716 0
-34 -716 721 0
-34 -712 721 0
-34 -721 716 712 0
-35 -721 716 0
-35 721 -716 0
-36 -721 716 0
-36 721 -716 0
-37 -716 721 0
-37 -713 721 0
-37 -721 716 713 0
-38 -721 716 0
-38 721 -716 0
-39 -716 721 0
-39 -714 721 0
-39 -721 716 714 0
-40 -716 721 0
-40 -715 721 0
-40 -721 716 715 0
-64 -721 716 0
-64 721 -716 0
-41 -722 717 0
-41 -722 718 0
-41 722 -717 -718 0
-42 -722 717 0
-42 -722 719 0
-42 722 -717 -719 0
-43 -722 717 0
-43 -722 720 0
-43 722 -717 -720 0
-44 -722 717 0
-44 -722 721 0
-44 722 -717 -721 0
-45 -722 717 0
-45 722 -717 0
-46 -722 717 0
-46 722 -717 0
-47 -722 717 0
-47 722 -717 0
-48 -722 717 0
-48 722 -717 0
-49 -722 717 0
-49 722 -717 0
-50 -722 717 0
-50 722 -717 0
-65 -722 717 0
-65 722 -717 0
-41 -718 723 0
-41 -717 723 0
-41 -723 718 717 0
-42 -723 718 0
-42 723 -718 0
-43 -723 718 0
-43 723 -718 0
-44 -723 718 0
-44 723 -718 0
-45 -723 718 0
-45 -723 719 0
-45 723 -718 -719 0
-46 -723 718 0
-46 -723 720 0
-46 723 -718 -720 0
-47 -723 718 0
-47 -723 721 0
-47 723 -718 -721 0
-48 -723 718 0
-48 723 -718 0
-49 -723 718 0
-49 723 -718 0
-50 -723 718 0
-50 723 -718 0
-65 -723 718 0
-65 723 -718 0
-41 -724 719 0
-41 724 -719 0
-42 -719 724 0
-42 -717 724 0
-42 -724 719 717 0
-43 -724 719 0
-43 724 -719 0
-44 -724 719 0
-44 724 -719 0
-45 -719 724 0
-45 -718 724 0
-45 -724 719 718 0
-46 -724 719 0
-46 724 -719 0
-47 -724 719 0
-47 724 -719 0
-48 -724 719 0
-48 -724 720 0
-48 724 -719 -720 0
-49 -724 719 0
-49 -724 721 0
-49 724 -719 -721 0
-50 -724 719 0
-50 724 -719 0
-65 -724 719 0
-65 724 -719 0
-41 -725 720 0
-41 725 -720 0
-42 -725 720 0
-42 725 -720 0
-43 -720 725 0
-43 -717 725 0
-43 -725 720 717 0
-44 -725 720 0
-44 725 -720 0
-45 -725 720 0
-45 725 -720 0
-46 -720 725 0
-46 -718 725 0
-46 -725 720 718 0
-47 -725 720 0
-47 725 -720 0
-48 -720 725 0
-48 -719 725 0
-48 -725 720 719 0
-49 -725 720 0
-49 725 -720 0
-50 -725 720 0
-50 -725 721 0
-50 725 -720 -721 0
-65 -725 720 0
-65 725 -720 0
-41 -726 721 0
-41 726 -721 0
-42 -726 721 0
-42 726 -721 0
-43 -726 721 0
-43 726 -721 0
-44 -721 726 0
-44 -717 726 0
-44 -726 721 717 0
-45 -726 721 0
-45 726 -721 0
-46 -726 721 0
-46 726 -721 0
-47 -721 726 0
-47 -718 726 0
-47 -726 721 718 0
-48 -726 721 0
-48 726 -721 0
-49 -721 726 0
-49 -719 726 0
-49 -726 721 719 0
-50 -721 726 0
-50 -720 726 0
-50 -726 721 720 0
-65 -726 721 0
-65 726 -721 0
-51 -727 722 0
-51 -727 723 0
-51 727 -722 -723 0
-52 -727 722 0
-52 -727 724 0
-52 727 -722 -724 0
-53 -727 722 0
-53 -727 725 0
-53 727 -722 -725 0
-54 -727 722 0
-54 -727 726 0
-54 727 -722 -726 0
-55 -727 722 0
-55 727 -722 0
-56 -727 722 0
-56 727 -722 0
-57 -727 722 0
-57 727 -722 0
-58 -727 722 0
-58 727 -722 0
-59 -727 722 0
-59 727 -722 0
-60 -727 722 0
-60 727 -722 0
-66 -727 722 0
-66 727 -722 0
-51 -723 728 0
-51 -722 728 0
-51 -728 723 722 0
-52 -728 723 0
-52 728 -723 0
-53 -728 723 0
-53 728 -723 0
-54 -728 723 0
-54 728 -723 0
-55 -728 723 0
-55 -728 724 0
-55 728 -723 -724 0
-56 -728 723 0
-56 -728 725 0
-56 728 -723 -725 0
-57 -728 723 0
-57 -728 726 0
-57 728 -723 -726 0
-58 -728 723 0
-58 728 -723 0
-59 -728 723 0
-59 728 -723 0
-60 -728 723 0
-60 728 -723 0
-66 -728 723 0
-66 728 -723 0
-51 -729 724 0
-51 729 -724 0
-52 -724 729 0
-52 -722 729 0
-52 -729 724 722 0
-53 -729 724 0
-53 729 -724 0
-54 -729 724 0
-54 729 -724 0
-55 -724 729 0
-55 -723 729 0
-55 -729 724 723 0
-56 -729 724 0
-56 729 -724 0
-57 -729 724 0
-57 729 -724 0
-58 -729 724 0
-58 -729 725 0
-58 729 -724 -725 0
-59 -729 724 0
-59 -729 726 0
-59 729 -724 -726 0
-60 -729 724 0
-60 729 -724 0
-66 -729 724 0
-66 729 -724 0
-51 -730 725 0
-51 730 -725 0
-52 -730 725 0
-52 730 -725 0
-53 -725 730 0
-53 -722 730 0
-53 -730 725 722 0
-54 -730 725 0
-54 730 -725 0
-55 -730 725 0
-55 730 -725 0
-56 -725 730 0
-56 -723 730 0
-56 -730 725 723 0
-57 -730 725 0
-57 730 -725 0
-58 -725 730 0
-58 -724 730 0
-58 -730 725 724 0
-59 -730 725 0
-59 730 -725 0
-60 -730 725 0
-60 -730 726 0
-60 730 -725 -726 0
-66 -730 725 0
-66 730 -725 0
-51 -731 726 0
-51 731 -726 0
-52 -731 726 0
-52 731 -726 0
-53 -731 726 0
-53 731 -726 0
-54 -726 731 0
-54 -722 731 0
-54 -731 726 722 0
-55 -731 726 0
-55 731 -726 0
-56 -731 726 0
-56 731 -726 0
-57 -726 731 0
-57 -723 731 0
-57 -731 726 723 0
-58 -731 726 0
-58 731 -726 0
-59 -726 731 0
-59 -724 731 0
-59 -731 726 724 0
-60 -726 731 0
-60 -725 731 0
-60 -731 726 725 0
-66 -731 726 0
-66 731 -726 0
732 0
-1 -737 732 0
-1 -737 733 0
-1 737 -732 -733 0
-2 -737 732 0
-2 -737 734 0
-2 737 -732 -734 0
-3 -737 732 0
-3 -737 735 0
-3 737 -732 -735 0
-4 -737 732 0
-4 -737 736 0
-4 737 -732 -736 0
-5 -737 732 0
-5 737 -732 0
-6 -737 732 0
-6 737 -732 0
-7 -737 732 0
-7 737 -732 0
-8 -737 732 0
-8 737 -732 0
-9 -737 732 0
-9 737 -732 0
-10 -737 732 0
-10 737 -732 0
-61 -737 732 0
-61 737 -732 0
733 0
-1 -733 738 0
-1 -732 738 0
-1 -738 733 732 0
-2 -738 733 0
-2 738 -733 0
-3 -738 733 0
-3 738 -733 0
-4 -738 733 0
-4 738 -733 0
-5 -738 733 0
-5 -738 734 0
-5 738 -733 -734 0
-6 -738 733 0
-6 -738 735 0
-6 738 -733 -735 0
-7 -738 733 0
-7 -738 736 0
-7 738 -733 -736 0
-8 -738 733 0
-8 738 -733 0
-9 -738 733 0
-9 738 -733 0
-10 -738 733 0
-10 738 -733 0
-61 -738 733 0
-61 738 -733 0
-734 0
-1 -739 734 0
-1 739 -734 0
-2 -734 739 0
-2 -732 739 0
-2 -739 734 732 0
-3 -739 734 0
-3 739 -734 0
-4 -739 734 0
-4 739 -734 0
-5 -734 739 0
-5 -733 739 0
-5 -739 734 733 0
-6 -739 734 0
-6 739 -734 0
-7 -739 734 0
-7 739 -734 0
-8 -739 734 0
-8 -739 735 0
-8 739 -734 -735 0
-9 -739 734 0
-9 -739 736 0
-9 739 -734 -736 0
-10 -739 734 0
-10 739 -734 0
-61 -739 734 0
-61 739 -734 0
-735 0
-1 -740 735 0
-1 740 -735 0
-2 -740 735 0
-2 740 -735 0
-3 -735 740 0
-3 -732 740 0
-3 -740 735 732 0
-4 -740 735 0
-4 740 -735 0
-5 -740 735 0
-5 740 -735 0
-6 -735 740 0
-6 -733 740 0
-6 -740 735 733 0
-7 -740 735 0
-7 740 -735 0
-8 -735 740 0
-8 -734 740 0
-8 -740 735 734 0
-9 -740 735 0
-9 740 -735 0
-10 -740 735 0
-10 -740 736 0
-10 740 -735 -736 0
-61 -740 735 0
-61 740 -735 0
-736 0
-1 -741 736 0
-1 741 -736 0
-2 -741 736 0
-2 741 -736 0
-3 -741 736 0
-3 741 -736 0
-4 -736 741 0
-4 -732 741 0
-4 -741 736 732 0
-5 -741 736 0
-5 741 -736 0
-6 -741 736 0
-6 741 -736 0
-7 -736 741 0
-7 -733 741 0
-7 -741 736 733 0
-8 -741 736 0
-8 741 -736 0
-9 -736 741 0
-9 -734 741 0
-9 -741 736 734 0
-10 -736 741 0
-10 -735 741 0
-10 -741 736 735 0
-61 -741 736 0
-61 741 -736 0
-11 -742 737 0
-11 -742 738 0
-11 742 -737 -738 0
-12 -742 737 0
-12 -742 739 0
-12 742 -737 -739 0
-13 -742 737 0
-13 -742 740 0
-13 742 -737 -740 0
-14 -742 737 0
-14 -742 741 0
-14 742 -737 -741 0
-15 -742 737 0
-15 742 -737 0
-16 -742 737 0
-16 742 -737 0
-17 -742 737 0
-17 742 -737 0
-18 -742 737 0
-18 742 -737 0
-19 -742 737 0
-19 742 -737 0
-20 -742 737 0
-20 742 -737 0
-62 -742 737 0
-62 742 -737 0
-11 -738 743 0
-11 -737 743 0
-11 -743 738 737 0
-12 -743 738 0
-12 743 -738 0
-13 -743 738 0
-13 743 -738 0
-14 -743 738 0
-14 743 -738 0
-15 -743 738 0
-15 -743 739 0
-15 743 -738 -739 0
-16 -743 738 0
-16 -743 740 0
-16 743 -738 -740 0
-17 -743 738 0
-17 -743 741 0
-17 743 -738 -741 0
-18 -743 738 0
-18 743 -738 0
-19 -743 738 0
-19 743 -738 0
-20 -743 738 0
-20 743 -738 0
-62 -743 738 0
-62 743 -738 0
-11 -744 739 0
-11 744 -739 0
-12 -739 744 0
-12 -737 744 0
-12 -744 739 737 0
-13 -744 739 0
-13 744 -739 0
-14 -744 739 0
-14 744 -739 0
-15 -739 744 0
-15 -738 744 0
-15 -744 739 738 0
-16 -744 739 0
-16 744 -739 0
-17 -744 739 0
-17 744 -739 0
-18 -744 739 0
-18 -744 740 0
-18 744 -739 -740 0
-19 -744 739 0
-19 -744 741 0
-19 744 -739 -741 0
-20 -744 739 0
-20 744 -739 0
-62 -744 739 0
-62 744 -739 0
-11 -745 740 0
-11 745 -740 0
-12 -745 740 0
-12 745 -740 0
-13 -740 745 0
-13 -737 745 0
-13 -745 740 737 0
-14 -745 740 0
-14 745 -740 0
-15 -745 740 0
-15 745 -740 0
-16 -740 745 0
-16 -738 745 0
-16 -745 740 738 0
-17 -745 740 0
-17 745 -740 0
-18 -740 745 0
-18 -739 745 0
-18 -745 740 739 0
-19 -745 740 0
-19 745 -740 0
-20 -745 740 0
-20 -745 741 0
-20 745 -740 -741 0
-62 -745 740 0
-62 745 -740 0
-11 -746 741 0
-11 746 -741 0
-12 -746 741 0
-12 746 -741 0
-13 -746 741 0
-13 746 -741 0
-14 -741 746 0
-14 -737 746 0
-14 -746 741 737 0
-15 -746 741 0
-15 746 -741 0
-16 -746 741 0
-16 746 -741 0
-17 -741 746 0
-17 -738 746 0
-17 -746 741 738 0
-18 -746 741 0
-18 746 -741 0
-19 -741 746 0
-19 -739 746 0
-19 -746 741 739 0
-20 -741 746 0
-20 -740 746 0
-20 -746 741 740 0
-62 -746 741 0
-62 746 -741 0
-21 -747 742 0
-21 -747 743 0
-21 747 -742 -743 0
-22 -747 742 0
-22 -747 744 0
-22 747 -742 -744 0
-23 -747 742 0
-23 -747 745 0
-23 747 -742 -745 0
-24 -747 742 0
-24 -747 746 0
-24 747 -742 -746 0
-25 -747 742 0
-25 747 -742 0
-26 -747 742 0
-26 747 -742 0
-27 -747 742 0
-27 747 -742 0
-28 -747 742 0
-28 747 -742 0
-29 -747 742 0
-29 747 -742 0
-30 -747 742 0
-30 747 -742 0
-63 -747 742 0
-63 747 -742 0
-21 -743 748 0
-21 -742 748 0
-21 -748 743 742 0
-22 -748 743 0
-22 748 -743 0
-23 -748 743 0
-23 748 -743 0
-24 -748 743 0
-24 748 -743 0
-25 -748 743 0
-25 -748 744 0
-25 748 -743 -744 0
-26 -748 743 0
-26 -748 745 0
-26 748 -743 -745 0
-27 -748 743 0
-27 -748 746 0
-27 748 -743 -746 0
-28 -748 743 0
-28 748 -743 0
-29 -748 743 0
-29 748 -743 0
-30 -748 743 0
-30 748 -743 0
-63 -748 743 0
-63 748 -743 0
-21 -749 744 0
-21 749 -744 0
-22 -744 749 0
-22 -742 749 0
-22 -749 744 742 0
-23 -749 744 0
-23 749 -744 0
-24 -749 744 0
-24 749 -744 0
-25 -744 749 0
-25 -743 749 0
-25 -749 744 743 0
-26 -749 744 0
-26 749 -744 0
-27 -749 744 0
-27 749 -744 0
-28 -749 744 0
-28 -749 745 0
-28 749 -744 -745 0
-29 -749 744 0
-29 -749 746 0
-29 749 -744 -746 0
-30 -749 744 0
-30 749 -744 0
-63 -749 744 0
-63 749 -744 0
-21 -750 745 0
-21 750 -745 0
-22 -750 745 0
-22 750 -745 0
-23 -745 750 0
-23 -742 750 0
-23 -750 745 742 0
-24 -750 745 0
-24 750 -745 0
-25 -750 745 0
-25 750 -745 0
-26 -745 750 0
-26 -743 750 0
-26 -750 745 743 0
-27 -750 745 0
-27 750 -745 0
-28 -745 750 0
-28 -744 750 0
-28 -750 745 744 0
-29 -750 745 0
-29 750 -745 0
-30 -750 745 0
-30 -750 746 0
-30 750 -745 -746 0
-63 -750 745 0
-63 750 -745 0
-21 -751 746 0
-21 751 -746 0
-22 -751 746 0
-22 751 -746 0
-23 -751 746 0
-23 751 -746 0
-24 -746 751 0
-24 -742 751 0
-24 -751 746 742 0
-25 -751 746 0
-25 751 -746 0
-26 -751 746 0
-26 751 -746 0
-27 -746 751 0
-27 -743 751 0
-27 -751 746 743 0
-28 -751 746 0
-28 751 -746 0
-29 -746 751 0
-29 -744 751 0
-29 -751 746 744 0
-30 -746 751 0
-30 -745 751 0
-30 -751 746 745 0
-63 -751 746 0
-63 751 -746 0
-31 -752 747 0
-31 -752 748 0
-31 752 -747 -748 0
-32 -752 747 0
-32 -752 749 0
-32 752 -747 -749 0
-33 -752 747 0
-33 -752 750 0
-33 752 -747 -750 0
-34 -752 747 0
-34 -752 751 0
-34 752 -747 -751 0
-35 -752 747 0
-35 752 -747 0
-36 -752 747 0
-36 752 -747 0
-37 -752 747 0
-37 752 -747 0
-38 -752 747 0
-38 752 -747 0
-39 -752 747 0
-39 752 -747 0
-40 -752 747 0
-40 752 -747 0
-64 -752 747 0
-64 752 -747 0
-31 -748 753 0
-31 -747 753 0
-31 -753 748 747 0
-32 -753 748 0
-32 753 -748 0
-33 -753 748 0
-33 753 -748 0
-34 -753 748 0
-34 753 -748 0
-35 -753 748 0
-35 -753 749 0
-35 753 -748 -749 0
-36 -753 748 0
-36 -753 750 0
-36 753 -748 -750 0
-37 -753 748 0
-37 -753 751 0
-37 753 -748 -751 0
-38 -753 748 0
-38 753 -748 0
-39 -753 748 0
-39 753 -748 0
-40 -753 748 0
-40 753 -748 0
-64 -753 748 0
-64 753 -748 0
-31 -754 749 0
-31 754 -749 0
-32 -749 754 0
-32 -747 754 0
-32 -754 749 747 0
-33 -754 749 0
-33 754 -749 0
-34 -754 749 0
-34 754 -749 0
-35 -749 754 0
-35 -748 754 0
-35 -754 749 748 0
-36 -754 749 0
-36 754 -749 0
-37 -754 749 0
-37 754 -749 0
-38 -754 749 0
-38 -754 750 0
-38 754 -749 -750 0
-39 -754 749 0
-39 -754 751 0
-39 754 -749 -751 0
-40 -754 749 0
-40 754 -749 0
-64 -754 749 0
-64 754 -749 0
-31 -755 750 0
-31 755 -750 0
-32 -755 750 0
-32 755 -750 0
-33 -750 755 0
-33 -747 755 0
-33 -755 750 747 0
-34 -755 750 0
-34 755 -750 0
-35 -755 750 0
-35 755 -750 0
-36 -750 755 0
-36 -748 755 0
-36 -755 750 748 0
-37 -755 750 0
-37 755 -750 0
-38 -750 755 0
-38 -749 755 0
-38 -755 750 749 0
-39 -755 750 0
-39 755 -750 0
-40 -755 750 0
-40 -755 751 0
-40 755 -750 -751 0
-64 -755 750 0
-64 755 -750 0
-31 -756 751 0
-31 756 -751 0
-32 -756 751 0
-32 756 -751 0
-33 -756 751 0
-33 756 -751 0
-34 -751 756 0
-34 -747 756 0
-34 -756 751 747 0
-35 -756 751 0
-35 756 -751 0
-36 -756 751 0
-36 756 -751 0
-37 -751 756 0
-37 -748 756 0
-37 -756 751 748 0
-38 -756 751 0
-38 756 -751 0
-39 -751 756 0
-39 -749 756 0
-39 -756 751 749 0
-40 -751 756 0
-40 -750 756 0
-40 -756 751 750 0
-64 -756 751 0
-64 756 -751 0
-41 -757 752 0
-41 -757 753 0
-41 757 -752 -753 0
-42 -757 752 0
-42 -757 754 0
-42 757 -752 -754 0
-43 -757 752 0
-43 -757 755 0
-43 757 -752 -755 0
-44 -757 752 0
-44 -757 756 0
-44 757 -752 -756 0
-45 -757 752 0
-45 757 -752 0
-46 -757 752 0
-46 757 -752 0
-47 -757 752 0
-47 757 -752 0
-48 -757 752 0
-48 757 -752 0
-49 -757 752 0
-49 757 -752 0
-50 -757 752 0
-50 757 -752 0
-65 -757 752 0
-65 757 -752 0
-41 -753 758 0
-41 -752 758 0
-41 -758 753 752 0
-42 -758 753 0
-42 758 -753 0
-43 -758 753 0
-43 758 -753 0
-44 -758 753 0
-44 758 -753 0
-45 -758 753 0
-45 -758 754 0
-45 758 -753 -754 0
-46 -758 753 0
-46 -758 755 0
-46 758 -753 -755 0
-47 -758 753 0
-47 -758 756 0
-47 758 -753 -756 0
-48 -758 753 0
-48 758 -753 0
-49 -758 753 0
-49 758 -753 0
-50 -758 753 0
-50 758 -753 0
-65 -758 753 0
-65 758 -753 0
-41 -759 754 0
-41 759 -754 0
-42 -754 759 0
-42 -752 759 0
-42 -759 754 752 0
-43 -759 754 0
-43 759 -754 0
-44 -759 754 0
-44 759 -754 0
-45 -754 759 0
-45 -753 759 0
-45 -759 754 753 0
-46 -759 754 0
-46 759 -754 0
-47 -759 754 0
-47 759 -754 0
-48 -759 754 0
-48 -759 755 0
-48 759 -754 -755 0
-49 -759 754 0
-49 -759 756 0
-49 759 -754 -756 0
-50 -759 754 0
-50 759 -754 0
-65 -759 754 0
-65 759 -754 0
-41 -760 755 0
-41 760 -755 0
-42 -760 755 0
-42 760 -755 0
-43 -755 760 0
-43 -752 760 0
-43 -760 755 752 0
-44 -760 755 0
-44 760 -755 0
-45 -760 755 0
-45 760 -755 0
-46 -755 760 0
-46 -753 760 0
-46 -760 755 753 0
-47 -760 755 0
-47 760 -755 0
-48 -755 760 0
-48 -754 760 0
-48 -760 755 754 0
-49 -760 755 0
-49 760 -755 0
-50 -760 755 0
-50 -760 756 0
-50 760 -755 -756 0
-65 -760 755 0
-65 760 -755 0
-41 -761 756 0
-41 761 -756 0
-42 -761 756 0
-42 761 -756 0
-43 -761 756 0
-43 761 -756 0
-44 -756 761 0
-44 -752 761 0
-44 -761 756 752 0
-45 -761 756 0
-45 761 -756 0
-46 -761 756 0
-46 761 -756 0
-47 -756 761 0
-47 -753 761 0
-47 -761 756 753 0
-48 -761 756 0
-48 761 -756 0
-49 -756 761 0
-49 -754 761 0
-49 -761 756 754 0
-50 -756 761 0
-50 -755 761 0
-50 -761 756 755 0
-65 -761 756 0
-65 761 -756 0
-51 -762 757 0
-51 -762 758 0
-51 762 -757 -758 0
-52 -762 757 0
-52 -762 759 0
-52 762 -757 -759 0
-53 -762 757 0
-53 -762 760 0
-53 762 -757 -760 0
-54 -762 757 0
-54 -762 761 0
-54 762 -757 -761 0
-55 -762 757 0
-55 762 -757 0
-56 -762 757 0
-56 762 -757 0
-57 -762 757 0
-57 762 -757 0
-58 -762 757 0
-58 762 -757 0
-59 -762 757 0
-59 762 -757 0
-60 -762 757 0
-60 762 -757 0
-66 -762 757 0
-66 762 -757 0
-51 -758 763 0
-51 -757 763 0
-51 -763 758 757 0
-52 -763 758 0
-52 763 -758 0
-53 -763 758 0
-53 763 -758 0
-54 -763 758 0
-54 763 -758 0
-55 -763 758 0
-55 -763 759 0
-55 763 -758 -759 0
-56 -763 758 0
-56 -763 760 0
-56 763 -758 -760 0
-57 -763 758 0
-57 -763 761 0
-57 763 -758 -761 0
-58 -763 758 0
-58 763 -758 0
-59 -763 758 0
-59 763 -758 0
-60 -763 758 0
-60 763 -758 0
-66 -763 758 0
-66 763 -758 0
-51 -764 759 0
-51 764 -759 0
-52 -759 764 0
-52 -757 764 0
-52 -764 759 757 0
-53 -764 759 0
-53 764 -759 0
-54 -764 759 0
-54 764 -759 0
-55 -759 764 0
-55 -758 764 0
-55 -764 759 758 0
-56 -764 759 0
-56 764 -759 0
-57 -764 759 0
-57 764 -759 0
-58 -764 759 0
-58 -764 760 0
-58 764 -759 -760 0
-59 -764 759 0
-59 -764 761 0
-59 764 -759 -761 0
-60 -764 759 0
-60 764 -759 0
-66 -764 759 0
-66 764 -759 0
-51 -765 760 0
-51 765 -760 0
-52 -765 760 0
-52 765 -760 0
-53 -760 765 0
-53 -757 765 0
-53 -765 760 757 0
-54 -765 760 0
-54 765 -760 0
-55 -765 760 0
-55 765 -760 0
-56 -760 765 0
-56 -758 765 0
-56 -765 760 758 0
-57 -765 760 0
-57 765 -760 0
-58 -760 765 0
-58 -759 765 0
-58 -765 760 759 0
-59 -765 760 0
-59 765 -760 0
-60 -765 760 0
-60 -765 761 0
-60 765 -760 -761 0
-66 -765 760 0
-66 765 -760 0
-51 -766 761 0
-51 766 -761 0
-52 -766 761 0
-52 766 -761 0
-53 -766 761 0
-53 766 -761 0
-54 -761 766 0
-54 -757 766 0
-54 -766 761 757 0
-55 -766 761 0
-55 766 -761 0
-56 -766 761 0
-56 766 -761 0
-57 -761 766 0
-57 -758 766 0
-57 -766 761 758 0
-58 -766 761 0
-58 766 -761 0
-59 -761 766 0
-59 -759 766 0
-59 -766 761 759 0
-60 -761 766 0
-60 -760 766 0
-60 -766 761 760 0
-66 -766 761 0
-66 766 -761 0
767 0
-1 -772 767 0
-1 -772 768 0
-1 772 -767 -768 0
-2 -772 767 0
-2 -772 769 0
-2 772 -767 -769 0
-3 -772 767 0
-3 -772 770 0
-3 772 -767 -770 0
-4 -772 767 0
-4 -772 771 0
-4 772 -767 -771 0
-5 -772 767 0
-5 772 -767 0
-6 -772 767 0
-6 772 -767 0
-7 -772 767 0
-7 772 -767 0
-8 -772 767 0
-8 772 -767 0
-9 -772 767 0
-9 772 -767 0
-10 -772 767 0
-10 772 -767 0
-61 -772 767 0
-61 772 -767 0
768 0
-1 -768 773 0
-1 -767 773 0
-1 -773 768 767 0
-2 -773 768 0
-2 773 -768 0
-3 -773 768 0
-3 773 -768 0
-4 -773 768 0
-4 773 -768 0
-5 -773 768 0
-5 -773 769 0
-5 773 -768 -769 0
-6 -773 768 0
-6 -773 770 0
-6 773 -768 -770 0
-7 -773 768 0
-7 -773 771 0
-7 773 -768 -771 0
-8 -773 768 0
-8 773 -768 0
-9 -773 768 0
-9 773 -768 0
-10 -773 768 0
-10 773 -768 0
-61 -773 768 0
-61 773 -768 0
-769 0
-1 -774 769 0
-1 774 -769 0
-2 -769 774 0
-2 -767 774 0
-2 -774 769 767 0
-3 -774 769 0
-3 774 -769 0
-4 -774 769 0
-4 774 -769 0
-5 -769 774 0
-5 -768 774 0
-5 -774 769 768 0
-6 -774 769 0
-6 774 -769 0
-7 -774 769 0
-7 774 -769 0
-8 -774 769 0
-8 -774 770 0
-8 774 -769 -770 0
-9 -774 769 0
-9 -774 771 0
-9 774 -769 -771 0
-10 -774 769 0
-10 774 -769 0
-61 -774 769 0
-61 774 -769 0
-770 0
-1 -775 770 0
-1 775 -770 0
-2 -775 770 0
-2 775 -770 0
-3 -770 775 0
-3 -767 775 0
-3 -775 770 767 0
-4 -775 770 0
-4 775 -770 0
-5 -775 770 0
-5 775 -770 0
-6 -770 775 0
-6 -768 775 0
-6 -775 770 768 0
-7 -775 770 0
-7 775 -770 0
-8 -770 775 0
-8 -769 775 0
-8 -775 770 769 0
-9 -775 770 0
-9 775 -770 0
-10 -775 770 0
-10 -775 771 0
-10 775 -770 -771 0
-61 -775 770 0
-61 775 -770 0
771 0
-1 -776 771 0
-1 776 -771 0
-2 -776 771 0
-2 776 -771 0
-3 -776 771 0
-3 776 -771 0
-4 -771 776 0
-4 -767 776 0
-4 -776 771 767 0
-5 -776 771 0
-5 776 -771 0
-6 -776 771 0
-6 776 -771 0
-7 -771 776 0
-7 -768 776 0
-7 -776 771 768 0
-8 -776 771 0
-8 776 -771 0
-9 -771 776 0
-9 -769 776 0
-9 -776 771 769 0
-10 -771 776 0
-10 -770 776 0
-10 -776 771 770 0
-61 -776 771 0
-61 776 -771 0
-11 -777 772 0
-11 -777 773 0
-11 777 -772 -773 0
-12 -777 772 0
-12 -777 774 0
-12 777 -772 -774 0
-13 -777 772 0
-13 -777 775 0
-13 777 -772 -775 0
-14 -777 772 0
-14 -777 776 0
-14 777 -772 -776 0
-15 -777 772 0
-15 777 -772 0
-16 -777 772 0
-16 777 -772 0
-17 -777 772 0
-17 777 -772 0
-18 -777 772 0
-18 777 -772 0
-19 -777 772 0
-19 777 -772 0
-20 -777 772 0
-20 777 -772 0
-62 -777 772 0
-62 777 -772 0
-11 -773 778 0
-11 -772 778 0
-11 -778 773 772 0
-12 -778 773 0
-12 778 -773 0
-13 -778 773 0
-13 778 -773 0
-14 -778 773 0
-14 778 -773 0
-15 -778 773 0
-15 -778 774 0
-15 778 -773 -774 0
-16 -778 773 0
-16 -778 775 0
-16 778 -773 -775 0
-17 -778 773 0
-17 -778 776 0
-17 778 -773 -776 0
-18 -778 773 0
-18 778 -773 0
-19 -778 773 0
-19 778 -773 0
-20 -778 773 0
-20 778 -773 0
-62 -778 773 0
-62 778 -773 0
-11 -779 774 0
-11 779 -774 0
-12 -774 779 0
-12 -772 779 0
-12 -779 774 772 0
-13 -779 774 0
-13 779 -774 0
-14 -779 774 0
-14 779 -774 0
-15 -774 779 0
-15 -773 779 0
-15 -779 774 773 0
-16 -779 774 0
-16 779 -774 0
-17 -779 774 0
-17 779 -774 0
-18 -779 774 0
-18 -779 775 0
-18 779 -774 -775 0
-19 -779 774 0
-19 -779 776 0
-19 779 -774 -776 0
-20 -779 774 0
-20 779 -774 0
-62 -779 774 0
-62 779 -774 0
-11 -780 775 0
-11 780 -775 0
-12 -780 775 0
-12 780 -775 0
-13 -775 780 0
-13 -772 780 0
-13 -780 775 772 0
-14 -780 775 0
-14 780 -775 0
-15 -780 775 0
-15 780 -775 0
-16 -775 780 0
-16 -773 780 0
-16 -780 775 773 0
-17 -780 775 0
-17 780 -775 0
-18 -775 780 0
-18 -774 780 0
-18 -780 775 774 0
-19 -780 775 0
-19 780 -775 0
-20 -780 775 0
-20 -780 776 0
-20 780 -775 -776 0
-62 -780 775 0
-62 780 -775 0
-11 -781 776 0
-11 781 -776 0
-12 -781 776 0
-12 781 -776 0
-13 -781 776 0
-13 781 -776 0
-14 -776 781 0
-14 -772 781 0
-14 -781 776 772 0
-15 -781 776 0
-15 781 -776 0
-16 -781 776 0
-16 781 -776 0
-17 -776 781 0
-17 -773 781 0
-17 -781 776 773 0
-18 -781 776 0
-18 781 -776 0
-19 -776 781 0
-19 -774 781 0
-19 -781 776 774 0
-20 -776 781 0
-20 -775 781 0
-20 -781 776 775 0
-62 -781 776 0
-62 781 -776 0
-21 -782 777 0
-21 -782 778 0
-21 782 -777 -778 0
-22 -782 777 0
-22 -782 779 0
-22 782 -777 -779 0
-23 -782 777 0
-23 -782 780 0
-23 782 -777 -780 0
-24 -782 777 0
-24 -782 781 0
-24 782 -777 -781 0
-25 -782 777 0
-25 782 -777 0
-26 -782 777 0
-26 782 -777 0
-27 -782 777 0
-27 782 -777 0
-28 -782 777 0
-28 782 -777 0
-29 -782 777 0
-29 782 -777 0
-30 -782 777 0
-30 782 -777 0
-63 -782 777 0
-63 782 -777 0
-21 -778 783 0
-21 -777 783 0
-21 -783 778 777 0
-22 -783 778 0
-22 783 -778 0
-23 -783 778 0
-23 783 -778 0
-24 -783 778 0
-24 783 -778 0
-25 -783 778 0
-25 -783 779 0
-25 783 -778 -779 0
-26 -783 778 0
-26 -783 780 0
-26 783 -778 -780 0
-27 -783 778 0
-27 -783 781 0
-27 783 -778 -781 0
-28 -783 778 0
-28 783 -778 0
-29 -783 778 0
-29 783 -778 0
-30 -783 778 0
-30 783 -778 0
-63 -783 778 0
-63 783 -778 0
-21 -784 779 0
-21 784 -779 0
-22 -779 784 0
-22 -777 784 0
-22 -784 779 777 0
-23 -784 779 0
-23 784 -779 0
-24 -784 779 0
-24 784 -779 0
-25 -779 784 0
-25 -778 784 0
-25 -784 779 778 0
-26 -784 779 0
-26 784 -779 0
-27 -784 779 0
-27 784 -779 0
-28 -784 779 0
-28 -784 780 0
-28 784 -779 -780 0
-29 -784 779 0
-29 -784 781 0
-29 784 -779 -781 0
-30 -784 779 0
-30 784 -779 0
-63 -784 779 0
-63 784 -779 0
-21 -785 780 0
-21 785 -780 0
-22 -785 780 0
-22 785 -780 0
-23 -780 785 0
-23 -777 785 0
-23 -785 780 777 0
-24 -785 780 0
-24 785 -780 0
-25 -785 780 0
-25 785 -780 0
-26 -780 785 0
-26 -778 785 0
-26 -785 780 778 0
-27 -785 780 0
-27 785 -780 0
-28 -780 785 0
-28 -779 785 0
-28 -785 780 779 0
-29 -785 780 0
-29 785 -780 0
-30 -785 780 0
-30 -785 781 0
-30 785 -780 -781 0
-63 -785 780 0
-63 785 -780 0
-21 -786 781 0
-21 786 -781 0
-22 -786 781 0
-22 786 -781 0
-23 -786 781 0
-23 786 -781 0
-24 -781 786 0
-24 -777 786 0
-24 -786 781 777 0
-25 -786 781 0
-25 786 -781 0
-26 -786 781 0
-26 786 -781 0
-27 -781 786 0
-27 -778 786 0
-27 -786 781 778 0
-28 -786 781 0
-28 786 -781 0
-29 -781 786 0
-29 -779 786 0
-29 -786 781 779 0
-30 -781 786 0
-30 -780 786 0
-30 -786 781 780 0
-63 -786 781 0
-63 786 -781 0
-31 -787 782 0
-31 -787 783 0
-31 787 -782 -783 0
-32 -787 782 0
-32 -787 784 0
-32 787 -782 -784 0
-33 -787 782 0
-33 -787 785 0
-33 787 -782 -785 0
-34 -787 782 0
-34 -787 786 0
-34 787 -782 -786 0
-35 -787 782 0
-35 787 -782 0
-36 -787 782 0
-36 787 -782 0
-37 -787 782 0
-37 787 -782 0
-38 -787 782 0
-38 787 -782 0
-39 -787 782 0
-39 787 -782 0
-40 -787 782 0
-40 787 -782 0
-64 -787 782 0
-64 787 -782 0
-31 -783 788 0
-31 -782 788 0
-31 -788 783 782 0
-32 -788 783 0
-32 788 -783 0
-33 -788 783 0
-33 788 -783 0
-34 -788 783 0
-34 788 -783 0
-35 -788 783 0
-35 -788 784 0
-35 788 -783 -784 0
-36 -788 783 0
-36 -788 785 0
-36 788 -783 -785 0
-37 -788 783 0
-37 -788 786 0
-37 788 -783 -786 0
-38 -788 783 0
-38 788 -783 0
-39 -788 783 0
-39 788 -783 0
-40 -788 783 0
-40 788 -783 0
-64 -788 783 0
-64 788 -783 0
-31 -789 784 0
-31 789 -784 0
-32 -784 789 0
-32 -782 789 0
-32 -789 784 782 0
-33 -789 784 0
-33 789 -784 0
-34 -789 784 0
-34 789 -784 0
-35 -784 789 0
-35 -783 789 0
-35 -789 784 783 0
-36 -789 784 0
-36 789 -784 0
-37 -789 784 0
-37 789 -784 0
-38 -789 784 0
-38 -789 785 0
-38 789 -784 -785 0
-39 -789 784 0
-39 -789 786 0
-39 789 -784 -786 0
-40 -789 784 0
-40 789 -784 0
-64 -789 784 0
-64 789 -784 0
-31 -790 785 0
-31 790 -785 0
-32 -790 785 0
-32 790 -785 0
-33 -785 790 0
-33 -782 790 0
-33 -790 785 782 0
-34 -790 785 0
-34 790 -785 0
-35 -790 785 0
-35 790 -785 0
-36 -785 790 0
-36 -783 790 0
-36 -790 785 783 0
-37 -790 785 0
-37 790 -785 0
-38 -785 790 0
-38 -784 790 0
-38 -790 785 784 0
-39 -790 785 0
-39 790 -785 0
-40 -790 785 0
-40 -790 786 0
-40 790 -785 -786 0
-64 -790 785 0
-64 790 -785 0
-31 -791 786 0
-31 791 -786 0
-32 -791 786 0
-32 791 -786 0
-33 -791 786 0
-33 791 -786 0
-34 -786 791 0
-34 -782 791 0
-34 -791 786 782 0
-35 -791 786 0
-35 791 -786 0
-36 -791 786 0
-36 791 -786 0
-37 -786 791 0
-37 -783 791 0
-37 -791 786 783 0
-38 -791 786 0
-38 791 -786 0
-39 -786 791 0
-39 -784 791 0
-39 -791 786 784 0
-40 -786 791 0
-40 -785 791 0
-40 -791 786 785 0
-64 -791 786 0
-64 791 -786 0
-41 -792 787 0
-41 -792 788 0
-41 792 -787 -788 0
-42 -792 787 0
-42 -792 789 0
-42 792 -787 -789 0
-43 -792 787 0
-43 -792 790 0
-43 792 -787 -790 0
-44 -792 787 0
-44 -792 791 0
-44 792 -787 -791 0
-45 -792 787 0
-45 792 -787 0
-46 -792 787 0
-46 792 -787 0
-47 -792 787 0
-47 792 -787 0
-48 -792 787 0
-48 792 -787 0
-49 -792 787 0
-49 792 -787 0
-50 -792 787 0
-50 792 -787 0
-65 -792 787 0
-65 792 -787 0
-41 -788 793 0
-41 -787 793 0
-41 -793 788 787 0
-42 -793 788 0
-42 793 -788 0
-43 -793 788 0
-43 793 -788 0
-44 -793 788 0
-44 793 -788 0
-45 -793 788 0
-45 -793 789 0
-45 793 -788 -789 0
-46 -793 788 0
-46 -793 790 0
-46 793 -788 -790 0
-47 -793 788 0
-47 -793 791 0
-47 793 -788 -791 0
-48 -793 788 0
-48 793 -788 0
-49 -793 788 0
-49 793 -788 0
-50 -793 788 0
-50 793 -788 0
-65 -793 788 0
-65 793 -788 0
-41 -794 789 0
-41 794 -789 0
-42 -789 794 0
-42 -787 794 0
-42 -794 789 787 0
-43 -794 789 0
-43 794 -789 0
-44 -794 789 0
-44 794 -789 0
-45 -789 794 0
-45 -788 794 0
-45 -794 789 788 0
-46 -794 789 0
-46 794 -789 0
-47 -794 789 0
-47 794 -789 0
-48 -794 789 0
-48 -794 790 0
-48 794 -789 -790 0
-49 -794 789 0
-49 -794 791 0
-49 794 -789 -791 0
-50 -794 789 0
-50 794 -789 0
-65 -794 789 0
-65 794 -789 0
-41 -795 790 0
-41 795 -790 0
-42 -795 790 0
-42 795 -790 0
-43 -790 795 0
-43 -787 795 0
-43 -795 790 787 0
-44 -795 790 0
-44 795 -790 0
-45 -795 790 0
-45 795 -790 0
-46 -790 795 0
-46 -788 795 0
-46 -795 790 788 0
-47 -795 790 0
-47 795 -790 0
-48 -790 795 0
-48 -789 795 0
-48 -795 790 789 0
-49 -795 790 0
-49 795 -790 0
-50 -795 790 0
-50 -795 791 0
-50 795 -790 -791 0
-65 -795 790 0
-65 795 -790 0
-41 -796 791 0
-41 796 -791 0
-42 -796 791 0
-42 796 -791 0
-43 -796 791 0
-43 796 -791 0
-44 -791 796 0
-44 -787 796 0
-44 -796 791 787 0
-45 -796 791 0
-45 796 -791 0
-46 -796 791 0
-46 796 -791 0
-47 -791 796 0
-47 -788 796 0
-47 -796 791 788 0
-48 -796 791 0
-48 796 -791 0
-49 -791 796 0
-49 -789 796 0
-49 -796 791 789 0
-50 -791 796 0
-50 -790 796 0
-50 -796 791 790 0
-65 -796 791 0
-65 796 -791 0
-51 -797 792 0
-51 -797 793 0
-51 797 -792 -793 0
-52 -797 792 0
-52 -797 794 0
-52 797 -792 -794 0
-53 -797 792 0
-53 -797 795 0
-53 797 -792 -795 0
-54 -797 792 0
-54 -797 796 0
-54 797 -792 -796 0
-55 -797 792 0
-55 797 -792 0
-56 -797 792 0
-56 797 -792 0
-57 -797 792 0
-57 797 -792 0
-58 -797 792 0
-58 797 -792 0
-59 -797 792 0
-59 797 -792 0
-60 -797 792 0
-60 797 -792 0
-66 -797 792 0
-66 797 -792 0
-51 -793 798 0
-51 -792 798 0
-51 -798 793 792 0
-52 -798 793 0
-52 798 -793 0
-53 -798 793 0
-53 798 -793 0
-54 -798 793 0
-54 798 -793 0
-55 -798 793 0
-55 -798 794 0
-55 798 -793 -794 0
-56 -798 793 0
-56 -798 795 0
-56 798 -793 -795 0
-57 -798 793 0
-57 -798 796 0
-57 798 -793 -796 0
-58 -798 793 0
-58 798 -793 0
-59 -798 793 0
-59 798 -793 0
-60 -798 793 0
-60 798 -793 0
-66 -798 793 0
-66 798 -793 0
-51 -799 794 0
-51 799 -794 0
-52 -794 799 0
-52 -792 799 0
-52 -799 794 792 0
-53 -799 794 0
-53 799 -794 0
-54 -799 794 0
-54 799 -794 0
-55 -794 799 0
-55 -793 799 0
-55 -799 794 793 0
-56 -799 794 0
-56 799 -794 0
-57 -799 794 0
-57 799 -794 0
-58 -799 794 0
-58 -799 795 0
-58 799 -794 -795 0
-59 -799 794 0
-59 -799 796 0
-59 799 -794 -796 0
-60 -799 794 0
-60 799 -794 0
-66 -799 794 0
-66 799 -794 0
-51 -800 795 0
-51 800 -795 0
-52 -800 795 0
-52 800 -795 0
-53 -795 800 0
-53 -792 800 0
-53 -800 795 792 0
-54 -800 795 0
-54 800 -795 0
-55 -800 795 0
-55 800 -795 0
-56 -795 800 0
-56 -793 800 0
-56 -800 795 793 0
-57 -800 795 0
-57 800 -795 0
-58 -795 800 0
-58 -794 800 0
-58 -800 795 794 0
-59 -800 795 0
-59 800 -795 0
-60 -800 795 0
-60 -800 796 0
-60 800 -795 -796 0
-66 -800 795 0
-66 800 -795 0
-51 -801 796 0
-51 801 -796 0
-52 -801 796 0
-52 801 -796 0
-53 -801 796 0
-53 801 -796 0
-54 -796 801 0
-54 -792 801 0
-54 -801 796 792 0
-55 -801 796 0
-55 801 -796 0
-56 -801 796 0
-56 801 -796 0
-57 -796 801 0
-57 -793 801 0
-57 -801 796 793 0
-58 -801 796 0
-58 801 -796 0
-59 -796 801 0
-59 -794 801 0
-59 -801 796 794 0
-60 -796 801 0
-60 -795 801 0
-60 -801 796 795 0
-66 -801 796 0
-66 801 -796 0
802 0
-1 -807 802 0
-1 -807 803 0
-1 807 -802 -803 0
-2 -807 802 0
-2 -807 804 0
-2 807 -802 -804 0
-3 -807 802 0
-3 -807 805 0
-3 807 -802 -805 0
-4 -807 802 0
-4 -807 806 0
-4 807 -802 -806 0
-5 -807 802 0
-5 807 -802 0
-6 -807 802 0
-6 807 -802 0
-7 -807 802 0
-7 807 -802 0
-8 -807 802 0
-8 807 -802 0
-9 -807 802 0
-9 807 -802 0
-10 -807 802 0
-10 807 -802 0
-61 -807 802 0
-61 807 -802 0
803 0
-1 -803 808 0
-1 -802 808 0
-1 -808 803 802 0
-2 -808 803 0
-2 808 -803 0
-3 -808 803 0
-3 808 -803 0
-4 -808 803 0
-4 808 -803 0
-5 -808 803 0
-5 -808 804 0
-5 808 -803 -804 0
-6 -808 803 0
-6 -808 805 0
-6 808 -803 -805 0
-7 -808 803 0
-7 -808 806 0
-7 808 -803 -806 0
-8 -808 803 0
-8 808 -803 0
-9 -808 803 0
-9 808 -803 0
-10 -808 803 0
-10 808 -803 0
-61 -808 803 0
-61 808 -803 0
-804 0
-1 -809 804 0
-1 809 -804 0
-2 -804 809 0
-2 -802 809 0
-2 -809 804 802 0
-3 -809 804 0
-3 809 -804 0
-4 -809 804 0
-4 809 -804 0
-5 -804 809 0
-5 -803 809 0
-5 -809 804 803 0
-6 -809 804 0
-6 809 -804 0
-7 -809 804 0
-7 809 -804 0
-8 -809 804 0
-8 -809 805 0
-8 809 -804 -805 0
-9 -809 804 0
-9 -809 806 0
-9 809 -804 -806 0
-10 -809 804 0
-10 809 -804 0
-61 -809 804 0
-61 809 -804 0
805 0
-1 -810 805 0
-1 810 -805 0
-2 -810 805 0
-2 810 -805 0
-3 -805 810 0
-3 -802 810 0
-3 -810 805 802 0
-4 -810 805 0
-4 810 -805 0
-5 -810 805 0
-5 810 -805 0
-6 -805 810 0
-6 -803 810 0
-6 -810 805 803 0
-7 -810 805 0
-7 810 -805 0
-8 -805 810 0
-8 -804 810 0
-8 -810 805 804 0
-9 -810 805 0
-9 810 -805 0
-10 -810 805 0
-10 -810 806 0
-10 810 -805 -806 0
-61 -810 805 0
-61 810 -805 0
-806 0
-1 -811 806 0
-1 811 -806 0
-2 -811 806 0
-2 811 -806 0
-3 -811 806 0
-3 811 -806 0
-4 -806 811 0
-4 -802 811 0
-4 -811 806 802 0
-5 -811 806 0
-5 811 -806 0
-6 -811 806 0
-6 811 -806 0
-7 -806 811 0
-7 -803 811 0
-7 -811 806 803 0
-8 -811 806 0
-8 811 -806 0
-9 -806 811 0
-9 -804 811 0
-9 -811 806 804 0
-10 -806 811 0
-10 -805 811 0
-10 -811 806 805 0
-61 -811 806 0
-61 811 -806 0
-11 -812 807 0
-11 -812 808 0
-11 812 -807 -808 0
-12 -812 807 0
-12 -812 809 0
-12 812 -807 -809 0
-13 -812 807 0
-13 -812 810 0
-13 812 -807 -810 0
-14 -812 807 0
-14 -812 811 0
-14 812 -807 -811 0
-15 -812 807 0
-15 812 -807 0
-16 -812 807 0
-16 812 -807 0
-17 -812 807 0
-17 812 -807 0
-18 -812 807 0
-18 812 -807 0
-19 -812 807 0
-19 812 -807 0
-20 -812 807 0
-20 812 -807 0
-62 -812 807 0
-62 812 -807 0
-11 -808 813 0
-11 -807 813 0
-11 -813 808 807 0
-12 -813 808 0
-12 813 -808 0
-13 -813 808 0
-13 813 -808 0
-14 -813 808 0
-14 813 -808 0
-15 -813 808 0
-15 -813 809 0
-15 813 -808 -809 0
-16 -813 808 0
-16 -813 810 0
-16 813 -808 -810 0
-17 -813 808 0
-17 -813 811 0
-17 813 -808 -811 0
-18 -813 808 0
-18 813 -808 0
-19 -813 808 0
-19 813 -808 0
-20 -813 808 0
-20 813 -808 0
-62 -813 808 0
-62 813 -808 0
-11 -814 809 0
-11 814 -809 0
-12 -809 814 0
-12 -807 814 0
-12 -814 809 807 0
-13 -814 809 0
-13 814 -809 0
-14 -814 809 0
-14 814 -809 0
-15 -809 814 0
-15 -808 814 0
-15 -814 809 808 0
-16 -814 809 0
-16 814 -809 0
-17 -814 809 0
-17 814 -809 0
-18 -814 809 0
-18 -814 810 0
-18 814 -809 -810 0
-19 -814 809 0
-19 -814 811 0
-19 814 -809 -811 0
-20 -814 809 0
-20 814 -809 0
-62 -814 809 0
-62 814 -809 0
-11 -815 810 0
-11 815 -810 0
-12 -815 810 0
-12 815 -810 0
-13 -810 815 0
-13 -807 815 0
-13 -815 810 807 0
-14 -815 810 0
-14 815 -810 0
-15 -815 810 0
-15 815 -810 0
-16 -810 815 0
-16 -808 815 0
-16 -815 810 808 0
-17 -815 810 0
-17 815 -810 0
-18 -810 815 0
-18 -809 815 0
-18 -815 810 809 0
-19 -815 810 0
-19 815 -810 0
-20 -815 810 0
-20 -815 811 0
-20 815 -810 -811 0
-62 -815 810 0
-62 815 -810 0
-11 -816 811 0
-11 816 -811 0
-12 -816 811 0
-12 816 -811 0
-13 -816 811 0
-13 816 -811 0
-14 -811 816 0
-14 -807 816 0
-14 -816 811 807 0
-15 -816 811 0
-15 816 -811 0
-16 -816 811 0
-16 816 -811 0
-17 -811 816 0
-17 -808 816 0
-17 -816 811 808 0
-18 -816 811 0
-18 816 -811 0
-19 -811 816 0
-19 -809 816 0
-19 -816 811 809 0
-20 -811 816 0
-20 -810 816 0
-20 -816 811 810 0
-62 -816 811 0
-62 816 -811 0
-21 -817 812 0
-21 -817 813 0
-21 817 -812 -813 0
-22 -817 812 0
-22 -817 814 0
-22 817 -812 -814 0
-23 -817 812 0
-23 -817 815 0
-23 817 -812 -815 0
-24 -817 812 0
-24 -817 816 0
-24 817 -812 -816 0
-25 -817 812 0
-25 817 -812 0
-26 -817 812 0
-26 817 -812 0
-27 -817 812 0
-27 817 -812 0
-28 -817 812 0
-28 817 -812 0
-29 -817 812 0
-29 817 -812 0
-30 -817 812 0
-30 817 -812 0
-63 -817 812 0
-63 817 -812 0
-21 -813 818 0
-21 -812 818 0
-21 -818 813 812 0
-22 -818 813 0
-22 818 -813 0
-23 -818 813 0
-23 818 -813 0
-24 -818 813 0
-24 818 -813 0
-25 -818 813 0
-25 -818 814 0
-25 818 -813 -814 0
-26 -818 813 0
-26 -818 815 0
-26 818 -813 -815 0
-27 -818 813 0
-27 -818 816 0
-27 818 -813 -816 0
-28 -818 813 0
-28 818 -813 0
-29 -818 813 0
-29 818 -813 0
-30 -818 813 0
-30 818 -813 0
-63 -818 813 0
-63 818 -813 0
-21 -819 814 0
-21 819 -814 0
-22 -814 819 0
-22 -812 819 0
-22 -819 814 812 0
-23 -819 814 0
-23 819 -814 0
-24 -819 814 0
-24 819 -814 0
-25 -814 819 0
-25 -813 819 0
-25 -819 814 813 0
-26 -819 814 0
-26 819 -814 0
-27 -819 814 0
-27 819 -814 0
-28 -819 814 0
-28 -819 815 0
-28 819 -814 -815 0
-29 -819 814 0
-29 -819 816 0
-29 819 -814 -816 0
-30 -819 814 0
-30 819 -814 0
-63 -819 814 0
-63 819 -814 0
-21 -820 815 0
-21 820 -815 0
-22 -820 815 0
-22 820 -815 0
-23 -815 820 0
-23 -812 820 0
-23 -820 815 812 0
-24 -820 815 0
-24 820 -815 0
-25 -820 815 0
-25 820 -815 0
-26 -815 820 0
-26 -813 820 0
-26 -820 815 813 0
-27 -820 815 0
-27 820 -815 0
-28 -815 820 0
-28 -814 820 0
-28 -820 815 814 0
-29 -820 815 0
-29 820 -815 0
-30 -820 815 0
-30 -820 816 0
-30 820 -815 -816 0
-63 -820 815 0
-63 820 -815 0
-21 -821 816 0
-21 821 -816 0
-22 -821 816 0
-22 821 -816 0
-23 -821 816 0
-23 821 -816 0
-24 -816 821 0
-24 -812 821 0
-24 -821 816 812 0
-25 -821 816 0
-25 821 -816 0
-26 -821 816 0
-26 821 -816 0
-27 -816 821 0
-27 -813 821 0
-27 -821 816 813 0
-28 -821 816 0
-28 821 -816 0
-29 -816 821 0
-29 -814 821 0
-29 -821 816 814 0
-30 -816 821 0
-30 -815 821 0
-30 -821 816 815 0
-63 -821 816 0
-63 821 -816 0
-31 -822 817 0
-31 -822 818 0
-31 822 -817 -818 0
-32 -822 817 0
-32 -822 819 0
-32 822 -817 -819 0
-33 -822 817 0
-33 -822 820 0
-33 822 -817 -820 0
-34 -822 817 0
-34 -822 821 0
-34 822 -817 -821 0
-35 -822 817 0
-35 822 -817 0
-36 -822 817 0
-36 822 -817 0
-37 -822 817 0
-37 822 -817 0
-38 -822 817 0
-38 822 -817 0
-39 -822 817 0
-39 822 -817 0
-40 -822 817 0
-40 822 -817 0
-64 -822 817 0
-64 822 -817 0
-31 -818 823 0
-31 -817 823 0
-31 -823 818 817 0
-32 -823 818 0
-32 823 -818 0
-33 -823 818 0
-33 823 -818 0
-34 -823 818 0
-34 823 -818 0
-35 -823 818 0
-35 -823 819 0
-35 823 -818 -819 0
-36 -823 818 0
-36 -823 820 0
-36 823 -818 -820 0
-37 -823 818 0
-37 -823 821 0
-37 823 -818 -821 0
-38 -823 818 0
-38 823 -818 0
-39 -823 818 0
-39 823 -818 0
-40 -823 818 0
-40 823 -818 0
-64 -823 818 0
-64 823 -818 0
-31 -824 819 0
-31 824 -819 0
-32 -819 824 0
-32 -817 824 0
-32 -824 819 817 0
-33 -824 819 0
-33 824 -819 0
-34 -824 819 0
-34 824 -819 0
-35 -819 824 0
-35 -818 824 0
-35 -824 819 818 0
-36 -824 819 0
-36 824 -819 0
-37 -824 819 0
-37 824 -819 0
-38 -824 819 0
-38 -824 820 0
-38 824 -819 -820 0
-39 -824 819 0
-39 -824 821 0
-39 824 -819 -821 0
-40 -824 819 0
-40 824 -819 0
-64 -824 819 0
-64 824 -819 0
-31 -825 820 0
-31 825 -820 0
-32 -825 820 0
-32 825 -820 0
-33 -820 825 0
-33 -817 825 0
-33 -825 820 817 0
-34 -825 820 0
-34 825 -820 0
-35 -825 820 0
-35 825 -820 0
-36 -820 825 0
-36 -818 825 0
-36 -825 820 818 0
-37 -825 820 0
-37 825 -820 0
-38 -820 825 0
-38 -819 825 0
-38 -825 820 819 0
-39 -825 820 0
-39 825 -820 0
-40 -825 820 0
-40 -825 821 0
-40 825 -820 -821 0
-64 -825 820 0
-64 825 -820 0
-31 -826 821 0
-31 826 -821 0
-32 -826 821 0
-32 826 -821 0
-33 -826 821 0
-33 826 -821 0
-34 -821 826 0
-34 -817 826 0
-34 -826 821 817 0
-35 -826 821 0
-35 826 -821 0
-36 -826 821 0
-36 826 -821 0
-37 -821 826 0
-37 -818 826 0
-37 -826 821 818 0
-38 -826 821 0
-38 826 -821 0
-39 -821 826 0
-39 -819 826 0
-39 -826 821 819 0
-40 -821 826 0
-40 -820 826 0
-40 -826 821 820 0
-64 -826 821 0
-64 826 -821 0
-41 -827 822 0
-41 -827 823 0
-41 827 -822 -823 0
-42 -827 822 0
-42 -827 824 0
-42 827 -822 -824 0
-43 -827 822 0
-43 -827 825 0
-43 827 -822 -825 0
-44 -827 822 0
-44 -827 826 0
-44 827 -822 -826 0
-45 -827 822 0
-45 827 -822 0
-46 -827 822 0
-46 827 -822 0
-47 -827 822 0
-47 827 -822 0
-48 -827 822 0
-48 827 -822 0
-49 -827 822 0
-49 827 -822 0
-50 -827 822 0
-50 827 -822 0
-65 -827 822 0
-65 827 -822 0
-41 -823 828 0
-41 -822 828 0
-41 -828 823 822 0
-42 -828 823 0
-42 828 -823 0
-43 -828 823 0
-43 828 -823 0
-44 -828 823 0
-44 828 -823 0
-45 -828 823 0
-45 -828 824 0
-45 828 -823 -824 0
-46 -828 823 0
-46 -828 825 0
-46 828 -823 -825 0
-47 -828 823 0
-47 -828 826 0
-47 828 -823 -826 0
-48 -828 823 0
-48 828 -823 0
-49 -828 823 0
-49 828 -823 0
-50 -828 823 0
-50 828 -823 0
-65 -828 823 0
-65 828 -823 0
-41 -829 824 0
-41 829 -824 0
-42 -824 829 0
-42 -822 829 0
-42 -829 824 822 0
-43 -829 824 0
-43 829 -824 0
-44 -829 824 0
-44 829 -824 0
-45 -824 829 0
-45 -823 829 0
-45 -829 824 823 0
-46 -829 824 0
-46 829 -824 0
-47 -829 824 0
-47 829 -824 0
-48 -829 824 0
-48 -829 825 0
-48 829 -824 -825 0
-49 -829 824 0
-49 -829 826 0
-49 829 -824 -826 0
-50 -829 824 0
-50 829 -824 0
-65 -829 824 0
-65 829 -824 0
-41 -830 825 0
-41 830 -825 0
-42 -830 825 0
-42 830 -825 0
-43 -825 830 0
-43 -822 830 0
-43 -830 825 822 0
-44 -830 825 0
-44 830 -825 0
-45 -830 825 0
-45 830 -825 0
-46 -825 830 0
-46 -823 830 0
-46 -830 825 823 0
-47 -830 825 0
-47 830 -825 0
-48 -825 830 0
-48 -824 830 0
-48 -830 825 824 0
-49 -830 825 0
-49 830 -825 0
-50 -830 825 0
-50 -830 826 0
-50 830 -825 -826 0
-65 -830 825 0
-65 830 -825 0
-41 -831 826 0
-41 831 -826 0
-42 -831 826 0
-42 831 -826 0
-43 -831 826 0
-43 831 -826 0
-44 -826 831 0
-44 -822 831 0
-44 -831 826 822 0
-45 -831 826 0
-45 831 -826 0
-46 -831 826 0
-46 831 -826 0
-47 -826 831 0
-47 -823 831 0
-47 -831 826 823 0
-48 -831 826 0
-48 831 -826 0
-49 -826 831 0
-49 -824 831 0
-49 -831 826 824 0
-50 -826 831 0
-50 -825 831 0
-50 -831 826 825 0
-65 -831 826 0
-65 831 -826 0
-51 -832 827 0
-51 -832 828 0
-51 832 -827 -828 0
-52 -832 827 0
-52 -832 829 0
-52 832 -827 -829 0
-53 -832 827 0
-53 -832 830 0
-53 832 -827 -830 0
-54 -832 827 0
-54 -832 831 0
-54 832 -827 -831 0
-55 -832 827 0
-55 832 -827 0
-56 -832 827 0
-56 832 -827 0
-57 -832 827 0
-57 832 -827 0
-58 -832 827 0
-58 832 -827 0
-59 -832 827 0
-59 832 -827 0
-60 -832 827 0
-60 832 -827 0
-66 -832 827 0
-66 832 -827 0
-51 -828 833 0
-51 -827 833 0
-51 -833 828 827 0
-52 -833 828 0
-52 833 -828 0
-53 -833 828 0
-53 833 -828 0
-54 -833 828 0
-54 833 -828 0
-55 -833 828 0
-55 -833 829 0
-55 833 -828 -829 0
-56 -833 828 0
-56 -833 830 0
-56 833 -828 -830 0
-57 -833 828 0
-57 -833 831 0
-57 833 -828 -831 0
-58 -833 828 0
-58 833 -828 0
-59 -833 828 0
-59 833 -828 0
-60 -833 828 0
-60 833 -828 0
-66 -833 828 0
-66 833 -828 0
-51 -834 829 0
-51 834 -829 0
-52 -829 834 0
-52 -827 834 0
-52 -834 829 827 0
-53 -834 829 0
-53 834 -829 0
-54 -834 829 0
-54 834 -829 0
-55 -829 834 0
-55 -828 834 0
-55 -834 829 828 0
-56 -834 829 0
-56 834 -829 0
-57 -834 829 0
-57 834 -829 0
-58 -834 829 0
-58 -834 830 0
-58 834 -829 -830 0
-59 -834 829 0
-59 -834 831 0
-59 834 -829 -831 0
-60 -834 829 0
-60 834 -829 0
-66 -834 829 0
-66 834 -829 0
-51 -835 830 0
-51 835 -830 0
-52 -835 830 0
-52 835 -830 0
-53 -830 835 0
-53 -827 835 0
-53 -835 830 827 0
-54 -835 830 0
-54 835 -830 0
-55 -835 830 0
-55 835 -830 0
-56 -830 835 0
-56 -828 835 0
-56 -835 830 828 0
-57 -835 830 0
-57 835 -830 0
-58 -830 835 0
-58 -829 835 0
-58 -835 830 829 0
-59 -835 830 0
-59 835 -830 0
-60 -835 830 0
-60 -835 831 0
-60 835 -830 -831 0
-66 -835 830 0
-66 835 -830 0
-51 -836 831 0
-51 836 -831 0
-52 -836 831 0
-52 836 -831 0
-53 -836 831 0
-53 836 -831 0
-54 -831 836 0
-54 -827 836 0
-54 -836 831 827 0
-55 -836 831 0
-55 836 -831 0
-56 -836 831 0
-56 836 -831 0
-57 -831 836 0
-57 -828 836 0
-57 -836 831 828 0
-58 -836 831 0
-58 836 -831 0
-59 -831 836 0
-59 -829 836 0
-59 -836 831 829 0
-60 -831 836 0
-60 -830 836 0
-60 -836 831 830 0
-66 -836 831 0
-66 836 -831 0
837 0
-1 -842 837 0
-1 -842 838 0
-1 842 -837 -838 0
-2 -842 837 0
-2 -842 839 0
-2 842 -837 -839 0
-3 -842 837 0
-3 -842 840 0
-3 842 -837 -840 0
-4 -842 837 0
-4 -842 841 0
-4 842 -837 -841 0
-5 -842 837 0
-5 842 -837 0
-6 -842 837 0
-6 842 -837 0
-7 -842 837 0
-7 842 -837 0
-8 -842 837 0
-8 842 -837 0
-9 -842 837 0
-9 842 -837 0
-10 -842 837 0
-10 842 -837 0
-61 -842 837 0
-61 842 -837 0
838 0
-1 -838 843 0
-1 -837 843 0
-1 -843 838 837 0
-2 -843 838 0
-2 843 -838 0
-3 -843 838 0
-3 843 -838 0
-4 -843 838 0
-4 843 -838 0
-5 -843 838 0
-5 -843 839 0
-5 843 -838 -839 0
-6 -843 838 0
-6 -843 840 0
-6 843 -838 -840 0
-7 -843 838 0
-7 -843 841 0
-7 843 -838 -841 0
-8 -843 838 0
-8 843 -838 0
-9 -843 838 0
-9 843 -838 0
-10 -843 838 0
-10 843 -838 0
-61 -843 838 0
-61 843 -838 0
-839 0
-1 -844 839 0
-1 844 -839 0
-2 -839 844 0
-2 -837 844 0
-2 -844 839 837 0
-3 -844 839 0
-3 844 -839 0
-4 -844 839 0
-4 844 -839 0
-5 -839 844 0
-5 -838 844 0
-5 -844 839 838 0
-6 -844 839 0
-6 844 -839 0
-7 -844 839 0
-7 844 -839 0
-8 -844 839 0
-8 -844 840 0
-8 844 -839 -840 0
-9 -844 839 0
-9 -844 841 0
-9 844 -839 -841 0
-10 -844 839 0
-10 844 -839 0
-61 -844 839 0
-61 844 -839 0
840 0
-1 -845 840 0
-1 845 -840 0
-2 -845 840 0
-2 845 -840 0
-3 -840 845 0
-3 -837 845 0
-3 -845 840 837 0
-4 -845 840 0
-4 845 -840 0
-5 -845 840 0
-5 845 -840 0
-6 -840 845 0
-6 -838 845 0
-6 -845 840 838 0
-7 -845 840 0
-7 845 -840 0
-8 -840 845 0
-8 -839 845 0
-8 -845 840 839 0
-9 -845 840 0
-9 845 -840 0
-10 -845 840 0
-10 -845 841 0
-10 845 -840 -841 0
-61 -845 840 0
-61 845 -840 0
841 0
-1 -846 841 0
-1 846 -841 0
-2 -846 841 0
-2 846 -841 0
-3 -846 841 0
-3 846 -841 0
-4 -841 846 0
-4 -837 846 0
-4 -846 841 837 0
-5 -846 841 0
-5 846 -841 0
-6 -846 841 0
-6 846 -841 0
-7 -841 846 0
-7 -838 846 0
-7 -846 841 838 0
-8 -846 841 0
-8 846 -841 0
-9 -841 846 0
-9 -839 846 0
-9 -846 841 839 0
-10 -841 846 0
-10 -840 846 0
-10 -846 841 840 0
-61 -846 841 0
-61 846 -841 0
-11 -847 842 0
-11 -847 843 0
-11 847 -842 -843 0
-12 -847 842 0
-12 -847 844 0
-12 847 -842 -844 0
-13 -847 842 0
-13 -847 845 0
-13 847 -842 -845 0
-14 -847 842 0
-14 -847 846 0
-14 847 -842 -846 0
-15 -847 842 0
-15 847 -842 0
-16 -847 842 0
-16 847 -842 0
-17 -847 842 0
-17 847 -842 0
-18 -847 842 0
-18 847 -842 0
-19 -847 842 0
-19 847 -842 0
-20 -847 842 0
-20 847 -842 0
-62 -847 842 0
-62 847 -842 0
-11 -843 848 0
-11 -842 848 0
-11 -848 843 842 0
-12 -848 843 0
-12 848 -843 0
-13 -848 843 0
-13 848 -843 0
-14 -848 843 0
-14 848 -843 0
-15 -848 843 0
-15 -848 844 0
-15 848 -843 -844 0
-16 -848 843 0
-16 -848 845 0
-16 848 -843 -845 0
-17 -848 843 0
-17 -848 846 0
-17 848 -843 -846 0
-18 -848 843 0
-18 848 -843 0
-19 -848 843 0
-19 848 -843 0
-20 -848 843 0
-20 848 -843 0
-62 -848 843 0
-62 848 -843 0
-11 -849 844 0
-11 849 -844 0
-12 -844 849 0
-12 -842 849 0
-12 -849 844 842 0
-13 -849 844 0
-13 849 -844 0
-14 -849 844 0
-14 849 -844 0
-15 -844 849 0
-15 -843 849 0
-15 -849 844 843 0
-16 -849 844 0
-16 849 -844 0
-17 -849 844 0
-17 849 -844 0
-18 -849 844 0
-18 -849 845 0
-18 849 -844 -845 0
-19 -849 844 0
-19 -849 846 0
-19 849 -844 -846 0
-20 -849 844 0
-20 849 -844 0
-62 -849 844 0
-62 849 -844 0
-11 -850 845 0
-11 850 -845 0
-12 -850 845 0
-12 850 -845 0
-13 -845 850 0
-13 -842 850 0
-13 -850 845 842 0
-14 -850 845 0
-14 850 -845 0
-15 -850 845 0
-15 850 -845 0
-16 -845 850 0
-16 -843 850 0
-16 -850 845 843 0
-17 -850 845 0
-17 850 -845 0
-18 -845 850 0
-18 -844 850 0
-18 -850 845 844 0
-19 -850 845 0
-19 850 -845 0
-20 -850 845 0
-20 -850 846 0
-20 850 -845 -846 0
-62 -850 845 0
-62 850 -845 0
-11 -851 846 0
-11 851 -846 0
-12 -851 846 0
-12 851 -846 0
-13 -851 846 0
-13 851 -846 0
-14 -846 851 0
-14 -842 851 0
-14 -851 846 842 0
-15 -851 846 0
-15 851 -846 0
-16 -851 846 0
-16 851 -846 0
-17 -846 851 0
-17 -843 851 0
-17 -851 846 843 0
-18 -851 846 0
-18 851 -846 0
-19 -846 851 0
-19 -844 851 0
-19 -851 846 844 0
-20 -846 851 0
-20 -845 851 0
-20 -851 846 845 0
-62 -851 846 0
-62 851 -846 0
-21 -852 847 0
-21 -852 848 0
-21 852 -847 -848 0
-22 -852 847 0
-22 -852 849 0
-22 852 -847 -849 0
-23 -852 847 0
-23 -852 850 0
-23 852 -847 -850 0
-24 -852 847 0
-24 -852 851 0
-24 852 -847 -851 0
-25 -852 847 0
-25 852 -847 0
-26 -852 847 0
-26 852 -847 0
-27 -852 847 0
-27 852 -847 0
-28 -852 847 0
-28 852 -847 0
-29 -852 847 0
-29 852 -847 0
-30 -852 847 0
-30 852 -847 0
-63 -852 847 0
-63 852 -847 0
-21 -848 853 0
-21 -847 853 0
-21 -853 848 847 0
-22 -853 848 0
-22 853 -848 0
-23 -853 848 0
-23 853 -848 0
-24 -853 848 0
-24 853 -848 0
-25 -853 848 0
-25 -853 849 0
-25 853 -848 -849 0
-26 -853 848 0
-26 -853 850 0
-26 853 -848 -850 0
-27 -853 848 0
-27 -853 851 0
-27 853 -848 -851 0
-28 -853 848 0
-28 853 -848 0
-29 -853 848 0
-29 853 -848 0
-30 -853 848 0
-30 853 -848 0
-63 -853 848 0
-63 853 -848 0
-21 -854 849 0
-21 854 -849 0
-22 -849 854 0
-22 -847 854 0
-22 -854 849 847 0
-23 -854 849 0
-23 854 -849 0
-24 -854 849 0
-24 854 -849 0
-25 -849 854 0
-25 -848 854 0
-25 -854 849 848 0
-26 -854 849 0
-26 854 -849 0
-27 -854 849 0
-27 854 -849 0
-28 -854 849 0
-28 -854 850 0
-28 854 -849 -850 0
-29 -854 849 0
-29 -854 851 0
-29 854 -849 -851 0
-30 -854 849 0
-30 854 -849 0
-63 -854 849 0
-63 854 -849 0
-21 -855 850 0
-21 855 -850 0
-22 -855 850 0
-22 855 -850 0
-23 -850 855 0
-23 -847 855 0
-23 -855 850 847 0
-24 -855 850 0
-24 855 -850 0
-25 -855 850 0
-25 855 -850 0
-26 -850 855 0
-26 -848 855 0
-26 -855 850 848 0
-27 -855 850 0
-27 855 -850 0
-28 -850 855 0
-28 -849 855 0
-28 -855 850 849 0
-29 -855 850 0
-29 855 -850 0
-30 -855 850 0
-30 -855 851 0
-30 855 -850 -851 0
-63 -855 850 0
-63 855 -850 0
-21 -856 851 0
-21 856 -851 0
-22 -856 851 0
-22 856 -851 0
-23 -856 851 0
-23 856 -851 0
-24 -851 856 0
-24 -847 856 0
-24 -856 851 847 0
-25 -856 851 0
-25 856 -851 0
-26 -856 851 0
-26 856 -851 0
-27 -851 856 0
-27 -848 856 0
-27 -856 851 848 0
-28 -856 851 0
-28 856 -851 0
-29 -851 856 0
-29 -849 856 0
-29 -856 851 849 0
-30 -851 856 0
-30 -850 856 0
-30 -856 851 850 0
-63 -856 851 0
-63 856 -851 0
-31 -857 852 0
-31 -857 853 0
-31 857 -852 -853 0
-32 -857 852 0
-32 -857 854 0
-32 857 -852 -854 0
-33 -857 852 0
-33 -857 855 0
-33 857 -852 -855 0
-34 -857 852 0
-34 -857 856 0
-34 857 -852 -856 0
-35 -857 852 0
-35 857 -852 0
-36 -857 852 0
-36 857 -852 0
-37 -857 852 0
-37 857 -852 0
-38 -857 852 0
-38 857 -852 0
-39 -857 852 0
-39 857 -852 0
-40 -857 852 0
-40 857 -852 0
-64 -857 852 0
-64 857 -852 0
-31 -853 858 0
-31 -852 858 0
-31 -858 853 852 0
-32 -858 853 0
-32 858 -853 0
-33 -858 853 0
-33 858 -853 0
-34 -858 853 0
-34 858 -853 0
-35 -858 853 0
-35 -858 854 0
-35 858 -853 -854 0
-36 -858 853 0
-36 -858 855 0
-36 858 -853 -855 0
-37 -858 853 0
-37 -858 856 0
-37 858 -853 -856 0
-38 -858 853 0
-38 858 -853 0
-39 -858 853 0
-39 858 -853 0
-40 -858 853 0
-40 858 -853 0
-64 -858 853 0
-64 858 -853 0
-31 -859 854 0
-31 859 -854 0
-32 -854 859 0
-32 -852 859 0
-32 -859 854 852 0
-33 -859 854 0
-33 859 -854 0
-34 -859 854 0
-34 859 -854 0
-35 -854 859 0
-35 -853 859 0
-35 -859 854 853 0
-36 -859 854 0
-36 859 -854 0
-37 -859 854 0
-37 859 -854 0
-38 -859 854 0
-38 -859 855 0
-38 859 -854 -855 0
-39 -859 854 0
-39 -859 856 0
-39 859 -854 -856 0
-40 -859 854 0
-40 859 -854 0
-64 -859 854 0
-64 859 -854 0
-31 -860 855 0
-31 860 -855 0
-32 -860 855 0
-32 860 -855 0
-33 -855 860 0
-33 -852 860 0
-33 -860 855 852 0
-34 -860 855 0
-34 860 -855 0
-35 -860 855 0
-35 860 -855 0
-36 -855 860 0
-36 -853 860 0
-36 -860 855 853 0
-37 -860 855 0
-37 860 -855 0
-38 -855 860 0
-38 -854 860 0
-38 -860 855 854 0
-39 -860 855 0
-39 860 -855 0
-40 -860 855 0
-40 -860 856 0
-40 860 -855 -856 0
-64 -860 855 0
-64 860 -855 0
-31 -861 856 0
-31 861 -856 0
-32 -861 856 0
-32 861 -856 0
-33 -861 856 0
-33 861 -856 0
-34 -856 861 0
-34 -852 861 0
-34 -861 856 852 0
-35 -861 856 0
-35 861 -856 0
-36 -861 856 0
-36 861 -856 0
-37 -856 861 0
-37 -853 861 0
-37 -861 856 853 0
-38 -861 856 0
-38 861 -856 0
-39 -856 861 0
-39 -854 861 0
-39 -861 856 854 0
-40 -856 861 0
-40 -855 861 0
-40 -861 856 855 0
-64 -861 856 0
-64 861 -856 0
-41 -862 857 0
-41 -862 858 0
-41 862 -857 -858 0
-42 -862 857 0
-42 -862 859 0
-42 862 -857 -859 0
-43 -862 857 0
-43 -862 860 0
-43 862 -857 -860 0
-44 -862 857 0
-44 -862 861 0
-44 862 -857 -861 0
-45 -862 857 0
-45 862 -857 0
-46 -862 857 0
-46 862 -857 0
-47 -862 857 0
-47 862 -857 0
-48 -862 857 0
-48 862 -857 0
-49 -862 857 0
-49 862 -857 0
-50 -862 857 0
-50 862 -857 0
-65 -862 857 0
-65 862 -857 0
-41 -858 863 0
-41 -857 863 0
-41 -863 858 857 0
-42 -863 858 0
-42 863 -858 0
-43 -863 858 0
-43 863 -858 0
-44 -863 858 0
-44 863 -858 0
-45 -863 858 0
-45 -863 859 0
-45 863 -858 -859 0
-46 -863 858 0
-46 -863 860 0
-46 863 -858 -860 0
-47 -863 858 0
-47 -863 861 0
-47 863 -858 -861 0
-48 -863 858 0
-48 863 -858 0
-49 -863 858 0
-49 863 -858 0
-50 -863 858 0
-50 863 -858 0
-65 -863 858 0
-65 863 -858 0
-41 -864 859 0
-41 864 -859 0
-42 -859 864 0
-42 -857 864 0
-42 -864 859 857 0
-43 -864 859 0
-43 864 -859 0
-44 -864 859 0
-44 864 -859 0
-45 -859 864 0
-45 -858 864 0
-45 -864 859 858 0
-46 -864 859 0
-46 864 -859 0
-47 -864 859 0
-47 864 -859 0
-48 -864 859 0
-48 -864 860 0
-48 864 -859 -860 0
-49 -864 859 0
-49 -864 861 0
-49 864 -859 -861 0
-50 -864 859 0
-50 864 -859 0
-65 -864 859 0
-65 864 -859 0
-41 -865 860 0
-41 865 -860 0
-42 -865 860 0
-42 865 -860 0
-43 -860 865 0
-43 -857 865 0
-43 -865 860 857 0
-44 -865 860 0
-44 865 -860 0
-45 -865 860 0
-45 865 -860 0
-46 -860 865 0
-46 -858 865 0
-46 -865 860 858 0
-47 -865 860 0
-47 865 -860 0
-48 -860 865 0
-48 -859 865 0
-48 -865 860 859 0
-49 -865 860 0
-49 865 -860 0
-50 -865 860 0
-50 -865 861 0
-50 865 -860 -861 0
-65 -865 860 0
-65 865 -860 0
-41 -866 861 0
-41 866 -861 0
-42 -866 861 0
-42 866 -861 0
-43 -866 861 0
-43 866 -861 0
-44 -861 866 0
-44 -857 866 0
-44 -866 861 857 0
-45 -866 861 0
-45 866 -861 0
-46 -866 861 0
-46 866 -861 0
-47 -861 866 0
-47 -858 866 0
-47 -866 861 858 0
-48 -866 861 0
-48 866 -861 0
-49 -861 866 0
-49 -859 866 0
-49 -866 861 859 0
-50 -861 866 0
-50 -860 866 0
-50 -866 861 860 0
-65 -866 861 0
-65 866 -861 0
-51 -867 862 0
-51 -867 863 0
-51 867 -862 -863 0
-52 -867 862 0
-52 -867 864 0
-52 867 -862 -864 0
-53 -867 862 0
-53 -867 865 0
-53 867 -862 -865 0
-54 -867 862 0
-54 -867 866 0
-54 867 -862 -866 0
-55 -867 862 0
-55 867 -862 0
-56 -867 862 0
-56 867 -862 0
-57 -867 862 0
-57 867 -862 0
-58 -867 862 0
-58 867 -862 0
-59 -867 862 0
-59 867 -862 0
-60 -867 862 0
-60 867 -862 0
-66 -867 862 0
-66 867 -862 0
-51 -863 868 0
-51 -862 868 0
-51 -868 863 862 0
-52 -868 863 0
-52 868 -863 0
-53 -868 863 0
-53 868 -863 0
-54 -868 863 0
-54 868 -863 0
-55 -868 863 0
-55 -868 864 0
-55 868 -863 -864 0
-56 -868 863 0
-56 -868 865 0
-56 868 -863 -865 0
-57 -868 863 0
-57 -868 866 0
-57 868 -863 -866 0
-58 -868 863 0
-58 868 -863 0
-59 -868 863 0
-59 868 -863 0
-60 -868 863 0
-60 868 -863 0
-66 -868 863 0
-66 868 -863 0
-51 -869 864 0
-51 869 -864 0
-52 -864 869 0
-52 -862 869 0
-52 -869 864 862 0
-53 -869 864 0
-53 869 -864 0
-54 -869 864 0
-54 869 -864 0
-55 -864 869 0
-55 -863 869 0
-55 -869 864 863 0
-56 -869 864 0
-56 869 -864 0
-57 -869 864 0
-57 869 -864 0
-58 -869 864 0
-58 -869 865 0
-58 869 -864 -865 0
-59 -869 864 0
-59 -869 866 0
-59 869 -864 -866 0
-60 -869 864 0
-60 869 -864 0
-66 -869 864 0
-66 869 -864 0
-51 -870 865 0
-51 870 -865 0
-52 -870 865 0
-52 870 -865 0
-53 -865 870 0
-53 -862 870 0
-53 -870 865 862 0
-54 -870 865 0
-54 870 -865 0
-55 -870 865 0
-55 870 -865 0
-56 -865 870 0
-56 -863 870 0
-56 -870 865 863 0
-57 -870 865 0
-57 870 -865 0
-58 -865 870 0
-58 -864 870 0
-58 -870 865 864 0
-59 -870 865 0
-59 870 -865 0
-60 -870 865 0
-60 -870 866 0
-60 870 -865 -866 0
-66 -870 865 0
-66 870 -865 0
-51 -871 866 0
-51 871 -866 0
-52 -871 866 0
-52 871 -866 0
-53 -871 866 0
-53 871 -866 0
-54 -866 871 0
-54 -862 871 0
-54 -871 866 862 0
-55 -871 866 0
-55 871 -866 0
-56 -871 866 0
-56 871 -866 0
-57 -866 871 0
-57 -863 871 0
-57 -871 866 863 0
-58 -871 866 0
-58 871 -866 0
-59 -866 871 0
-59 -864 871 0
-59 -871 866 864 0
-60 -866 871 0
-60 -865 871 0
-60 -871 866 865 0
-66 -871 866 0
-66 871 -866 0
872 0
-1 -877 872 0
-1 -877 873 0
-1 877 -872 -873 0
-2 -877 872 0
-2 -877 874 0
-2 877 -872 -874 0
-3 -877 872 0
-3 -877 875 0
-3 877 -872 -875 0
-4 -877 872 0
-4 -877 876 0
-4 877 -872 -876 0
-5 -877 872 0
-5 877 -872 0
-6 -877 872 0
-6 877 -872 0
-7 -877 872 0
-7 877 -872 0
-8 -877 872 0
-8 877 -872 0
-9 -877 872 0
-9 877 -872 0
-10 -877 872 0
-10 877 -872 0
-61 -877 872 0
-61 877 -872 0
873 0
-1 -873 878 0
-1 -872 878 0
-1 -878 873 872 0
-2 -878 873 0
-2 878 -873 0
-3 -878 873 0
-3 878 -873 0
-4 -878 873 0
-4 878 -873 0
-5 -878 873 0
-5 -878 874 0
-5 878 -873 -874 0
-6 -878 873 0
-6 -878 875 0
-6 878 -873 -875 0
-7 -878 873 0
-7 -878 876 0
-7 878 -873 -876 0
-8 -878 873 0
-8 878 -873 0
-9 -878 873 0
-9 878 -873 0
-10 -878 873 0
-10 878 -873 0
-61 -878 873 0
-61 878 -873 0
874 0
-1 -879 874 0
-1 879 -874 0
-2 -874 879 0
-2 -872 879 0
-2 -879 874 872 0
-3 -879 874 0
-3 879 -874 0
-4 -879 874 0
-4 879 -874 0
-5 -874 879 0
-5 -873 879 0
-5 -879 874 873 0
-6 -879 874 0
-6 879 -874 0
-7 -879 874 0
-7 879 -874 0
-8 -879 874 0
-8 -879 875 0
-8 879 -874 -875 0
-9 -879 874 0
-9 -879 876 0
-9 879 -874 -876 0
-10 -879 874 0
-10 879 -874 0
-61 -879 874 0
-61 879 -874 0
-875 0
-1 -880 875 0
-1 880 -875 0
-2 -880 875 0
-2 880 -875 0
-3 -875 880 0
-3 -872 880 0
-3 -880 875 872 0
-4 -880 875 0
-4 880 -875 0
-5 -880 875 0
-5 880 -875 0
-6 -875 880 0
-6 -873 880 0
-6 -880 875 873 0
-7 -880 875 0
-7 880 -875 0
-8 -875 880 0
-8 -874 880 0
-8 -880 875 874 0
-9 -880 875 0
-9 880 -875 0
-10 -880 875 0
-10 -880 876 0
-10 880 -875 -876 0
-61 -880 875 0
-61 880 -875 0
-876 0
-1 -881 876 0
-1 881 -876 0
-2 -881 876 0
-2 881 -876 0
-3 -881 876 0
-3 881 -876 0
-4 -876 881 0
-4 -872 881 0
-4 -881 876 872 0
-5 -881 876 0
-5 881 -876 0
-6 -881 876 0
-6 881 -876 0
-7 -876 881 0
-7 -873 881 0
-7 -881 876 873 0
-8 -881 876 0
-8 881 -876 0
-9 -876 881 0
-9 -874 881 0
-9 -881 876 874 0
-10 -876 881 0
-10 -875 881 0
-10 -881 876 875 0
-61 -881 876 0
-61 881 -876 0
-11 -882 877 0
-11 -882 878 0
-11 882 -877 -878 0
-12 -882 877 0
-12 -882 879 0
-12 882 -877 -879 0
-13 -882 877 0
-13 -882 880 0
-13 882 -877 -880 0
-14 -882 877 0
-14 -882 881 0
-14 882 -877 -881 0
-15 -882 877 0
-15 882 -877 0
-16 -882 877 0
-16 882 -877 0
-17 -882 877 0
-17 882 -877 0
-18 -882 877 0
-18 882 -877 0
-19 -882 877 0
-19 882 -877 0
-20 -882 877 0
-20 882 -877 0
-62 -882 877 0
-62 882 -877 0
-11 -878 883 0
-11 -877 883 0
-11 -883 878 877 0
-12 -883 878 0
-12 883 -878 0
-13 -883 878 0
-13 883 -878 0
-14 -883 878 0
-14 883 -878 0
-15 -883 878 0
-15 -883 879 0
-15 883 -878 -879 0
-16 -883 878 0
-16 -883 880 0
-16 883 -878 -880 0
-17 -883 878 0
-17 -883 881 0
-17 883 -878 -881 0
-18 -883 878 0
-18 883 -878 0
-19 -883 878 0
-19 883 -878 0
-20 -883 878 0
-20 883 -878 0
-62 -883 878 0
-62 883 -878 0
-11 -884 879 0
-11 884 -879 0
-12 -879 884 0
-12 -877 884 0
-12 -884 879 877 0
-13 -884 879 0
-13 884 -879 0
-14 -884 879 0
-14 884 -879 0
-15 -879 884 0
-15 -878 884 0
-15 -884 879 878 0
-16 -884 879 0
-16 884 -879 0
-17 -884 879 0
-17 884 -879 0
-18 -884 879 0
-18 -884 880 0
-18 884 -879 -880 0
-19 -884 879 0
-19 -884 881 0
-19 884 -879 -881 0
-20 -884 879 0
-20 884 -879 0
-62 -884 879 0
-62 884 -879 0
-11 -885 880 0
-11 885 -880 0
-12 -885 880 0
-12 885 -880 0
-13 -880 885 0
-13 -877 885 0
-13 -885 880 877 0
-14 -885 880 0
-14 885 -880 0
-15 -885 880 0
-15 885 -880 0
-16 -880 885 0
-16 -878 885 0
-16 -885 880 878 0
-17 -885 880 0
-17 885 -880 0
-18 -880 885 0
-18 -879 885 0
-18 -885 880 879 0
-19 -885 880 0
-19 885 -880 0
-20 -885 880 0
-20 -885 881 0
-20 885 -880 -881 0
-62 -885 880 0
-62 885 -880 0
-11 -886 881 0
-11 886 -881 0
-12 -886 881 0
-12 886 -881 0
-13 -886 881 0
-13 886 -881 0
-14 -881 886 0
-14 -877 886 0
-14 -886 881 877 0
-15 -886 881 0
-15 886 -881 0
-16 -886 881 0
-16 886 -881 0
-17 -881 886 0
-17 -878 886 0
-17 -886 881 878 0
-18 -886 881 0
-18 886 -881 0
-19 -881 886 0
-19 -879 886 0
-19 -886 881 879 0
-20 -881 886 0
-20 -880 886 0
-20 -886 881 880 0
-62 -886 881 0
-62 886 -881 0
-21 -887 882 0
-21 -887 883 0
-21 887 -882 -883 0
-22 -887 882 0
-22 -887 884 0
-22 887 -882 -884 0
-23 -887 882 0
-23 -887 885 0
-23 887 -882 -885 0
-24 -887 882 0
-24 -887 886 0
-24 887 -882 -886 0
-25 -887 882 0
-25 887 -882 0
-26 -887 882 0
-26 887 -882 0
-27 -887 882 0
-27 887 -882 0
-28 -887 882 0
-28 887 -882 0
-29 -887 882 0
-29 887 -882 0
-30 -887 882 0
-30 887 -882 0
-63 -887 882 0
-63 887 -882 0
-21 -883 888 0
-21 -882 888 0
-21 -888 883 882 0
-22 -888 883 0
-22 888 -883 0
-23 -888 883 0
-23 888 -883 0
-24 -888 883 0
-24 888 -883 0
-25 -888 883 0
-25 -888 884 0
-25 888 -883 -884 0
-26 -888 883 0
-26 -888 885 0
-26 888 -883 -885 0
-27 -888 883 0
-27 -888 886 0
-27 888 -883 -886 0
-28 -888 883 0
-28 888 -883 0
-29 -888 883 0
-29 888 -883 0
-30 -888 883 0
-30 888 -883 0
-63 -888 883 0
-63 888 -883 0
-21 -889 884 0
-21 889 -884 0
-22 -884 889 0
-22 -882 889 0
-22 -889 884 882 0
-23 -889 884 0
-23 889 -884 0
-24 -889 884 0
-24 889 -884 0
-25 -884 889 0
-25 -883 889 0
-25 -889 884 883 0
-26 -889 884 0
-26 889 -884 0
-27 -889 884 0
-27 889 -884 0
-28 -889 884 0
-28 -889 885 0
-28 889 -884 -885 0
-29 -889 884 0
-29 -889 886 0
-29 889 -884 -886 0
-30 -889 884 0
-30 889 -884 0
-63 -889 884 0
-63 889 -884 0
-21 -890 885 0
-21 890 -885 0
-22 -890 885 0
-22 890 -885 0
-23 -885 890 0
-23 -882 890 0
-23 -890 885 882 0
-24 -890 885 0
-24 890 -885 0
-25 -890 885 0
-25 890 -885 0
-26 -885 890 0
-26 -883 890 0
-26 -890 885 883 0
-27 -890 885 0
-27 890 -885 0
-28 -885 890 0
-28 -884 890 0
-28 -890 885 884 0
-29 -890 885 0
-29 890 -885 0
-30 -890 885 0
-30 -890 886 0
-30 890 -885 -886 0
-63 -890 885 0
-63 890 -885 0
-21 -891 886 0
-21 891 -886 0
-22 -891 886 0
-22 891 -886 0
-23 -891 886 0
-23 891 -886 0
-24 -886 891 0
-24 -882 891 0
-24 -891 886 882 0
-25 -891 886 0
-25 891 -886 0
-26 -891 886 0
-26 891 -886 0
-27 -886 891 0
-27 -883 891 0
-27 -891 886 883 0
-28 -891 886 0
-28 891 -886 0
-29 -886 891 0
-29 -884 891 0
-29 -891 886 884 0
-30 -886 891 0
-30 -885 891 0
-30 -891 886 885 0
-63 -891 886 0
-63 891 -886 0
-31 -892 887 0
-31 -892 888 0
-31 892 -887 -888 0
-32 -892 887 0
-32 -892 889 0
-32 892 -887 -889 0
-33 -892 887 0
-33 -892 890 0
-33 892 -887 -890 0
-34 -892 887 0
-34 -892 891 0
-34 892 -887 -891 0
-35 -892 887 0
-35 892 -887 0
-36 -892 887 0
-36 892 -887 0
-37 -892 887 0
-37 892 -887 0
-38 -892 887 0
-38 892 -887 0
-39 -892 887 0
-39 892 -887 0
-40 -892 887 0
-40 892 -887 0
-64 -892 887 0
-64 892 -887 0
-31 -888 893 0
-31 -887 893 0
-31 -893 888 887 0
-32 -893 888 0
-32 893 -888 0
-33 -893 888 0
-33 893 -888 0
-34 -893 888 0
-34 893 -888 0
-35 -893 888 0
-35 -893 889 0
-35 893 -888 -889 0
-36 -893 888 0
-36 -893 890 0
-36 893 -888 -890 0
-37 -893 888 0
-37 -893 891 0
-37 893 -888 -891 0
-38 -893 888 0
-38 893 -888 0
-39 -893 888 0
-39 893 -888 0
-40 -893 888 0
-40 893 -888 0
-64 -893 888 0
-64 893 -888 0
-31 -894 889 0
-31 894 -889 0
-32 -889 894 0
-32 -887 894 0
-32 -894 889 887 0
-33 -894 889 0
-33 894 -889 0
-34 -894 889 0
-34 894 -889 0
-35 -889 894 0
-35 -888 894 0
-35 -894 889 888 0
-36 -894 889 0
-36 894 -889 0
-37 -894 889 0
-37 894 -889 0
-38 -894 889 0
-38 -894 890 0
-38 894 -889 -890 0
-39 -894 889 0
-39 -894 891 0
-39 894 -889 -891 0
-40 -894 889 0
-40 894 -889 0
-64 -894 889 0
-64 894 -889 0
-31 -895 890 0
-31 895 -890 0
-32 -895 890 0
-32 895 -890 0
-33 -890 895 0
-33 -887 895 0
-33 -895 890 887 0
-34 -895 890 0
-34 895 -890 0
-35 -895 890 0
-35 895 -890 0
-36 -890 895 0
-36 -888 895 0
-36 -895 890 888 0
-37 -895 890 0
-37 895 -890 0
-38 -890 895 0
-38 -889 895 0
-38 -895 890 889 0
-39 -895 890 0
-39 895 -890 0
-40 -895 890 0
-40 -895 891 0
-40 895 -890 -891 0
-64 -895 890 0
-64 895 -890 0
-31 -896 891 0
-31 896 -891 0
-32 -896 891 0
-32 896 -891 0
-33 -896 891 0
-33 896 -891 0
-34 -891 896 0
-34 -887 896 0
-34 -896 891 887 0
-35 -896 891 0
-35 896 -891 0
-36 -896 891 0
-36 896 -891 0
-37 -891 896 0
-37 -888 896 0
-37 -896 891 888 0
-38 -896 891 0
-38 896 -891 0
-39 -891 896 0
-39 -889 896 0
-39 -896 891 889 0
-40 -891 896 0
-40 -890 896 0
-40 -896 891 890 0
-64 -896 891 0
-64 896 -891 0
-41 -897 892 0
-41 -897 893 0
-41 897 -892 -893 0
-42 -897 892 0
-42 -897 894 0
-42 897 -892 -894 0
-43 -897 892 0
-43 -897 895 0
-43 897 -892 -895 0
-44 -897 892 0
-44 -897 896 0
-44 897 -892 -896 0
-45 -897 892 0
-45 897 -892 0
-46 -897 892 0
-46 897 -892 0
-47 -897 892 0
-47 897 -892 0
-48 -897 892 0
-48 897 -892 0
-49 -897 892 0
-49 897 -892 0
-50 -897 892 0
-50 897 -892 0
-65 -897 892 0
-65 897 -892 0
-41 -893 898 0
-41 -892 898 0
-41 -898 893 892 0
-42 -898 893 0
-42 898 -893 0
-43 -898 893 0
-43 898 -893 0
-44 -898 893 0
-44 898 -893 0
-45 -898 893 0
-45 -898 894 0
-45 898 -893 -894 0
-46 -898 893 0
-46 -898 895 0
-46 898 -893 -895 0
-47 -898 893 0
-47 -898 896 0
-47 898 -893 -896 0
-48 -898 893 0
-48 898 -893 0
-49 -898 893 0
-49 898 -893 0
-50 -898 893 0
-50 898 -893 0
-65 -898 893 0
-65 898 -893 0
-41 -899 894 0
-41 899 -894 0
-42 -894 899 0
-42 -892 899 0
-42 -899 894 892 0
-43 -899 894 0
-43 899 -894 0
-44 -899 894 0
-44 899 -894 0
-45 -894 899 0
-45 -893 899 0
-45 -899 894 893 0
-46 -899 894 0
-46 899 -894 0
-47 -899 894 0
-47 899 -894 0
-48 -899 894 0
-48 -899 895 0
-48 899 -894 -895 0
-49 -899 894 0
-49 -899 896 0
-49 899 -894 -896 0
-50 -899 894 0
-50 899 -894 0
-65 -899 894 0
-65 899 -894 0
-41 -900 895 0
-41 900 -895 0
-42 -900 895 0
-42 900 -895 0
-43 -895 900 0
-43 -892 900 0
-43 -900 895 892 0
-44 -900 895 0
-44 900 -895 0
-45 -900 895 0
-45 900 -895 0
-46 -895 900 0
-46 -893 900 0
-46 -900 895 893 0
-47 -900 895 0
-47 900 -895 0
-48 -895 900 0
-48 -894 900 0
-48 -900 895 894 0
-49 -900 895 0
-49 900 -895 0
-50 -900 895 0
-50 -900 896 0
-50 900 -895 -896 0
-65 -900 895 0
-65 900 -895 0
-41 -901 896 0
-41 901 -896 0
-42 -901 896 0
-42 901 -896 0
-43 -901 896 0
-43 901 -896 0
-44 -896 901 0
-44 -892 901 0
-44 -901 896 892 0
-45 -901 896 0
-45 901 -896 0
-46 -901 896 0
-46 901 -896 0
-47 -896 901 0
-47 -893 901 0
-47 -901 896 893 0
-48 -901 896 0
-48 901 -896 0
-49 -896 901 0
-49 -894 901 0
-49 -901 896 894 0
-50 -896 901 0
-50 -895 901 0
-50 -901 896 895 0
-65 -901 896 0
-65 901 -896 0
-51 -902 897 0
-51 -902 898 0
-51 902 -897 -898 0
-52 -902 897 0
-52 -902 899 0
-52 902 -897 -899 0
-53 -902 897 0
-53 -902 900 0
-53 902 -897 -900 0
-54 -902 897 0
-54 -902 901 0
-54 902 -897 -901 0
-55 -902 897 0
-55 902 -897 0
-56 -902 897 0
-56 902 -897 0
-57 -902 897 0
-57 902 -897 0
-58 -902 897 0
-58 902 -897 0
-59 -902 897 0
-59 902 -897 0
-60 -902 897 0
-60 902 -897 0
-66 -902 897 0
-66 902 -897 0
-51 -898 903 0
-51 -897 903 0
-51 -903 898 897 0
-52 -903 898 0
-52 903 -898 0
-53 -903 898 0
-53 903 -898 0
-54 -903 898 0
-54 903 -898 0
-55 -903 898 0
-55 -903 899 0
-55 903 -898 -899 0
-56 -903 898 0
-56 -903 900 0
-56 903 -898 -900 0
-57 -903 898 0
-57 -903 901 0
-57 903 -898 -901 0
-58 -903 898 0
-58 903 -898 0
-59 -903 898 0
-59 903 -898 0
-60 -903 898 0
-60 903 -898 0
-66 -903 898 0
-66 903 -898 0
-51 -904 899 0
-51 904 -899 0
-52 -899 904 0
-52 -897 904 0
-52 -904 899 897 0
-53 -904 899 0
-53 904 -899 0
-54 -904 899 0
-54 904 -899 0
-55 -899 904 0
-55 -898 904 0
-55 -904 899 898 0
-56 -904 899 0
-56 904 -899 0
-57 -904 899 0
-57 904 -899 0
-58 -904 899 0
-58 -904 900 0
-58 904 -899 -900 0
-59 -904 899 0
-59 -904 901 0
-59 904 -899 -901 0
-60 -904 899 0
-60 904 -899 0
-66 -904 899 0
-66 904 -899 0
-51 -905 900 0
-51 905 -900 0
-52 -905 900 0
-52 905 -900 0
-53 -900 905 0
-53 -897 905 0
-53 -905 900 897 0
-54 -905 900 0
-54 905 -900 0
-55 -905 900 0
-55 905 -900 0
-56 -900 905 0
-56 -898 905 0
-56 -905 900 898 0
-57 -905 900 0
-57 905 -900 0
-58 -900 905 0
-58 -899 905 0
-58 -905 900 899 0
-59 -905 900 0
-59 905 -900 0
-60 -905 900 0
-60 -905 901 0
-60 905 -900 -901 0
-66 -905 900 0
-66 905 -900 0
-51 -906 901 0
-51 906 -901 0
-52 -906 901 0
-52 906 -901 0
-53 -906 901 0
-53 906 -901 0
-54 -901 906 0
-54 -897 906 0
-54 -906 901 897 0
-55 -906 901 0
-55 906 -901 0
-56 -906 901 0
-56 906 -901 0
-57 -901 906 0
-57 -898 906 0
-57 -906 901 898 0
-58 -906 901 0
-58 906 -901 0
-59 -901 906 0
-59 -899 906 0
-59 -906 901 899 0
-60 -901 906 0
-60 -900 906 0
-60 -906 901 900 0
-66 -906 901 0
-66 906 -901 0
907 0
-1 -912 907 0
-1 -912 908 0
-1 912 -907 -908 0
-2 -912 907 0
-2 -912 909 0
-2 912 -907 -909 0
-3 -912 907 0
-3 -912 910 0
-3 912 -907 -910 0
-4 -912 907 0
-4 -912 911 0
-4 912 -907 -911 0
-5 -912 907 0
-5 912 -907 0
-6 -912 907 0
-6 912 -907 0
-7 -912 907 0
-7 912 -907 0
-8 -912 907 0
-8 912 -907 0
-9 -912 907 0
-9 912 -907 0
-10 -912 907 0
-10 912 -907 0
-61 -912 907 0
-61 912 -907 0
908 0
-1 -908 913 0
-1 -907 913 0
-1 -913 908 907 0
-2 -913 908 0
-2 913 -908 0
-3 -913 908 0
-3 913 -908 0
-4 -913 908 0
-4 913 -908 0
-5 -913 908 0
-5 -913 909 0
-5 913 -908 -909 0
-6 -913 908 0
-6 -913 910 0
-6 913 -908 -910 0
-7 -913 908 0
-7 -913 911 0
-7 913 -908 -911 0
-8 -913 908 0
-8 913 -908 0
-9 -913 908 0
-9 913 -908 0
-10 -913 908 0
-10 913 -908 0
-61 -913 908 0
-61 913 -908 0
909 0
-1 -914 909 0
-1 914 -909 0
-2 -909 914 0
-2 -907 914 0
-2 -914 909 907 0
-3 -914 909 0
-3 914 -909 0
-4 -914 909 0
-4 914 -909 0
-5 -909 914 0
-5 -908 914 0
-5 -914 909 908 0
-6 -914 909 0
-6 914 -909 0
-7 -914 909 0
-7 914 -909 0
-8 -914 909 0
-8 -914 910 0
-8 914 -909 -910 0
-9 -914 909 0
-9 -914 911 0
-9 914 -909 -911 0
-10 -914 909 0
-10 914 -909 0
-61 -914 909 0
-61 914 -909 0
-910 0
-1 -915 910 0
-1 915 -910 0
-2 -915 910 0
-2 915 -910 0
-3 -910 915 0
-3 -907 915 0
-3 -915 910 907 0
-4 -915 910 0
-4 915 -910 0
-5 -915 910 0
-5 915 -910 0
-6 -910 915 0
-6 -908 915 0
-6 -915 910 908 0
-7 -915 910 0
-7 915 -910 0
-8 -910 915 0
-8 -909 915 0
-8 -915 910 909 0
-9 -915 910 0
-9 915 -910 0
-10 -915 910 0
-10 -915 911 0
-10 915 -910 -911 0
-61 -915 910 0
-61 915 -910 0
911 0
-1 -916 911 0
-1 916 -911 0
-2 -916 911 0
-2 916 -911 0
-3 -916 911 0
-3 916 -911 0
-4 -911 916 0
-4 -907 916 0
-4 -916 911 907 0
-5 -916 911 0
-5 916 -911 0
-6 -916 911 0
-6 916 -911 0
-7 -911 916 0
-7 -908 916 0
-7 -916 911 908 0
-8 -916 911 0
-8 916 -911 0
-9 -911 916 0
-9 -909 916 0
-9 -916 911 909 0
-10 -911 916 0
-10 -910 916 0
-10 -916 911 910 0
-61 -916 911 0
-61 916 -911 0
-11 -917 912 0
-11 -917 913 0
-11 917 -912 -913 0
-12 -917 912 0
-12 -917 914 0
-12 917 -912 -914 0
-13 -917 912 0
-13 -917 915 0
-13 917 -912 -915 0
-14 -917 912 0
-14 -917 916 0
-14 917 -912 -916 0
-15 -917 912 0
-15 917 -912 0
-16 -917 912 0
-16 917 -912 0
-17 -917 912 0
-17 917 -912 0
-18 -917 912 0
-18 917 -912 0
-19 -917 912 0
-19 917 -912 0
-20 -917 912 0
-20 917 -912 0
-62 -917 912 0
-62 917 -912 0
-11 -913 918 0
-11 -912 918 0
-11 -918 913 912 0
-12 -918 913 0
-12 918 -913 0
-13 -918 913 0
-13 918 -913 0
-14 -918 913 0
-14 918 -913 0
-15 -918 913 0
-15 -918 914 0
-15 918 -913 -914 0
-16 -918 913 0
-16 -918 915 0
-16 918 -913 -915 0
-17 -918 913 0
-17 -918 916 0
-17 918 -913 -916 0
-18 -918 913 0
-18 918 -913 0
-19 -918 913 0
-19 918 -913 0
-20 -918 913 0
-20 918 -913 0
-62 -918 913 0
-62 918 -913 0
-11 -919 914 0
-11 919 -914 0
-12 -914 919 0
-12 -912 919 0
-12 -919 914 912 0
-13 -919 914 0
-13 919 -914 0
-14 -919 914 0
-14 919 -914 0
-15 -914 919 0
-15 -913 919 0
-15 -919 914 913 0
-16 -919 914 0
-16 919 -914 0
-17 -919 914 0
-17 919 -914 0
-18 -919 914 0
-18 -919 915 0
-18 919 -914 -915 0
-19 -919 914 0
-19 -919 916 0
-19 919 -914 -916 0
-20 -919 914 0
-20 919 -914 0
-62 -919 914 0
-62 919 -914 0
-11 -920 915 0
-11 920 -915 0
-12 -920 915 0
-12 920 -915 0
-13 -915 920 0
-13 -912 920 0
-13 -920 915 912 0
-14 -920 915 0
-14 920 -915 0
-15 -920 915 0
-15 920 -915 0
-16 -915 920 0
-16 -913 920 0
-16 -920 915 913 0
-17 -920 915 0
-17 920 -915 0
-18 -915 920 0
-18 -914 920 0
-18 -920 915 914 0
-19 -920 915 0
-19 920 -915 0
-20 -920 915 0
-20 -920 916 0
-20 920 -915 -916 0
-62 -920 915 0
-62 920 -915 0
-11 -921 916 0
-11 921 -916 0
-12 -921 916 0
-12 921 -916 0
-13 -921 916 0
-13 921 -916 0
-14 -916 921 0
-14 -912 921 0
-14 -921 916 912 0
-15 -921 916 0
-15 921 -916 0
-16 -921 916 0
-16 921 -916 0
-17 -916 921 0
-17 -913 921 0
-17 -921 916 913 0
-18 -921 916 0
-18 921 -916 0
-19 -916 921 0
-19 -914 921 0
-19 -921 916 914 0
-20 -916 921 0
-20 -915 921 0
-20 -921 916 915 0
-62 -921 916 0
-62 921 -916 0
-21 -922 917 0
-21 -922 918 0
-21 922 -917 -918 0
-22 -922 917 0
-22 -922 919 0
-22 922 -917 -919 0
-23 -922 917 0
-23 -922 920 0
-23 922 -917 -920 0
-24 -922 917 0
-24 -922 921 0
-24 922 -917 -921 0
-25 -922 917 0
-25 922 -917 0
-26 -922 917 0
-26 922 -917 0
-27 -922 917 0
-27 922 -917 0
-28 -922 917 0
-28 922 -917 0
-29 -922 917 0
-29 922 -917 0
-30 -922 917 0
-30 922 -917 0
-63 -922 917 0
-63 922 -917 0
-21 -918 923 0
-21 -917 923 0
-21 -923 918 917 0
-22 -923 918 0
-22 923 -918 0
-23 -923 918 0
-23 923 -918 0
-24 -923 918 0
-24 923 -918 0
-25 -923 918 0
-25 -923 919 0
-25 923 -918 -919 0
-26 -923 918 0
-26 -923 920 0
-26 923 -918 -920 0
-27 -923 918 0
-27 -923 921 0
-27 923 -918 -921 0
-28 -923 918 0
-28 923 -918 0
-29 -923 918 0
-29 923 -918 0
-30 -923 918 0
-30 923 -918 0
-63 -923 918 0
-63 923 -918 0
-21 -924 919 0
-21 924 -919 0
-22 -919 924 0
-22 -917 924 0
-22 -924 919 917 0
-23 -924 919 0
-23 924 -919 0
-24 -924 919 0
-24 924 -919 0
-25 -919 924 0
-25 -918 924 0
-25 -924 919 918 0
-26 -924 919 0
-26 924 -919 0
-27 -924 919 0
-27 924 -919 0
-28 -924 919 0
-28 -924 920 0
-28 924 -919 -920 0
-29 -924 919 0
-29 -924 921 0
-29 924 -919 -921 0
-30 -924 919 0
-30 924 -919 0
-63 -924 919 0
-63 924 -919 0
-21 -925 920 0
-21 925 -920 0
-22 -925 920 0
-22 925 -920 0
-23 -920 925 0
-23 -917 925 0
-23 -925 920 917 0
-24 -925 920 0
-24 925 -920 0
-25 -925 920 0
-25 925 -920 0
-26 -920 925 0
-26 -918 925 0
-26 -925 920 918 0
-27 -925 920 0
-27 925 -920 0
-28 -920 925 0
-28 -919 925 0
-28 -925 920 919 0
-29 -925 920 0
-29 925 -920 0
-30 -925 920 0
-30 -925 921 0
-30 925 -920 -921 0
-63 -925 920 0
-63 925 -920 0
-21 -926 921 0
-21 926 -921 0
-22 -926 921 0
-22 926 -921 0
-23 -926 921 0
-23 926 -921 0
-24 -921 926 0
-24 -917 926 0
-24 -926 921 917 0
-25 -926 921 0
-25 926 -921 0
-26 -926 921 0
-26 926 -921 0
-27 -921 926 0
-27 -918 926 0
-27 -926 921 918 0
-28 -926 921 0
-28 926 -921 0
-29 -921 926 0
-29 -919 926 0
-29 -926 921 919 0
-30 -921 926 0
-30 -920 926 0
-30 -926 921 920 0
-63 -926 921 0
-63 926 -921 0
-31 -927 922 0
-31 -927 923 0
-31 927 -922 -923 0
-32 -927 922 0
-32 -927 924 0
-32 927 -922 -924 0
-33 -927 922 0
-33 -927 925 0
-33 927 -922 -925 0
-34 -927 922 0
-34 -927 926 0
-34 927 -922 -926 0
-35 -927 922 0
-35 927 -922 0
-36 -927 922 0
-36 927 -922 0
-37 -927 922 0
-37 927 -922 0
-38 -927 922 0
-38 927 -922 0
-39 -927 922 0
-39 927 -922 0
-40 -927 922 0
-40 927 -922 0
-64 -927 922 0
-64 927 -922 0
-31 -923 928 0
-31 -922 928 0
-31 -928 923 922 0
-32 -928 923 0
-32 928 -923 0
-33 -928 923 0
-33 928 -923 0
-34 -928 923 0
-34 928 -923 0
-35 -928 923 0
-35 -928 924 0
-35 928 -923 -924 0
-36 -928 923 0
-36 -928 925 0
-36 928 -923 -925 0
-37 -928 923 0
-37 -928 926 0
-37 928 -923 -926 0
-38 -928 923 0
-38 928 -923 0
-39 -928 923 0
-39 928 -923 0
-40 -928 923 0
-40 928 -923 0
-64 -928 923 0
-64 928 -923 0
-31 -929 924 0
-31 929 -924 0
-32 -924 929 0
-32 -922 929 0
-32 -929 924 922 0
-33 -929 924 0
-33 929 -924 0
-34 -929 924 0
-34 929 -924 0
-35 -924 929 0
-35 -923 929 0
-35 -929 924 923 0
-36 -929 924 0
-36 929 -924 0
-37 -929 924 0
-37 929 -924 0
-38 -929 924 0
-38 -929 925 0
-38 929 -924 -925 0
-39 -929 924 0
-39 -929 926 0
-39 929 -924 -926 0
-40 -929 924 0
-40 929 -924 0
-64 -929 924 0
-64 929 -924 0
-31 -930 925 0
-31 930 -925 0
-32 -930 925 0
-32 930 -925 0
-33 -925 930 0
-33 -922 930 0
-33 -930 925 922 0
-34 -930 925 0
-34 930 -925 0
-35 -930 925 0
-35 930 -925 0
-36 -925 930 0
-36 -923 930 0
-36 -930 925 923 0
-37 -930 925 0
-37 930 -925 0
-38 -925 930 0
-38 -924 930 0
-38 -930 925 924 0
-39 -930 925 0
-39 930 -925 0
-40 -930 925 0
-40 -930 926 0
-40 930 -925 -926 0
-64 -930 925 0
-64 930 -925 0
-31 -931 926 0
-31 931 -926 0
-32 -931 926 0
-32 931 -926 0
-33 -931 926 0
-33 931 -926 0
-34 -926 931 0
-34 -922 931 0
-34 -931 926 922 0
-35 -931 926 0
-35 931 -926 0
-36 -931 926 0
-36 931 -926 0
-37 -926 931 0
-37 -923 931 0
-37 -931 926 923 0
-38 -931 926 0
-38 931 -926 0
-39 -926 931 0
-39 -924 931 0
-39 -931 926 924 0
-40 -926 931 0
-40 -925 931 0
-40 -931 926 925 0
-64 -931 926 0
-64 931 -926 0
-41 -932 927 0
-41 -932 928 0
-41 932 -927 -928 0
-42 -932 927 0
-42 -932 929 0
-42 932 -927 -929 0
-43 -932 927 0
-43 -932 930 0
-43 932 -927 -930 0
-44 -932 927 0
-44 -932 931 0
-44 932 -927 -931 0
-45 -932 927 0
-45 932 -927 0
-46 -932 927 0
-46 932 -927 0
-47 -932 927 0
-47 932 -927 0
-48 -932 927 0
-48 932 -927 0
-49 -932 927 0
-49 932 -927 0
-50 -932 927 0
-50 932 -927 0
-65 -932 927 0
-65 932 -927 0
-41 -928 933 0
-41 -927 933 0
-41 -933 928 927 0
-42 -933 928 0
-42 933 -928 0
-43 -933 928 0
-43 933 -928 0
-44 -933 928 0
-44 933 -928 0
-45 -933 928 0
-45 -933 929 0
-45 933 -928 -929 0
-46 -933 928 0
-46 -933 930 0
-46 933 -928 -930 0
-47 -933 928 0
-47 -933 931 0
-47 933 -928 -931 0
-48 -933 928 0
-48 933 -928 0
-49 -933 928 0
-49 933 -928 0
-50 -933 928 0
-50 933 -928 0
-65 -933 928 0
-65 933 -928 0
-41 -934 929 0
-41 934 -929 0
-42 -929 934 0
-42 -927 934 0
-42 -934 929 927 0
-43 -934 929 0
-43 934 -929 0
-44 -934 929 0
-44 934 -929 0
-45 -929 934 0
-45 -928 934 0
-45 -934 929 928 0
-46 -934 929 0
-46 934 -929 0
-47 -934 929 0
-47 934 -929 0
-48 -934 929 0
-48 -934 930 0
-48 934 -929 -930 0
-49 -934 929 0
-49 -934 931 0
-49 934 -929 -931 0
-50 -934 929 0
-50 934 -929 0
-65 -934 929 0
-65 934 -929 0
-41 -935 930 0
-41 935 -930 0
-42 -935 930 0
-42 935 -930 0
-43 -930 935 0
-43 -927 935 0
-43 -935 930 927 0
-44 -935 930 0
-44 935 -930 0
-45 -935 930 0
-45 935 -930 0
-46 -930 935 0
-46 -928 935 0
-46 -935 930 928 0
-47 -935 930 0
-47 935 -930 0
-48 -930 935 0
-48 -929 935 0
-48 -935 930 929 0
-49 -935 930 0
-49 935 -930 0
-50 -935 930 0
-50 -935 931 0
-50 935 -930 -931 0
-65 -935 930 0
-65 935 -930 0
-41 -936 931 0
-41 936 -931 0
-42 -936 931 0
-42 936 -931 0
-43 -936 931 0
-43 936 -931 0
-44 -931 936 0
-44 -927 936 0
-44 -936 931 927 0
-45 -936 931 0
-45 936 -931 0
-46 -936 931 0
-46 936 -931 0
-47 -931 936 0
-47 -928 936 0
-47 -936 931 928 0
-48 -936 931 0
-48 936 -931 0
-49 -931 936 0
-49 -929 936 0
-49 -936 931 929 0
-50 -931 936 0
-50 -930 936 0
-50 -936 931 930 0
-65 -936 931 0
-65 936 -931 0
-51 -937 932 0
-51 -937 933 0
-51 937 -932 -933 0
-52 -937 932 0
-52 -937 934 0
-52 937 -932 -934 0
-53 -937 932 0
-53 -937 935 0
-53 937 -932 -935 0
-54 -937 932 0
-54 -937 936 0
-54 937 -932 -936 0
-55 -937 932 0
-55 937 -932 0
-56 -937 932 0
-56 937 -932 0
-57 -937 932 0
-57 937 -932 0
-58 -937 932 0
-58 937 -932 0
-59 -937 932 0
-59 937 -932 0
-60 -937 932 0
-60 937 -932 0
-66 -937 932 0
-66 937 -932 0
-51 -933 938 0
-51 -932 938 0
-51 -938 933 932 0
-52 -938 933 0
-52 938 -933 0
-53 -938 933 0
-53 938 -933 0
-54 -938 933 0
-54 938 -933 0
-55 -938 933 0
-55 -938 934 0
-55 938 -933 -934 0
-56 -938 933 0
-56 -938 935 0
-56 938 -933 -935 0
-57 -938 933 0
-57 -938 936 0
-57 938 -933 -936 0
-58 -938 933 0
-58 938 -933 0
-59 -938 933 0
-59 938 -933 0
-60 -938 933 0
-60 938 -933 0
-66 -938 933 0
-66 938 -933 0
-51 -939 934 0
-51 939 -934 0
-52 -934 939 0
-52 -932 939 0
-52 -939 934 932 0
-53 -939 934 0
-53 939 -934 0
-54 -939 934 0
-54 939 -934 0
-55 -934 939 0
-55 -933 939 0
-55 -939 934 933 0
-56 -939 934 0
-56 939 -934 0
-57 -939 934 0
-57 939 -934 0
-58 -939 934 0
-58 -939 935 0
-58 939 -934 -935 0
-59 -939 934 0
-59 -939 936 0
-59 939 -934 -936 0
-60 -939 934 0
-60 939 -934 0
-66 -939 934 0
-66 939 -934 0
-51 -940 935 0
-51 940 -935 0
-52 -940 935 0
-52 940 -935 0
-53 -935 940 0
-53 -932 940 0
-53 -940 935 932 0
-54 -940 935 0
-54 940 -935 0
-55 -940 935 0
-55 940 -935 0
-56 -935 940 0
-56 -933 940 0
-56 -940 935 933 0
-57 -940 935 0
-57 940 -935 0
-58 -935 940 0
-58 -934 940 0
-58 -940 935 934 0
-59 -940 935 0
-59 940 -935 0
-60 -940 935 0
-60 -940 936 0
-60 940 -935 -936 0
-66 -940 935 0
-66 940 -935 0
-51 -941 936 0
-51 941 -936 0
-52 -941 936 0
-52 941 -936 0
-53 -941 936 0
-53 941 -936 0
-54 -936 941 0
-54 -932 941 0
-54 -941 936 932 0
-55 -941 936 0
-55 941 -936 0
-56 -941 936 0
-56 941 -936 0
-57 -936 941 0
-57 -933 941 0
-57 -941 936 933 0
-58 -941 936 0
-58 941 -936 0
-59 -936 941 0
-59 -934 941 0
-59 -941 936 934 0
-60 -936 941 0
-60 -935 941 0
-60 -941 936 935 0
-66 -941 936 0
-66 941 -936 0
942 0
-1 -947 942 0
-1 -947 943 0
-1 947 -942 -943 0
-2 -947 942 0
-2 -947 944 0
-2 947 -942 -944 0
-3 -947 942 0
-3 -947 945 0
-3 947 -942 -945 0
-4 -947 942 0
-4 -947 946 0
-4 947 -942 -946 0
-5 -947 942 0
-5 947 -942 0
-6 -947 942 0
-6 947 -942 0
-7 -947 942 0
-7 947 -942 0
-8 -947 942 0
-8 947 -942 0
-9 -947 942 0
-9 947 -942 0
-10 -947 942 0
-10 947 -942 0
-61 -947 942 0
-61 947 -942 0
943 0
-1 -943 948 0
-1 -942 948 0
-1 -948 943 942 0
-2 -948 943 0
-2 948 -943 0
-3 -948 943 0
-3 948 -943 0
-4 -948 943 0
-4 948 -943 0
-5 -948 943 0
-5 -948 944 0
-5 948 -943 -944 0
-6 -948 943 0
-6 -948 945 0
-6 948 -943 -945 0
-7 -948 943 0
-7 -948 946 0
-7 948 -943 -946 0
-8 -948 943 0
-8 948 -943 0
-9 -948 943 0
-9 948 -943 0
-10 -948 943 0
-10 948 -943 0
-61 -948 943 0
-61 948 -943 0
944 0
-1 -949 944 0
-1 949 -944 0
-2 -944 949 0
-2 -942 949 0
-2 -949 944 942 0
-3 -949 944 0
-3 949 -944 0
-4 -949 944 0
-4 949 -944 0
-5 -944 949 0
-5 -943 949 0
-5 -949 944 943 0
-6 -949 944 0
-6 949 -944 0
-7 -949 944 0
-7 949 -944 0
-8 -949 944 0
-8 -949 945 0
-8 949 -944 -945 0
-9 -949 944 0
-9 -949 946 0
-9 949 -944 -946 0
-10 -949 944 0
-10 949 -944 0
-61 -949 944 0
-61 949 -944 0
945 0
-1 -950 945 0
-1 950 -945 0
-2 -950 945 0
-2 950 -945 0
-3 -945 950 0
-3 -942 950 0
-3 -950 945 942 0
-4 -950 945 0
-4 950 -945 0
-5 -950 945 0
-5 950 -945 0
-6 -945 950 0
-6 -943 950 0
-6 -950 945 943 0
-7 -950 945 0
-7 950 -945 0
-8 -945 950 0
-8 -944 950 0
-8 -950 945 944 0
-9 -950 945 0
-9 950 -945 0
-10 -950 945 0
-10 -950 946 0
-10 950 -945 -946 0
-61 -950 945 0
-61 950 -945 0
-946 0
-1 -951 946 0
-1 951 -946 0
-2 -951 946 0
-2 951 -946 0
-3 -951 946 0
-3 951 -946 0
-4 -946 951 0
-4 -942 951 0
-4 -951 946 942 0
-5 -951 946 0
-5 951 -946 0
-6 -951 946 0
-6 951 -946 0
-7 -946 951 0
-7 -943 951 0
-7 -951 946 943 0
-8 -951 946 0
-8 951 -946 0
-9 -946 951 0
-9 -944 951 0
-9 -951 946 944 0
-10 -946 951 0
-10 -945 951 0
-10 -951 946 945 0
-61 -951 946 0
-61 951 -946 0
-11 -952 947 0
-11 -952 948 0
-11 952 -947 -948 0
-12 -952 947 0
-12 -952 949 0
-12 952 -947 -949 0
-13 -952 947 0
-13 -952 950 0
-13 952 -947 -950 0
-14 -952 947 0
-14 -952 951 0
-14 952 -947 -951 0
-15 -952 947 0
-15 952 -947 0
-16 -952 947 0
-16 952 -947 0
-17 -952 947 0
-17 952 -947 0
-18 -952 947 0
-18 952 -947 0
-19 -952 947 0
-19 952 -947 0
-20 -952 947 0
-20 952 -947 0
-62 -952 947 0
-62 952 -947 0
-11 -948 953 0
-11 -947 953 0
-11 -953 948 947 0
-12 -953 948 0
-12 953 -948 0
-13 -953 948 0
-13 953 -948 0
-14 -953 948 0
-14 953 -948 0
-15 -953 948 0
-15 -953 949 0
-15 953 -948 -949 0
-16 -953 948 0
-16 -953 950 0
-16 953 -948 -950 0
-17 -953 948 0
-17 -953 951 0
-17 953 -948 -951 0
-18 -953 948 0
-18 953 -948 0
-19 -953 948 0
-19 953 -948 0
-20 -953 948 0
-20 953 -948 0
-62 -953 948 0
-62 953 -948 0
-11 -954 949 0
-11 954 -949 0
-12 -949 954 0
-12 -947 954 0
-12 -954 949 947 0
-13 -954 949 0
-13 954 -949 0
-14 -954 949 0
-14 954 -949 0
-15 -949 954 0
-15 -948 954 0
-15 -954 949 948 0
-16 -954 949 0
-16 954 -949 0
-17 -954 949 0
-17 954 -949 0
-18 -954 949 0
-18 -954 950 0
-18 954 -949 -950 0
-19 -954 949 0
-19 -954 951 0
-19 954 -949 -951 0
-20 -954 949 0
-20 954 -949 0
-62 -954 949 0
-62 954 -949 0
-11 -955 950 0
-11 955 -950 0
-12 -955 950 0
-12 955 -950 0
-13 -950 955 0
-13 -947 955 0
-13 -955 950 947 0
-14 -955 950 0
-14 955 -950 0
-15 -955 950 0
-15 955 -950 0
-16 -950 955 0
-16 -948 955 0
-16 -955 950 948 0
-17 -955 950 0
-17 955 -950 0
-18 -950 955 0
-18 -949 955 0
-18 -955 950 949 0
-19 -955 950 0
-19 955 -950 0
-20 -955 950 0
-20 -955 951 0
-20 955 -950 -951 0
-62 -955 950 0
-62 955 -950 0
-11 -956 951 0
-11 956 -951 0
-12 -956 951 0
-12 956 -951 0
-13 -956 951 0
-13 956 -951 0
-14 -951 956 0
-14 -947 956 0
-14 -956 951 947 0
-15 -956 951 0
-15 956 -951 0
-16 -956 951 0
-16 956 -951 0
-17 -951 956 0
-17 -948 956 0
-17 -956 951 948 0
-18 -956 951 0
-18 956 -951 0
-19 -951 956 0
-19 -949 956 0
-19 -956 951 949 0
-20 -951 956 0
-20 -950 956 0
-20 -956 951 950 0
-62 -956 951 0
-62 956 -951 0
-21 -957 952 0
-21 -957 953 0
-21 957 -952 -953 0
-22 -957 952 0
-22 -957 954 0
-22 957 -952 -954 0
-23 -957 952 0
-23 -957 955 0
-23 957 -952 -955 0
-24 -957 952 0
-24 -957 956 0
-24 957 -952 -956 0
-25 -957 952 0
-25 957 -952 0
-26 -957 952 0
-26 957 -952 0
-27 -957 952 0
-27 957 -952 0
-28 -957 952 0
-28 957 -952 0
-29 -957 952 0
-29 957 -952 0
-30 -957 952 0
-30 957 -952 0
-63 -957 952 0
-63 957 -952 0
-21 -953 958 0
-21 -952 958 0
-21 -958 953 952 0
-22 -958 953 0
-22 958 -953 0
-23 -958 953 0
-23 958 -953 0
-24 -958 953 0
-24 958 -953 0
-25 -958 953 0
-25 -958 954 0
-25 958 -953 -954 0
-26 -958 953 0
-26 -958 955 0
-26 958 -953 -955 0
-27 -958 953 0
-27 -958 956 0
-27 958 -953 -956 0
-28 -958 953 0
-28 958 -953 0
-29 -958 953 0
-29 958 -953 0
-30 -958 953 0
-30 958 -953 0
-63 -958 953 0
-63 958 -953 0
-21 -959 954 0
-21 959 -954 0
-22 -954 959 0
-22 -952 959 0
-22 -959 954 952 0
-23 -959 954 0
-23 959 -954 0
-24 -959 954 0
-24 959 -954 0
-25 -954 959 0
-25 -953 959 0
-25 -959 954 953 0
-26 -959 954 0
-26 959 -954 0
-27 -959 954 0
-27 959 -954 0
-28 -959 954 0
-28 -959 955 0
-28 959 -954 -955 0
-29 -959 954 0
-29 -959 956 0
-29 959 -954 -956 0
-30 -959 954 0
-30 959 -954 0
-63 -959 954 0
-63 959 -954 0
-21 -960 955 0
-21 960 -955 0
-22 -960 955 0
-22 960 -955 0
-23 -955 960 0
-23 -952 960 0
-23 -960 955 952 0
-24 -960 955 0
-24 960 -955 0
-25 -960 955 0
-25 960 -955 0
-26 -955 960 0
-26 -953 960 0
-26 -960 955 953 0
-27 -960 955 0
-27 960 -955 0
-28 -955 960 0
-28 -954 960 0
-28 -960 955 954 0
-29 -960 955 0
-29 960 -955 0
-30 -960 955 0
-30 -960 956 0
-30 960 -955 -956 0
-63 -960 955 0
-63 960 -955 0
-21 -961 956 0
-21 961 -956 0
-22 -961 956 0
-22 961 -956 0
-23 -961 956 0
-23 961 -956 0
-24 -956 961 0
-24 -952 961 0
-24 -961 956 952 0
-25 -961 956 0
-25 961 -956 0
-26 -961 956 0
-26 961 -956 0
-27 -956 961 0
-27 -953 961 0
-27 -961 956 953 0
-28 -961 956 0
-28 961 -956 0
-29 -956 961 0
-29 -954 961 0
-29 -961 956 954 0
-30 -956 961 0
-30 -955 961 0
-30 -961 956 955 0
-63 -961 956 0
-63 961 -956 0
-31 -962 957 0
-31 -962 958 0
-31 962 -957 -958 0
-32 -962 957 0
-32 -962 959 0
-32 962 -957 -959 0
-33 -962 957 0
-33 -962 960 0
-33 962 -957 -960 0
-34 -962 957 0
-34 -962 961 0
-34 962 -957 -961 0
-35 -962 957 0
-35 962 -957 0
-36 -962 957 0
-36 962 -957 0
-37 -962 957 0
-37 962 -957 0
-38 -962 957 0
-38 962 -957 0
-39 -962 957 0
-39 962 -957 0
-40 -962 957 0
-40 962 -957 0
-64 -962 957 0
-64 962 -957 0
-31 -958 963 0
-31 -957 963 0
-31 -963 958 957 0
-32 -963 958 0
-32 963 -958 0
-33 -963 958 0
-33 963 -958 0
-34 -963 958 0
-34 963 -958 0
-35 -963 958 0
-35 -963 959 0
-35 963 -958 -959 0
-36 -963 958 0
-36 -963 960 0
-36 963 -958 -960 0
-37 -963 958 0
-37 -963 961 0
-37 963 -958 -961 0
-38 -963 958 0
-38 963 -958 0
-39 -963 958 0
-39 963 -958 0
-40 -963 958 0
-40 963 -958 0
-64 -963 958 0
-64 963 -958 0
-31 -964 959 0
-31 964 -959 0
-32 -959 964 0
-32 -957 964 0
-32 -964 959 957 0
-33 -964 959 0
-33 964 -959 0
-34 -964 959 0
-34 964 -959 0
-35 -959 964 0
-35 -958 964 0
-35 -964 959 958 0
-36 -964 959 0
-36 964 -959 0
-37 -964 959 0
-37 964 -959 0
-38 -964 959 0
-38 -964 960 0
-38 964 -959 -960 0
-39 -964 959 0
-39 -964 961 0
-39 964 -959 -961 0
-40 -964 959 0
-40 964 -959 0
-64 -964 959 0
-64 964 -959 0
-31 -965 960 0
-31 965 -960 0
-32 -965 960 0
-32 965 -960 0
-33 -960 965 0
-33 -957 965 0
-33 -965 960 957 0
-34 -965 960 0
-34 965 -960 0
-35 -965 960 0
-35 965 -960 0
-36 -960 965 0
-36 -958 965 0
-36 -965 960 958 0
-37 -965 960 0
-37 965 -960 0
-38 -960 965 0
-38 -959 965 0
-38 -965 960 959 0
-39 -965 960 0
-39 965 -960 0
-40 -965 960 0
-40 -965 961 0
-40 965 -960 -961 0
-64 -965 960 0
-64 965 -960 0
-31 -966 961 0
-31 966 -961 0
-32 -966 961 0
-32 966 -961 0
-33 -966 961 0
-33 966 -961 0
-34 -961 966 0
-34 -957 966 0
-34 -966 961 957 0
-35 -966 961 0
-35 966 -961 0
-36 -966 961 0
-36 966 -961 0
-37 -961 966 0
-37 -958 966 0
-37 -966 961 958 0
-38 -966 961 0
-38 966 -961 0
-39 -961 966 0
-39 -959 966 0
-39 -966 961 959 0
-40 -961 966 0
-40 -960 966 0
-40 -966 961 960 0
-64 -966 961 0
-64 966 -961 0
-41 -967 962 0
-41 -967 963 0
-41 967 -962 -963 0
-42 -967 962 0
-42 -967 964 0
-42 967 -962 -964 0
-43 -967 962 0
-43 -967 965 0
-43 967 -962 -965 0
-44 -967 962 0
-44 -967 966 0
-44 967 -962 -966 0
-45 -967 962 0
-45 967 -962 0
-46 -967 962 0
-46 967 -962 0
-47 -967 962 0
-47 967 -962 0
-48 -967 962 0
-48 967 -962 0
-49 -967 962 0
-49 967 -962 0
-50 -967 962 0
-50 967 -962 0
-65 -967 962 0
-65 967 -962 0
-41 -963 968 0
-41 -962 968 0
-41 -968 963 962 0
-42 -968 963 0
-42 968 -963 0
-43 -968 963 0
-43 968 -963 0
-44 -968 963 0
-44 968 -963 0
-45 -968 963 0
-45 -968 964 0
-45 968 -963 -964 0
-46 -968 963 0
-46 -968 965 0
-46 968 -963 -965 0
-47 -968 963 0
-47 -968 966 0
-47 968 -963 -966 0
-48 -968 963 0
-48 968 -963 0
-49 -968 963 0
-49 968 -963 0
-50 -968 963 0
-50 968 -963 0
-65 -968 963 0
-65 968 -963 0
-41 -969 964 0
-41 969 -964 0
-42 -964 969 0
-42 -962 969 0
-42 -969 964 962 0
-43 -969 964 0
-43 969 -964 0
-44 -969 964 0
-44 969 -964 0
-45 -964 969 0
-45 -963 969 0
-45 -969 964 963 0
-46 -969 964 0
-46 969 -964 0
-47 -969 964 0
-47 969 -964 0
-48 -969 964 0
-48 -969 965 0
-48 969 -964 -965 0
-49 -969 964 0
-49 -969 966 0
-49 969 -964 -966 0
-50 -969 964 0
-50 969 -964 0
-65 -969 964 0
-65 969 -964 0
-41 -970 965 0
-41 970 -965 0
-42 -970 965 0
-42 970 -965 0
-43 -965 970 0
-43 -962 970 0
-43 -970 965 962 0
-44 -970 965 0
-44 970 -965 0
-45 -970 965 0
-45 970 -965 0
-46 -965 970 0
-46 -963 970 0
-46 -970 965 963 0
-47 -970 965 0
-47 970 -965 0
-48 -965 970 0
-48 -964 970 0
-48 -970 965 964 0
-49 -970 965 0
-49 970 -965 0
-50 -970 965 0
-50 -970 966 0
-50 970 -965 -966 0
-65 -970 965 0
-65 970 -965 0
-41 -971 966 0
-41 971 -966 0
-42 -971 966 0
-42 971 -966 0
-43 -971 966 0
-43 971 -966 0
-44 -966 971 0
-44 -962 971 0
-44 -971 966 962 0
-45 -971 966 0
-45 971 -966 0
-46 -971 966 0
-46 971 -966 0
-47 -966 971 0
-47 -963 971 0
-47 -971 966 963 0
-48 -971 966 0
-48 971 -966 0
-49 -966 971 0
-49 -964 971 0
-49 -971 966 964 0
-50 -966 971 0
-50 -965 971 0
-50 -971 966 965 0
-65 -971 966 0
-65 971 -966 0
-51 -972 967 0
-51 -972 968 0
-51 972 -967 -968 0
-52 -972 967 0
-52 -972 969 0
-52 972 -967 -969 0
-53 -972 967 0
-53 -972 970 0
-53 972 -967 -970 0
-54 -972 967 0
-54 -972 971 0
-54 972 -967 -971 0
-55 -972 967 0
-55 972 -967 0
-56 -972 967 0
-56 972 -967 0
-57 -972 967 0
-57 972 -967 0
-58 -972 967 0
-58 972 -967 0
-59 -972 967 0
-59 972 -967 0
-60 -972 967 0
-60 972 -967 0
-66 -972 967 0
-66 972 -967 0
-51 -968 973 0
-51 -967 973 0
-51 -973 968 967 0
-52 -973 968 0
-52 973 -968 0
-53 -973 968 0
-53 973 -968 0
-54 -973 968 0
-54 973 -968 0
-55 -973 968 0
-55 -973 969 0
-55 973 -968 -969 0
-56 -973 968 0
-56 -973 970 0
-56 973 -968 -970 0
-57 -973 968 0
-57 -973 971 0
-57 973 -968 -971 0
-58 -973 968 0
-58 973 -968 0
-59 -973 968 0
-59 973 -968 0
-60 -973 968 0
-60 973 -968 0
-66 -973 968 0
-66 973 -968 0
-51 -974 969 0
-51 974 -969 0
-52 -969 974 0
-52 -967 974 0
-52 -974 969 967 0
-53 -974 969 0
-53 974 -969 0
-54 -974 969 0
-54 974 -969 0
-55 -969 974 0
-55 -968 974 0
-55 -974 969 968 0
-56 -974 969 0
-56 974 -969 0
-57 -974 969 0
-57 974 -969 0
-58 -974 969 0
-58 -974 970 0
-58 974 -969 -970 0
-59 -974 969 0
-59 -974 971 0
-59 974 -969 -971 0
-60 -974 969 0
-60 974 -969 0
-66 -974 969 0
-66 974 -969 0
-51 -975 970 0
-51 975 -970 0
-52 -975 970 0
-52 975 -970 0
-53 -970 975 0
-53 -967 975 0
-53 -975 970 967 0
-54 -975 970 0
-54 975 -970 0
-55 -975 970 0
-55 975 -970 0
-56 -970 975 0
-56 -968 975 0
-56 -975 970 968 0
-57 -975 970 0
-57 975 -970 0
-58 -970 975 0
-58 -969 975 0
-58 -975 970 969 0
-59 -975 970 0
-59 975 -970 0
-60 -975 970 0
-60 -975 971 0
-60 975 -970 -971 0
-66 -975 970 0
-66 975 -970 0
-51 -976 971 0
-51 976 -971 0
-52 -976 971 0
-52 976 -971 0
-53 -976 971 0
-53 976 -971 0
-54 -971 976 0
-54 -967 976 0
-54 -976 971 967 0
-55 -976 971 0
-55 976 -971 0
-56 -976 971 0
-56 976 -971 0
-57 -971 976 0
-57 -968 976 0
-57 -976 971 968 0
-58 -976 971 0
-58 976 -971 0
-59 -971 976 0
-59 -969 976 0
-59 -976 971 969 0
-60 -971 976 0
-60 -970 976 0
-60 -976 971 970 0
-66 -976 971 0
-66 976 -971 0
-99 0
-134 0
-169 0
-204 0
-239 0
-274 0
-309 0
344 0
-379 0
414 0
449 0
-484 0
-519 0
-554 0
589 0
-624 0
659 0
694 0
729 0
-764 0
799 0
834 0
869 0
904 0
939 0
974 0
