p cnf 1117 24358
1 2 3 4 5 6 7 8 9 10 71 0
-1 -2 0
-1 -3 0
-1 -4 0
-1 -5 0
-1 -6 0
-1 -7 0
-1 -8 0
-1 -9 0
-1 -10 0
-1 -71 0
-2 -3 0
-2 -4 0
-2 -5 0
-2 -6 0
-2 -7 0
-2 -8 0
-2 -9 0
-2 -10 0
-2 -71 0
-3 -4 0
-3 -5 0
-3 -6 0
-3 -7 0
-3 -8 0
-3 -9 0
-3 -10 0
-3 -71 0
-4 -5 0
-4 -6 0
-4 -7 0
-4 -8 0
-4 -9 0
-4 -10 0
-4 -71 0
-5 -6 0
-5 -7 0
-5 -8 0
-5 -9 0
-5 -10 0
-5 -71 0
-6 -7 0
-6 -8 0
-6 -9 0
-6 -10 0
-6 -71 0
-7 -8 0
-7 -9 0
-7 -10 0
-7 -71 0
-8 -9 0
-8 -10 0
-8 -71 0
-9 -10 0
-9 -71 0
-10 -71 0
11 12 13 14 15 16 17 18 19 20 72 0
-11 -12 0
-11 -13 0
-11 -14 0
-11 -15 0
-11 -16 0
-11 -17 0
-11 -18 0
-11 -19 0
-11 -20 0
-11 -72 0
-12 -13 0
-12 -14 0
-12 -15 0
-12 -16 0
-12 -17 0
-12 -18 0
-12 -19 0
-12 -20 0
-12 -72 0
-13 -14 0
-13 -15 0
-13 -16 0
-13 -17 0
-13 -18 0
-13 -19 0
-13 -20 0
-13 -72 0
-14 -15 0
-14 -16 0
-14 -17 0
-14 -18 0
-14 -19 0
-14 -20 0
-14 -72 0
-15 -16 0
-15 -17 0
-15 -18 0
-15 -19 0
-15 -20 0
-15 -72 0
-16 -17 0
-16 -18 0
-16 -19 0
-16 -20 0
-16 -72 0
-17 -18 0
-17 -19 0
-17 -20 0
-17 -72 0
-18 -19 0
-18 -20 0
-18 -72 0
-19 -20 0
-19 -72 0
-20 -72 0
21 22 23 24 25 26 27 28 29 30 73 0
-21 -22 0
-21 -23 0
-21 -24 0
-21 -25 0
-21 -26 0
-21 -27 0
-21 -28 0
-21 -29 0
-21 -30 0
-21 -73 0
-22 -23 0
-22 -24 0
-22 -25 0
-22 -26 0
-22 -27 0
-22 -28 0
-22 -29 0
-22 -30 0
-22 -73 0
-23 -24 0
-23 -25 0
-23 -26 0
-23 -27 0
-23 -28 0
-23 -29 0
-23 -30 0
-23 -73 0
-24 -25 0
-24 -26 0
-24 -27 0
-24 -28 0
-24 -29 0
-24 -30 0
-24 -73 0
-25 -26 0
-25 -27 0
-25 -28 0
-25 -29 0
-25 -30 0
-25 -73 0
-26 -27 0
-26 -28 0
-26 -29 0
-26 -30 0
-26 -73 0
-27 -28 0
-27 -29 0
-27 -30 0
-27 -73 0
-28 -29 0
-28 -30 0
-28 -73 0
-29 -30 0
-29 -73 0
-30 -73 0
31 32 33 34 35 36 37 38 39 40 74 0
-31 -32 0
-31 -33 0
-31 -34 0
-31 -35 0
-31 -36 0
-31 -37 0
-31 -38 0
-31 -39 0
-31 -40 0
-31 -74 0
-32 -33 0
-32 -34 0
-32 -35 0
-32 -36 0
-32 -37 0
-32 -38 0
-32 -39 0
-32 -40 0
-32 -74 0
-33 -34 0
-33 -35 0
-33 -36 0
-33 -37 0
-33 -38 0
-33 -39 0
-33 -40 0
-33 -74 0
-34 -35 0
-34 -36 0
-34 -37 0
-34 -38 0
-34 -39 0
-34 -40 0
-34 -74 0
-35 -36 0
-35 -37 0
-35 -38 0
-35 -39 0
-35 -40 0
-35 -74 0
-36 -37 0
-36 -38 0
-36 -39 0
-36 -40 0
-36 -74 0
-37 -38 0
-37 -39 0
-37 -40 0
-37 -74 0
-38 -39 0
-38 -40 0
-38 -74 0
-39 -40 0
-39 -74 0
-40 -74 0
41 42 43 44 45 46 47 48 49 50 75 0
-41 -42 0
-41 -43 0
-41 -44 0
-41 -45 0
-41 -46 0
-41 -47 0
-41 -48 0
-41 -49 0
-41 -50 0
-41 -75 0
-42 -43 0
-42 -44 0
-42 -45 0
-42 -46 0
-42 -47 0
-42 -48 0
-42 -49 0
-42 -50 0
-42 -75 0
-43 -44 0
-43 -45 0
-43 -46 0
-43 -47 0
-43 -48 0
-43 -49 0
-43 -50 0
-43 -75 0
-44 -45 0
-44 -46 0
-44 -47 0
-44 -48 0
-44 -49 0
-44 -50 0
-44 -75 0
-45 -46 0
-45 -47 0
-45 -48 0
-45 -49 0
-45 -50 0
-45 -75 0
-46 -47 0
-46 -48 0
-46 -49 0
-46 -50 0
-46 -75 0
-47 -48 0
-47 -49 0
-47 -50 0
-47 -75 0
-48 -49 0
-48 -50 0
-48 -75 0
-49 -50 0
-49 -75 0
-50 -75 0
51 52 53 54 55 56 57 58 59 60 76 0
-51 -52 0
-51 -53 0
-51 -54 0
-51 -55 0
-51 -56 0
-51 -57 0
-51 -58 0
-51 -59 0
-51 -60 0
-51 -76 0
-52 -53 0
-52 -54 0
-52 -55 0
-52 -56 0
-52 -57 0
-52 -58 0
-52 -59 0
-52 -60 0
-52 -76 0
-53 -54 0
-53 -55 0
-53 -56 0
-53 -57 0
-53 -58 0
-53 -59 0
-53 -60 0
-53 -76 0
-54 -55 0
-54 -56 0
-54 -57 0
-54 -58 0
-54 -59 0
-54 -60 0
-54 -76 0
-55 -56 0
-55 -57 0
-55 -58 0
-55 -59 0
-55 -60 0
-55 -76 0
-56 -57 0
-56 -58 0
-56 -59 0
-56 -60 0
-56 -76 0
-57 -58 0
-57 -59 0
-57 -60 0
-57 -76 0
-58 -59 0
-58 -60 0
-58 -76 0
-59 -60 0
-59 -76 0
-60 -76 0
61 62 63 64 65 66 67 68 69 70 77 0
-61 -62 0
-61 -63 0
-61 -64 0
-61 -65 0
-61 -66 0
-61 -67 0
-61 -68 0
-61 -69 0
-61 -70 0
-61 -77 0
-62 -63 0
-62 -64 0
-62 -65 0
-62 -66 0
-62 -67 0
-62 -68 0
-62 -69 0
-62 -70 0
-62 -77 0
-63 -64 0
-63 -65 0
-63 -66 0
-63 -67 0
-63 -68 0
-63 -69 0
-63 -70 0
-63 -77 0
-64 -65 0
-64 -66 0
-64 -67 0
-64 -68 0
-64 -69 0
-64 -70 0
-64 -77 0
-65 -66 0
-65 -67 0
-65 -68 0
-65 -69 0
-65 -70 0
-65 -77 0
-66 -67 0
-66 -68 0
-66 -69 0
-66 -70 0
-66 -77 0
-67 -68 0
-67 -69 0
-67 -70 0
-67 -77 0
-68 -69 0
-68 -70 0
-68 -77 0
-69 -70 0
-69 -77 0
-70 -77 0
-1 -11 0
-2 -12 0
-3 -13 0
-4 -14 0
-5 -15 0
-6 -16 0
-7 -17 0
-8 -18 0
-9 -19 0
-10 -20 0
-11 -21 0
-12 -22 0
-13 -23 0
-14 -24 0
-15 -25 0
-16 -26 0
-17 -27 0
-18 -28 0
-19 -29 0
-20 -30 0
-21 -31 0
-22 -32 0
-23 -33 0
-24 -34 0
-25 -35 0
-26 -36 0
-27 -37 0
-28 -38 0
-29 -39 0
-30 -40 0
-31 -41 0
-32 -42 0
-33 -43 0
-34 -44 0
-35 -45 0
-36 -46 0
-37 -47 0
-38 -48 0
-39 -49 0
-40 -50 0
-41 -51 0
-42 -52 0
-43 -53 0
-44 -54 0
-45 -55 0
-46 -56 0
-47 -57 0
-48 -58 0
-49 -59 0
-50 -60 0
-51 -61 0
-52 -62 0
-53 -63 0
-54 -64 0
-55 -65 0
-56 -66 0
-57 -67 0
-58 -68 0
-59 -69 0
-60 -70 0
-5 -13 0
-5 -14 0
-6 -12 0
-6 -14 0
-7 -12 0
-7 -13 0
-8 -11 0
-8 -14 0
-8 -17 0
-9 -11 0
-9 -13 0
-9 -16 0
-10 -11 0
-10 -12 0
-10 -15 0
-15 -23 0
-15 -24 0
-16 -22 0
-16 -24 0
-17 -22 0
-17 -23 0
-18 -21 0
-18 -24 0
-18 -27 0
-19 -21 0
-19 -23 0
-19 -26 0
-20 -21 0
-20 -22 0
-20 -25 0
-25 -33 0
-25 -34 0
-26 -32 0
-26 -34 0
-27 -32 0
-27 -33 0
-28 -31 0
-28 -34 0
-28 -37 0
-29 -31 0
-29 -33 0
-29 -36 0
-30 -31 0
-30 -32 0
-30 -35 0
-35 -43 0
-35 -44 0
-36 -42 0
-36 -44 0
-37 -42 0
-37 -43 0
-38 -41 0
-38 -44 0
-38 -47 0
-39 -41 0
-39 -43 0
-39 -46 0
-40 -41 0
-40 -42 0
-40 -45 0
-45 -53 0
-45 -54 0
-46 -52 0
-46 -54 0
-47 -52 0
-47 -53 0
-48 -51 0
-48 -54 0
-48 -57 0
-49 -51 0
-49 -53 0
-49 -56 0
-50 -51 0
-50 -52 0
-50 -55 0
-55 -63 0
-55 -64 0
-56 -62 0
-56 -64 0
-57 -62 0
-57 -63 0
-58 -61 0
-58 -64 0
-58 -67 0
-59 -61 0
-59 -63 0
-59 -66 0
-60 -61 0
-60 -62 0
-60 -65 0
-78 0
-1 -83 78 0
-1 -83 79 0
-1 83 -78 -79 0
-2 -83 78 0
-2 -83 80 0
-2 83 -78 -80 0
-3 -83 78 0
-3 -83 81 0
-3 83 -78 -81 0
-4 -83 78 0
-4 -83 82 0
-4 83 -78 -82 0
-5 -83 78 0
-5 83 -78 0
-6 -83 78 0
-6 83 -78 0
-7 -83 78 0
-7 83 -78 0
-8 -83 78 0
-8 83 -78 0
-9 -83 78 0
-9 83 -78 0
-10 -83 78 0
-10 83 -78 0
-71 -83 78 0
-71 83 -78 0
-79 0
-1 -79 84 0
-1 -78 84 0
-1 -84 79 78 0
-2 -84 79 0
-2 84 -79 0
-3 -84 79 0
-3 84 -79 0
-4 -84 79 0
-4 84 -79 0
-5 -84 79 0
-5 -84 80 0
-5 84 -79 -80 0
-6 -84 79 0
-6 -84 81 0
-6 84 -79 -81 0
-7 -84 79 0
-7 -84 82 0
-7 84 -79 -82 0
-8 -84 79 0
-8 84 -79 0
-9 -84 79 0
-9 84 -79 0
-10 -84 79 0
-10 84 -79 0
-71 -84 79 0
-71 84 -79 0
-80 0
-1 -85 80 0
-1 85 -80 0
-2 -80 85 0
-2 -78 85 0
-2 -85 80 78 0
-3 -85 80 0
-3 85 -80 0
-4 -85 80 0
-4 85 -80 0
-5 -80 85 0
-5 -79 85 0
-5 -85 80 79 0
-6 -85 80 0
-6 85 -80 0
-7 -85 80 0
-7 85 -80 0
-8 -85 80 0
-8 -85 81 0
-8 85 -80 -81 0
-9 -85 80 0
-9 -85 82 0
-9 85 -80 -82 0
-10 -85 80 0
-10 85 -80 0
-71 -85 80 0
-71 85 -80 0
81 0
-1 -86 81 0
-1 86 -81 0
-2 -86 81 0
-2 86 -81 0
-3 -81 86 0
-3 -78 86 0
-3 -86 81 78 0
-4 -86 81 0
-4 86 -81 0
-5 -86 81 0
-5 86 -81 0
-6 -81 86 0
-6 -79 86 0
-6 -86 81 79 0
-7 -86 81 0
-7 86 -81 0
-8 -81 86 0
-8 -80 86 0
-8 -86 81 80 0
-9 -86 81 0
-9 86 -81 0
-10 -86 81 0
-10 -86 82 0
-10 86 -81 -82 0
-71 -86 81 0
-71 86 -81 0
-82 0
-1 -87 82 0
-1 87 -82 0
-2 -87 82 0
-2 87 -82 0
-3 -87 82 0
-3 87 -82 0
-4 -82 87 0
-4 -78 87 0
-4 -87 82 78 0
-5 -87 82 0
-5 87 -82 0
-6 -87 82 0
-6 87 -82 0
-7 -82 87 0
-7 -79 87 0
-7 -87 82 79 0
-8 -87 82 0
-8 87 -82 0
-9 -82 87 0
-9 -80 87 0
-9 -87 82 80 0
-10 -82 87 0
-10 -81 87 0
-10 -87 82 81 0
-71 -87 82 0
-71 87 -82 0
-11 -88 83 0
-11 -88 84 0
-11 88 -83 -84 0
-12 -88 83 0
-12 -88 85 0
-12 88 -83 -85 0
-13 -88 83 0
-13 -88 86 0
-13 88 -83 -86 0
-14 -88 83 0
-14 -88 87 0
-14 88 -83 -87 0
-15 -88 83 0
-15 88 -83 0
-16 -88 83 0
-16 88 -83 0
-17 -88 83 0
-17 88 -83 0
-18 -88 83 0
-18 88 -83 0
-19 -88 83 0
-19 88 -83 0
-20 -88 83 0
-20 88 -83 0
-72 -88 83 0
-72 88 -83 0
-11 -84 89 0
-11 -83 89 0
-11 -89 84 83 0
-12 -89 84 0
-12 89 -84 0
-13 -89 84 0
-13 89 -84 0
-14 -89 84 0
-14 89 -84 0
-15 -89 84 0
-15 -89 85 0
-15 89 -84 -85 0
-16 -89 84 0
-16 -89 86 0
-16 89 -84 -86 0
-17 -89 84 0
-17 -89 87 0
-17 89 -84 -87 0
-18 -89 84 0
-18 89 -84 0
-19 -89 84 0
-19 89 -84 0
-20 -89 84 0
-20 89 -84 0
-72 -89 84 0
-72 89 -84 0
-11 -90 85 0
-11 90 -85 0
-12 -85 90 0
-12 -83 90 0
-12 -90 85 83 0
-13 -90 85 0
-13 90 -85 0
-14 -90 85 0
-14 90 -85 0
-15 -85 90 0
-15 -84 90 0
-15 -90 85 84 0
-16 -90 85 0
-16 90 -85 0
-17 -90 85 0
-17 90 -85 0
-18 -90 85 0
-18 -90 86 0
-18 90 -85 -86 0
-19 -90 85 0
-19 -90 87 0
-19 90 -85 -87 0
-20 -90 85 0
-20 90 -85 0
-72 -90 85 0
-72 90 -85 0
-11 -91 86 0
-11 91 -86 0
-12 -91 86 0
-12 91 -86 0
-13 -86 91 0
-13 -83 91 0
-13 -91 86 83 0
-14 -91 86 0
-14 91 -86 0
-15 -91 86 0
-15 91 -86 0
-16 -86 91 0
-16 -84 91 0
-16 -91 86 84 0
-17 -91 86 0
-17 91 -86 0
-18 -86 91 0
-18 -85 91 0
-18 -91 86 85 0
-19 -91 86 0
-19 91 -86 0
-20 -91 86 0
-20 -91 87 0
-20 91 -86 -87 0
-72 -91 86 0
-72 91 -86 0
-11 -92 87 0
-11 92 -87 0
-12 -92 87 0
-12 92 -87 0
-13 -92 87 0
-13 92 -87 0
-14 -87 92 0
-14 -83 92 0
-14 -92 87 83 0
-15 -92 87 0
-15 92 -87 0
-16 -92 87 0
-16 92 -87 0
-17 -87 92 0
-17 -84 92 0
-17 -92 87 84 0
-18 -92 87 0
-18 92 -87 0
-19 -87 92 0
-19 -85 92 0
-19 -92 87 85 0
-20 -87 92 0
-20 -86 92 0
-20 -92 87 86 0
-72 -92 87 0
-72 92 -87 0
-21 -93 88 0
-21 -93 89 0
-21 93 -88 -89 0
-22 -93 88 0
-22 -93 90 0
-22 93 -88 -90 0
-23 -93 88 0
-23 -93 91 0
-23 93 -88 -91 0
-24 -93 88 0
-24 -93 92 0
-24 93 -88 -92 0
-25 -93 88 0
-25 93 -88 0
-26 -93 88 0
-26 93 -88 0
-27 -93 88 0
-27 93 -88 0
-28 -93 88 0
-28 93 -88 0
-29 -93 88 0
-29 93 -88 0
-30 -93 88 0
-30 93 -88 0
-73 -93 88 0
-73 93 -88 0
-21 -89 94 0
-21 -88 94 0
-21 -94 89 88 0
-22 -94 89 0
-22 94 -89 0
-23 -94 89 0
-23 94 -89 0
-24 -94 89 0
-24 94 -89 0
-25 -94 89 0
-25 -94 90 0
-25 94 -89 -90 0
-26 -94 89 0
-26 -94 91 0
-26 94 -89 -91 0
-27 -94 89 0
-27 -94 92 0
-27 94 -89 -92 0
-28 -94 89 0
-28 94 -89 0
-29 -94 89 0
-29 94 -89 0
-30 -94 89 0
-30 94 -89 0
-73 -94 89 0
-73 94 -89 0
-21 -95 90 0
-21 95 -90 0
-22 -90 95 0
-22 -88 95 0
-22 -95 90 88 0
-23 -95 90 0
-23 95 -90 0
-24 -95 90 0
-24 95 -90 0
-25 -90 95 0
-25 -89 95 0
-25 -95 90 89 0
-26 -95 90 0
-26 95 -90 0
-27 -95 90 0
-27 95 -90 0
-28 -95 90 0
-28 -95 91 0
-28 95 -90 -91 0
-29 -95 90 0
-29 -95 92 0
-29 95 -90 -92 0
-30 -95 90 0
-30 95 -90 0
-73 -95 90 0
-73 95 -90 0
-21 -96 91 0
-21 96 -91 0
-22 -96 91 0
-22 96 -91 0
-23 -91 96 0
-23 -88 96 0
-23 -96 91 88 0
-24 -96 91 0
-24 96 -91 0
-25 -96 91 0
-25 96 -91 0
-26 -91 96 0
-26 -89 96 0
-26 -96 91 89 0
-27 -96 91 0
-27 96 -91 0
-28 -91 96 0
-28 -90 96 0
-28 -96 91 90 0
-29 -96 91 0
-29 96 -91 0
-30 -96 91 0
-30 -96 92 0
-30 96 -91 -92 0
-73 -96 91 0
-73 96 -91 0
-21 -97 92 0
-21 97 -92 0
-22 -97 92 0
-22 97 -92 0
-23 -97 92 0
-23 97 -92 0
-24 -92 97 0
-24 -88 97 0
-24 -97 92 88 0
-25 -97 92 0
-25 97 -92 0
-26 -97 92 0
-26 97 -92 0
-27 -92 97 0
-27 -89 97 0
-27 -97 92 89 0
-28 -97 92 0
-28 97 -92 0
-29 -92 97 0
-29 -90 97 0
-29 -97 92 90 0
-30 -92 97 0
-30 -91 97 0
-30 -97 92 91 0
-73 -97 92 0
-73 97 -92 0
-31 -98 93 0
-31 -98 94 0
-31 98 -93 -94 0
-32 -98 93 0
-32 -98 95 0
-32 98 -93 -95 0
-33 -98 93 0
-33 -98 96 0
-33 98 -93 -96 0
-34 -98 93 0
-34 -98 97 0
-34 98 -93 -97 0
-35 -98 93 0
-35 98 -93 0
-36 -98 93 0
-36 98 -93 0
-37 -98 93 0
-37 98 -93 0
-38 -98 93 0
-38 98 -93 0
-39 -98 93 0
-39 98 -93 0
-40 -98 93 0
-40 98 -93 0
-74 -98 93 0
-74 98 -93 0
-31 -94 99 0
-31 -93 99 0
-31 -99 94 93 0
-32 -99 94 0
-32 99 -94 0
-33 -99 94 0
-33 99 -94 0
-34 -99 94 0
-34 99 -94 0
-35 -99 94 0
-35 -99 95 0
-35 99 -94 -95 0
-36 -99 94 0
-36 -99 96 0
-36 99 -94 -96 0
-37 -99 94 0
-37 -99 97 0
-37 99 -94 -97 0
-38 -99 94 0
-38 99 -94 0
-39 -99 94 0
-39 99 -94 0
-40 -99 94 0
-40 99 -94 0
-74 -99 94 0
-74 99 -94 0
-31 -100 95 0
-31 100 -95 0
-32 -95 100 0
-32 -93 100 0
-32 -100 95 93 0
-33 -100 95 0
-33 100 -95 0
-34 -100 95 0
-34 100 -95 0
-35 -95 100 0
-35 -94 100 0
-35 -100 95 94 0
-36 -100 95 0
-36 100 -95 0
-37 -100 95 0
-37 100 -95 0
-38 -100 95 0
-38 -100 96 0
-38 100 -95 -96 0
-39 -100 95 0
-39 -100 97 0
-39 100 -95 -97 0
-40 -100 95 0
-40 100 -95 0
-74 -100 95 0
-74 100 -95 0
-31 -101 96 0
-31 101 -96 0
-32 -101 96 0
-32 101 -96 0
-33 -96 101 0
-33 -93 101 0
-33 -101 96 93 0
-34 -101 96 0
-34 101 -96 0
-35 -101 96 0
-35 101 -96 0
-36 -96 101 0
-36 -94 101 0
-36 -101 96 94 0
-37 -101 96 0
-37 101 -96 0
-38 -96 101 0
-38 -95 101 0
-38 -101 96 95 0
-39 -101 96 0
-39 101 -96 0
-40 -101 96 0
-40 -101 97 0
-40 101 -96 -97 0
-74 -101 96 0
-74 101 -96 0
-31 -102 97 0
-31 102 -97 0
-32 -102 97 0
-32 102 -97 0
-33 -102 97 0
-33 102 -97 0
-34 -97 102 0
-34 -93 102 0
-34 -102 97 93 0
-35 -102 97 0
-35 102 -97 0
-36 -102 97 0
-36 102 -97 0
-37 -97 102 0
-37 -94 102 0
-37 -102 97 94 0
-38 -102 97 0
-38 102 -97 0
-39 -97 102 0
-39 -95 102 0
-39 -102 97 95 0
-40 -97 102 0
-40 -96 102 0
-40 -102 97 96 0
-74 -102 97 0
-74 102 -97 0
-41 -103 98 0
-41 -103 99 0
-41 103 -98 -99 0
-42 -103 98 0
-42 -103 100 0
-42 103 -98 -100 0
-43 -103 98 0
-43 -103 101 0
-43 103 -98 -101 0
-44 -103 98 0
-44 -103 102 0
-44 103 -98 -102 0
-45 -103 98 0
-45 103 -98 0
-46 -103 98 0
-46 103 -98 0
-47 -103 98 0
-47 103 -98 0
-48 -103 98 0
-48 103 -98 0
-49 -103 98 0
-49 103 -98 0
-50 -103 98 0
-50 103 -98 0
-75 -103 98 0
-75 103 -98 0
-41 -99 104 0
-41 -98 104 0
-41 -104 99 98 0
-42 -104 99 0
-42 104 -99 0
-43 -104 99 0
-43 104 -99 0
-44 -104 99 0
-44 104 -99 0
-45 -104 99 0
-45 -104 100 0
-45 104 -99 -100 0
-46 -104 99 0
-46 -104 101 0
-46 104 -99 -101 0
-47 -104 99 0
-47 -104 102 0
-47 104 -99 -102 0
-48 -104 99 0
-48 104 -99 0
-49 -104 99 0
-49 104 -99 0
-50 -104 99 0
-50 104 -99 0
-75 -104 99 0
-75 104 -99 0
-41 -105 100 0
-41 105 -100 0
-42 -100 105 0
-42 -98 105 0
-42 -105 100 98 0
-43 -105 100 0
-43 105 -100 0
-44 -105 100 0
-44 105 -100 0
-45 -100 105 0
-45 -99 105 0
-45 -105 100 99 0
-46 -105 100 0
-46 105 -100 0
-47 -105 100 0
-47 105 -100 0
-48 -105 100 0
-48 -105 101 0
-48 105 -100 -101 0
-49 -105 100 0
-49 -105 102 0
-49 105 -100 -102 0
-50 -105 100 0
-50 105 -100 0
-75 -105 100 0
-75 105 -100 0
-41 -106 101 0
-41 106 -101 0
-42 -106 101 0
-42 106 -101 0
-43 -101 106 0
-43 -98 106 0
-43 -106 101 98 0
-44 -106 101 0
-44 106 -101 0
-45 -106 101 0
-45 106 -101 0
-46 -101 106 0
-46 -99 106 0
-46 -106 101 99 0
-47 -106 101 0
-47 106 -101 0
-48 -101 106 0
-48 -100 106 0
-48 -106 101 100 0
-49 -106 101 0
-49 106 -101 0
-50 -106 101 0
-50 -106 102 0
-50 106 -101 -102 0
-75 -106 101 0
-75 106 -101 0
-41 -107 102 0
-41 107 -102 0
-42 -107 102 0
-42 107 -102 0
-43 -107 102 0
-43 107 -102 0
-44 -102 107 0
-44 -98 107 0
-44 -107 102 98 0
-45 -107 102 0
-45 107 -102 0
-46 -107 102 0
-46 107 -102 0
-47 -102 107 0
-47 -99 107 0
-47 -107 102 99 0
-48 -107 102 0
-48 107 -102 0
-49 -102 107 0
-49 -100 107 0
-49 -107 102 100 0
-50 -102 107 0
-50 -101 107 0
-50 -107 102 101 0
-75 -107 102 0
-75 107 -102 0
-51 -108 103 0
-51 -108 104 0
-51 108 -103 -104 0
-52 -108 103 0
-52 -108 105 0
-52 108 -103 -105 0
-53 -108 103 0
-53 -108 106 0
-53 108 -103 -106 0
-54 -108 103 0
-54 -108 107 0
-54 108 -103 -107 0
-55 -108 103 0
-55 108 -103 0
-56 -108 103 0
-56 108 -103 0
-57 -108 103 0
-57 108 -103 0
-58 -108 103 0
-58 108 -103 0
-59 -108 103 0
-59 108 -103 0
-60 -108 103 0
-60 108 -103 0
-76 -108 103 0
-76 108 -103 0
-51 -104 109 0
-51 -103 109 0
-51 -109 104 103 0
-52 -109 104 0
-52 109 -104 0
-53 -109 104 0
-53 109 -104 0
-54 -109 104 0
-54 109 -104 0
-55 -109 104 0
-55 -109 105 0
-55 109 -104 -105 0
-56 -109 104 0
-56 -109 106 0
-56 109 -104 -106 0
-57 -109 104 0
-57 -109 107 0
-57 109 -104 -107 0
-58 -109 104 0
-58 109 -104 0
-59 -109 104 0
-59 109 -104 0
-60 -109 104 0
-60 109 -104 0
-76 -109 104 0
-76 109 -104 0
-51 -110 105 0
-51 110 -105 0
-52 -105 110 0
-52 -103 110 0
-52 -110 105 103 0
-53 -110 105 0
-53 110 -105 0
-54 -110 105 0
-54 110 -105 0
-55 -105 110 0
-55 -104 110 0
-55 -110 105 104 0
-56 -110 105 0
-56 110 -105 0
-57 -110 105 0
-57 110 -105 0
-58 -110 105 0
-58 -110 106 0
-58 110 -105 -106 0
-59 -110 105 0
-59 -110 107 0
-59 110 -105 -107 0
-60 -110 105 0
-60 110 -105 0
-76 -110 105 0
-76 110 -105 0
-51 -111 106 0
-51 111 -106 0
-52 -111 106 0
-52 111 -106 0
-53 -106 111 0
-53 -103 111 0
-53 -111 106 103 0
-54 -111 106 0
-54 111 -106 0
-55 -111 106 0
-55 111 -106 0
-56 -106 111 0
-56 -104 111 0
-56 -111 106 104 0
-57 -111 106 0
-57 111 -106 0
-58 -106 111 0
-58 -105 111 0
-58 -111 106 105 0
-59 -111 106 0
-59 111 -106 0
-60 -111 106 0
-60 -111 107 0
-60 111 -106 -107 0
-76 -111 106 0
-76 111 -106 0
-51 -112 107 0
-51 112 -107 0
-52 -112 107 0
-52 112 -107 0
-53 -112 107 0
-53 112 -107 0
-54 -107 112 0
-54 -103 112 0
-54 -112 107 103 0
-55 -112 107 0
-55 112 -107 0
-56 -112 107 0
-56 112 -107 0
-57 -107 112 0
-57 -104 112 0
-57 -112 107 104 0
-58 -112 107 0
-58 112 -107 0
-59 -107 112 0
-59 -105 112 0
-59 -112 107 105 0
-60 -107 112 0
-60 -106 112 0
-60 -112 107 106 0
-76 -112 107 0
-76 112 -107 0
-61 -113 108 0
-61 -113 109 0
-61 113 -108 -109 0
-62 -113 108 0
-62 -113 110 0
-62 113 -108 -110 0
-63 -113 108 0
-63 -113 111 0
-63 113 -108 -111 0
-64 -113 108 0
-64 -113 112 0
-64 113 -108 -112 0
-65 -113 108 0
-65 113 -108 0
-66 -113 108 0
-66 113 -108 0
-67 -113 108 0
-67 113 -108 0
-68 -113 108 0
-68 113 -108 0
-69 -113 108 0
-69 113 -108 0
-70 -113 108 0
-70 113 -108 0
-77 -113 108 0
-77 113 -108 0
-61 -109 114 0
-61 -108 114 0
-61 -114 109 108 0
-62 -114 109 0
-62 114 -109 0
-63 -114 109 0
-63 114 -109 0
-64 -114 109 0
-64 114 -109 0
-65 -114 109 0
-65 -114 110 0
-65 114 -109 -110 0
-66 -114 109 0
-66 -114 111 0
-66 114 -109 -111 0
-67 -114 109 0
-67 -114 112 0
-67 114 -109 -112 0
-68 -114 109 0
-68 114 -109 0
-69 -114 109 0
-69 114 -109 0
-70 -114 109 0
-70 114 -109 0
-77 -114 109 0
-77 114 -109 0
-61 -115 110 0
-61 115 -110 0
-62 -110 115 0
-62 -108 115 0
-62 -115 110 108 0
-63 -115 110 0
-63 115 -110 0
-64 -115 110 0
-64 115 -110 0
-65 -110 115 0
-65 -109 115 0
-65 -115 110 109 0
-66 -115 110 0
-66 115 -110 0
-67 -115 110 0
-67 115 -110 0
-68 -115 110 0
-68 -115 111 0
-68 115 -110 -111 0
-69 -115 110 0
-69 -115 112 0
-69 115 -110 -112 0
-70 -115 110 0
-70 115 -110 0
-77 -115 110 0
-77 115 -110 0
-61 -116 111 0
-61 116 -111 0
-62 -116 111 0
-62 116 -111 0
-63 -111 116 0
-63 -108 116 0
-63 -116 111 108 0
-64 -116 111 0
-64 116 -111 0
-65 -116 111 0
-65 116 -111 0
-66 -111 116 0
-66 -109 116 0
-66 -116 111 109 0
-67 -116 111 0
-67 116 -111 0
-68 -111 116 0
-68 -110 116 0
-68 -116 111 110 0
-69 -116 111 0
-69 116 -111 0
-70 -116 111 0
-70 -116 112 0
-70 116 -111 -112 0
-77 -116 111 0
-77 116 -111 0
-61 -117 112 0
-61 117 -112 0
-62 -117 112 0
-62 117 -112 0
-63 -117 112 0
-63 117 -112 0
-64 -112 117 0
-64 -108 117 0
-64 -117 112 108 0
-65 -117 112 0
-65 117 -112 0
-66 -117 112 0
-66 117 -112 0
-67 -112 117 0
-67 -109 117 0
-67 -117 112 109 0
-68 -117 112 0
-68 117 -112 0
-69 -112 117 0
-69 -110 117 0
-69 -117 112 110 0
-70 -112 117 0
-70 -111 117 0
-70 -117 112 111 0
-77 -117 112 0
-77 117 -112 0
-118 0
-1 -123 118 0
-1 -123 119 0
-1 123 -118 -119 0
-2 -123 118 0
-2 -123 120 0
-2 123 -118 -120 0
-3 -123 118 0
-3 -123 121 0
-3 123 -118 -121 0
-4 -123 118 0
-4 -123 122 0
-4 123 -118 -122 0
-5 -123 118 0
-5 123 -118 0
-6 -123 118 0
-6 123 -118 0
-7 -123 118 0
-7 123 -118 0
-8 -123 118 0
-8 123 -118 0
-9 -123 118 0
-9 123 -118 0
-10 -123 118 0
-10 123 -118 0
-71 -123 118 0
-71 123 -118 0
-119 0
-1 -119 124 0
-1 -118 124 0
-1 -124 119 118 0
-2 -124 119 0
-2 124 -119 0
-3 -124 119 0
-3 124 -119 0
-4 -124 119 0
-4 124 -119 0
-5 -124 119 0
-5 -124 120 0
-5 124 -119 -120 0
-6 -124 119 0
-6 -124 121 0
-6 124 -119 -121 0
-7 -124 119 0
-7 -124 122 0
-7 124 -119 -122 0
-8 -124 119 0
-8 124 -119 0
-9 -124 119 0
-9 124 -119 0
-10 -124 119 0
-10 124 -119 0
-71 -124 119 0
-71 124 -119 0
120 0
-1 -125 120 0
-1 125 -120 0
-2 -120 125 0
-2 -118 125 0
-2 -125 120 118 0
-3 -125 120 0
-3 125 -120 0
-4 -125 120 0
-4 125 -120 0
-5 -120 125 0
-5 -119 125 0
-5 -125 120 119 0
-6 -125 120 0
-6 125 -120 0
-7 -125 120 0
-7 125 -120 0
-8 -125 120 0
-8 -125 121 0
-8 125 -120 -121 0
-9 -125 120 0
-9 -125 122 0
-9 125 -120 -122 0
-10 -125 120 0
-10 125 -120 0
-71 -125 120 0
-71 125 -120 0
-121 0
-1 -126 121 0
-1 126 -121 0
-2 -126 121 0
-2 126 -121 0
-3 -121 126 0
-3 -118 126 0
-3 -126 121 118 0
-4 -126 121 0
-4 126 -121 0
-5 -126 121 0
-5 126 -121 0
-6 -121 126 0
-6 -119 126 0
-6 -126 121 119 0
-7 -126 121 0
-7 126 -121 0
-8 -121 126 0
-8 -120 126 0
-8 -126 121 120 0
-9 -126 121 0
-9 126 -121 0
-10 -126 121 0
-10 -126 122 0
-10 126 -121 -122 0
-71 -126 121 0
-71 126 -121 0
-122 0
-1 -127 122 0
-1 127 -122 0
-2 -127 122 0
-2 127 -122 0
-3 -127 122 0
-3 127 -122 0
-4 -122 127 0
-4 -118 127 0
-4 -127 122 118 0
-5 -127 122 0
-5 127 -122 0
-6 -127 122 0
-6 127 -122 0
-7 -122 127 0
-7 -119 127 0
-7 -127 122 119 0
-8 -127 122 0
-8 127 -122 0
-9 -122 127 0
-9 -120 127 0
-9 -127 122 120 0
-10 -122 127 0
-10 -121 127 0
-10 -127 122 121 0
-71 -127 122 0
-71 127 -122 0
-11 -128 123 0
-11 -128 124 0
-11 128 -123 -124 0
-12 -128 123 0
-12 -128 125 0
-12 128 -123 -125 0
-13 -128 123 0
-13 -128 126 0
-13 128 -123 -126 0
-14 -128 123 0
-14 -128 127 0
-14 128 -123 -127 0
-15 -128 123 0
-15 128 -123 0
-16 -128 123 0
-16 128 -123 0
-17 -128 123 0
-17 128 -123 0
-18 -128 123 0
-18 128 -123 0
-19 -128 123 0
-19 128 -123 0
-20 -128 123 0
-20 128 -123 0
-72 -128 123 0
-72 128 -123 0
-11 -124 129 0
-11 -123 129 0
-11 -129 124 123 0
-12 -129 124 0
-12 129 -124 0
-13 -129 124 0
-13 129 -124 0
-14 -129 124 0
-14 129 -124 0
-15 -129 124 0
-15 -129 125 0
-15 129 -124 -125 0
-16 -129 124 0
-16 -129 126 0
-16 129 -124 -126 0
-17 -129 124 0
-17 -129 127 0
-17 129 -124 -127 0
-18 -129 124 0
-18 129 -124 0
-19 -129 124 0
-19 129 -124 0
-20 -129 124 0
-20 129 -124 0
-72 -129 124 0
-72 129 -124 0
-11 -130 125 0
-11 130 -125 0
-12 -125 130 0
-12 -123 130 0
-12 -130 125 123 0
-13 -130 125 0
-13 130 -125 0
-14 -130 125 0
-14 130 -125 0
-15 -125 130 0
-15 -124 130 0
-15 -130 125 124 0
-16 -130 125 0
-16 130 -125 0
-17 -130 125 0
-17 130 -125 0
-18 -130 125 0
-18 -130 126 0
-18 130 -125 -126 0
-19 -130 125 0
-19 -130 127 0
-19 130 -125 -127 0
-20 -130 125 0
-20 130 -125 0
-72 -130 125 0
-72 130 -125 0
-11 -131 126 0
-11 131 -126 0
-12 -131 126 0
-12 131 -126 0
-13 -126 131 0
-13 -123 131 0
-13 -131 126 123 0
-14 -131 126 0
-14 131 -126 0
-15 -131 126 0
-15 131 -126 0
-16 -126 131 0
-16 -124 131 0
-16 -131 126 124 0
-17 -131 126 0
-17 131 -126 0
-18 -126 131 0
-18 -125 131 0
-18 -131 126 125 0
-19 -131 126 0
-19 131 -126 0
-20 -131 126 0
-20 -131 127 0
-20 131 -126 -127 0
-72 -131 126 0
-72 131 -126 0
-11 -132 127 0
-11 132 -127 0
-12 -132 127 0
-12 132 -127 0
-13 -132 127 0
-13 132 -127 0
-14 -127 132 0
-14 -123 132 0
-14 -132 127 123 0
-15 -132 127 0
-15 132 -127 0
-16 -132 127 0
-16 132 -127 0
-17 -127 132 0
-17 -124 132 0
-17 -132 127 124 0
-18 -132 127 0
-18 132 -127 0
-19 -127 132 0
-19 -125 132 0
-19 -132 127 125 0
-20 -127 132 0
-20 -126 132 0
-20 -132 127 126 0
-72 -132 127 0
-72 132 -127 0
-21 -133 128 0
-21 -133 129 0
-21 133 -128 -129 0
-22 -133 128 0
-22 -133 130 0
-22 133 -128 -130 0
-23 -133 128 0
-23 -133 131 0
-23 133 -128 -131 0
-24 -133 128 0
-24 -133 132 0
-24 133 -128 -132 0
-25 -133 128 0
-25 133 -128 0
-26 -133 128 0
-26 133 -128 0
-27 -133 128 0
-27 133 -128 0
-28 -133 128 0
-28 133 -128 0
-29 -133 128 0
-29 133 -128 0
-30 -133 128 0
-30 133 -128 0
-73 -133 128 0
-73 133 -128 0
-21 -129 134 0
-21 -128 134 0
-21 -134 129 128 0
-22 -134 129 0
-22 134 -129 0
-23 -134 129 0
-23 134 -129 0
-24 -134 129 0
-24 134 -129 0
-25 -134 129 0
-25 -134 130 0
-25 134 -129 -130 0
-26 -134 129 0
-26 -134 131 0
-26 134 -129 -131 0
-27 -134 129 0
-27 -134 132 0
-27 134 -129 -132 0
-28 -134 129 0
-28 134 -129 0
-29 -134 129 0
-29 134 -129 0
-30 -134 129 0
-30 134 -129 0
-73 -134 129 0
-73 134 -129 0
-21 -135 130 0
-21 135 -130 0
-22 -130 135 0
-22 -128 135 0
-22 -135 130 128 0
-23 -135 130 0
-23 135 -130 0
-24 -135 130 0
-24 135 -130 0
-25 -130 135 0
-25 -129 135 0
-25 -135 130 129 0
-26 -135 130 0
-26 135 -130 0
-27 -135 130 0
-27 135 -130 0
-28 -135 130 0
-28 -135 131 0
-28 135 -130 -131 0
-29 -135 130 0
-29 -135 132 0
-29 135 -130 -132 0
-30 -135 130 0
-30 135 -130 0
-73 -135 130 0
-73 135 -130 0
-21 -136 131 0
-21 136 -131 0
-22 -136 131 0
-22 136 -131 0
-23 -131 136 0
-23 -128 136 0
-23 -136 131 128 0
-24 -136 131 0
-24 136 -131 0
-25 -136 131 0
-25 136 -131 0
-26 -131 136 0
-26 -129 136 0
-26 -136 131 129 0
-27 -136 131 0
-27 136 -131 0
-28 -131 136 0
-28 -130 136 0
-28 -136 131 130 0
-29 -136 131 0
-29 136 -131 0
-30 -136 131 0
-30 -136 132 0
-30 136 -131 -132 0
-73 -136 131 0
-73 136 -131 0
-21 -137 132 0
-21 137 -132 0
-22 -137 132 0
-22 137 -132 0
-23 -137 132 0
-23 137 -132 0
-24 -132 137 0
-24 -128 137 0
-24 -137 132 128 0
-25 -137 132 0
-25 137 -132 0
-26 -137 132 0
-26 137 -132 0
-27 -132 137 0
-27 -129 137 0
-27 -137 132 129 0
-28 -137 132 0
-28 137 -132 0
-29 -132 137 0
-29 -130 137 0
-29 -137 132 130 0
-30 -132 137 0
-30 -131 137 0
-30 -137 132 131 0
-73 -137 132 0
-73 137 -132 0
-31 -138 133 0
-31 -138 134 0
-31 138 -133 -134 0
-32 -138 133 0
-32 -138 135 0
-32 138 -133 -135 0
-33 -138 133 0
-33 -138 136 0
-33 138 -133 -136 0
-34 -138 133 0
-34 -138 137 0
-34 138 -133 -137 0
-35 -138 133 0
-35 138 -133 0
-36 -138 133 0
-36 138 -133 0
-37 -138 133 0
-37 138 -133 0
-38 -138 133 0
-38 138 -133 0
-39 -138 133 0
-39 138 -133 0
-40 -138 133 0
-40 138 -133 0
-74 -138 133 0
-74 138 -133 0
-31 -134 139 0
-31 -133 139 0
-31 -139 134 133 0
-32 -139 134 0
-32 139 -134 0
-33 -139 134 0
-33 139 -134 0
-34 -139 134 0
-34 139 -134 0
-35 -139 134 0
-35 -139 135 0
-35 139 -134 -135 0
-36 -139 134 0
-36 -139 136 0
-36 139 -134 -136 0
-37 -139 134 0
-37 -139 137 0
-37 139 -134 -137 0
-38 -139 134 0
-38 139 -134 0
-39 -139 134 0
-39 139 -134 0
-40 -139 134 0
-40 139 -134 0
-74 -139 134 0
-74 139 -134 0
-31 -140 135 0
-31 140 -135 0
-32 -135 140 0
-32 -133 140 0
-32 -140 135 133 0
-33 -140 135 0
-33 140 -135 0
-34 -140 135 0
-34 140 -135 0
-35 -135 140 0
-35 -134 140 0
-35 -140 135 134 0
-36 -140 135 0
-36 140 -135 0
-37 -140 135 0
-37 140 -135 0
-38 -140 135 0
-38 -140 136 0
-38 140 -135 -136 0
-39 -140 135 0
-39 -140 137 0
-39 140 -135 -137 0
-40 -140 135 0
-40 140 -135 0
-74 -140 135 0
-74 140 -135 0
-31 -141 136 0
-31 141 -136 0
-32 -141 136 0
-32 141 -136 0
-33 -136 141 0
-33 -133 141 0
-33 -141 136 133 0
-34 -141 136 0
-34 141 -136 0
-35 -141 136 0
-35 141 -136 0
-36 -136 141 0
-36 -134 141 0
-36 -141 136 134 0
-37 -141 136 0
-37 141 -136 0
-38 -136 141 0
-38 -135 141 0
-38 -141 136 135 0
-39 -141 136 0
-39 141 -136 0
-40 -141 136 0
-40 -141 137 0
-40 141 -136 -137 0
-74 -141 136 0
-74 141 -136 0
-31 -142 137 0
-31 142 -137 0
-32 -142 137 0
-32 142 -137 0
-33 -142 137 0
-33 142 -137 0
-34 -137 142 0
-34 -133 142 0
-34 -142 137 133 0
-35 -142 137 0
-35 142 -137 0
-36 -142 137 0
-36 142 -137 0
-37 -137 142 0
-37 -134 142 0
-37 -142 137 134 0
-38 -142 137 0
-38 142 -137 0
-39 -137 142 0
-39 -135 142 0
-39 -142 137 135 0
-40 -137 142 0
-40 -136 142 0
-40 -142 137 136 0
-74 -142 137 0
-74 142 -137 0
-41 -143 138 0
-41 -143 139 0
-41 143 -138 -139 0
-42 -143 138 0
-42 -143 140 0
-42 143 -138 -140 0
-43 -143 138 0
-43 -143 141 0
-43 143 -138 -141 0
-44 -143 138 0
-44 -143 142 0
-44 143 -138 -142 0
-45 -143 138 0
-45 143 -138 0
-46 -143 138 0
-46 143 -138 0
-47 -143 138 0
-47 143 -138 0
-48 -143 138 0
-48 143 -138 0
-49 -143 138 0
-49 143 -138 0
-50 -143 138 0
-50 143 -138 0
-75 -143 138 0
-75 143 -138 0
-41 -139 144 0
-41 -138 144 0
-41 -144 139 138 0
-42 -144 139 0
-42 144 -139 0
-43 -144 139 0
-43 144 -139 0
-44 -144 139 0
-44 144 -139 0
-45 -144 139 0
-45 -144 140 0
-45 144 -139 -140 0
-46 -144 139 0
-46 -144 141 0
-46 144 -139 -141 0
-47 -144 139 0
-47 -144 142 0
-47 144 -139 -142 0
-48 -144 139 0
-48 144 -139 0
-49 -144 139 0
-49 144 -139 0
-50 -144 139 0
-50 144 -139 0
-75 -144 139 0
-75 144 -139 0
-41 -145 140 0
-41 145 -140 0
-42 -140 145 0
-42 -138 145 0
-42 -145 140 138 0
-43 -145 140 0
-43 145 -140 0
-44 -145 140 0
-44 145 -140 0
-45 -140 145 0
-45 -139 145 0
-45 -145 140 139 0
-46 -145 140 0
-46 145 -140 0
-47 -145 140 0
-47 145 -140 0
-48 -145 140 0
-48 -145 141 0
-48 145 -140 -141 0
-49 -145 140 0
-49 -145 142 0
-49 145 -140 -142 0
-50 -145 140 0
-50 145 -140 0
-75 -145 140 0
-75 145 -140 0
-41 -146 141 0
-41 146 -141 0
-42 -146 141 0
-42 146 -141 0
-43 -141 146 0
-43 -138 146 0
-43 -146 141 138 0
-44 -146 141 0
-44 146 -141 0
-45 -146 141 0
-45 146 -141 0
-46 -141 146 0
-46 -139 146 0
-46 -146 141 139 0
-47 -146 141 0
-47 146 -141 0
-48 -141 146 0
-48 -140 146 0
-48 -146 141 140 0
-49 -146 141 0
-49 146 -141 0
-50 -146 141 0
-50 -146 142 0
-50 146 -141 -142 0
-75 -146 141 0
-75 146 -141 0
-41 -147 142 0
-41 147 -142 0
-42 -147 142 0
-42 147 -142 0
-43 -147 142 0
-43 147 -142 0
-44 -142 147 0
-44 -138 147 0
-44 -147 142 138 0
-45 -147 142 0
-45 147 -142 0
-46 -147 142 0
-46 147 -142 0
-47 -142 147 0
-47 -139 147 0
-47 -147 142 139 0
-48 -147 142 0
-48 147 -142 0
-49 -142 147 0
-49 -140 147 0
-49 -147 142 140 0
-50 -142 147 0
-50 -141 147 0
-50 -147 142 141 0
-75 -147 142 0
-75 147 -142 0
-51 -148 143 0
-51 -148 144 0
-51 148 -143 -144 0
-52 -148 143 0
-52 -148 145 0
-52 148 -143 -145 0
-53 -148 143 0
-53 -148 146 0
-53 148 -143 -146 0
-54 -148 143 0
-54 -148 147 0
-54 148 -143 -147 0
-55 -148 143 0
-55 148 -143 0
-56 -148 143 0
-56 148 -143 0
-57 -148 143 0
-57 148 -143 0
-58 -148 143 0
-58 148 -143 0
-59 -148 143 0
-59 148 -143 0
-60 -148 143 0
-60 148 -143 0
-76 -148 143 0
-76 148 -143 0
-51 -144 149 0
-51 -143 149 0
-51 -149 144 143 0
-52 -149 144 0
-52 149 -144 0
-53 -149 144 0
-53 149 -144 0
-54 -149 144 0
-54 149 -144 0
-55 -149 144 0
-55 -149 145 0
-55 149 -144 -145 0
-56 -149 144 0
-56 -149 146 0
-56 149 -144 -146 0
-57 -149 144 0
-57 -149 147 0
-57 149 -144 -147 0
-58 -149 144 0
-58 149 -144 0
-59 -149 144 0
-59 149 -144 0
-60 -149 144 0
-60 149 -144 0
-76 -149 144 0
-76 149 -144 0
-51 -150 145 0
-51 150 -145 0
-52 -145 150 0
-52 -143 150 0
-52 -150 145 143 0
-53 -150 145 0
-53 150 -145 0
-54 -150 145 0
-54 150 -145 0
-55 -145 150 0
-55 -144 150 0
-55 -150 145 144 0
-56 -150 145 0
-56 150 -145 0
-57 -150 145 0
-57 150 -145 0
-58 -150 145 0
-58 -150 146 0
-58 150 -145 -146 0
-59 -150 145 0
-59 -150 147 0
-59 150 -145 -147 0
-60 -150 145 0
-60 150 -145 0
-76 -150 145 0
-76 150 -145 0
-51 -151 146 0
-51 151 -146 0
-52 -151 146 0
-52 151 -146 0
-53 -146 151 0
-53 -143 151 0
-53 -151 146 143 0
-54 -151 146 0
-54 151 -146 0
-55 -151 146 0
-55 151 -146 0
-56 -146 151 0
-56 -144 151 0
-56 -151 146 144 0
-57 -151 146 0
-57 151 -146 0
-58 -146 151 0
-58 -145 151 0
-58 -151 146 145 0
-59 -151 146 0
-59 151 -146 0
-60 -151 146 0
-60 -151 147 0
-60 151 -146 -147 0
-76 -151 146 0
-76 151 -146 0
-51 -152 147 0
-51 152 -147 0
-52 -152 147 0
-52 152 -147 0
-53 -152 147 0
-53 152 -147 0
-54 -147 152 0
-54 -143 152 0
-54 -152 147 143 0
-55 -152 147 0
-55 152 -147 0
-56 -152 147 0
-56 152 -147 0
-57 -147 152 0
-57 -144 152 0
-57 -152 147 144 0
-58 -152 147 0
-58 152 -147 0
-59 -147 152 0
-59 -145 152 0
-59 -152 147 145 0
-60 -147 152 0
-60 -146 152 0
-60 -152 147 146 0
-76 -152 147 0
-76 152 -147 0
-61 -153 148 0
-61 -153 149 0
-61 153 -148 -149 0
-62 -153 148 0
-62 -153 150 0
-62 153 -148 -150 0
-63 -153 148 0
-63 -153 151 0
-63 153 -148 -151 0
-64 -153 148 0
-64 -153 152 0
-64 153 -148 -152 0
-65 -153 148 0
-65 153 -148 0
-66 -153 148 0
-66 153 -148 0
-67 -153 148 0
-67 153 -148 0
-68 -153 148 0
-68 153 -148 0
-69 -153 148 0
-69 153 -148 0
-70 -153 148 0
-70 153 -148 0
-77 -153 148 0
-77 153 -148 0
-61 -149 154 0
-61 -148 154 0
-61 -154 149 148 0
-62 -154 149 0
-62 154 -149 0
-63 -154 149 0
-63 154 -149 0
-64 -154 149 0
-64 154 -149 0
-65 -154 149 0
-65 -154 150 0
-65 154 -149 -150 0
-66 -154 149 0
-66 -154 151 0
-66 154 -149 -151 0
-67 -154 149 0
-67 -154 152 0
-67 154 -149 -152 0
-68 -154 149 0
-68 154 -149 0
-69 -154 149 0
-69 154 -149 0
-70 -154 149 0
-70 154 -149 0
-77 -154 149 0
-77 154 -149 0
-61 -155 150 0
-61 155 -150 0
-62 -150 155 0
-62 -148 155 0
-62 -155 150 148 0
-63 -155 150 0
-63 155 -150 0
-64 -155 150 0
-64 155 -150 0
-65 -150 155 0
-65 -149 155 0
-65 -155 150 149 0
-66 -155 150 0
-66 155 -150 0
-67 -155 150 0
-67 155 -150 0
-68 -155 150 0
-68 -155 151 0
-68 155 -150 -151 0
-69 -155 150 0
-69 -155 152 0
-69 155 -150 -152 0
-70 -155 150 0
-70 155 -150 0
-77 -155 150 0
-77 155 -150 0
-61 -156 151 0
-61 156 -151 0
-62 -156 151 0
-62 156 -151 0
-63 -151 156 0
-63 -148 156 0
-63 -156 151 148 0
-64 -156 151 0
-64 156 -151 0
-65 -156 151 0
-65 156 -151 0
-66 -151 156 0
-66 -149 156 0
-66 -156 151 149 0
-67 -156 151 0
-67 156 -151 0
-68 -151 156 0
-68 -150 156 0
-68 -156 151 150 0
-69 -156 151 0
-69 156 -151 0
-70 -156 151 0
-70 -156 152 0
-70 156 -151 -152 0
-77 -156 151 0
-77 156 -151 0
-61 -157 152 0
-61 157 -152 0
-62 -157 152 0
-62 157 -152 0
-63 -157 152 0
-63 157 -152 0
-64 -152 157 0
-64 -148 157 0
-64 -157 152 148 0
-65 -157 152 0
-65 157 -152 0
-66 -157 152 0
-66 157 -152 0
-67 -152 157 0
-67 -149 157 0
-67 -157 152 149 0
-68 -157 152 0
-68 157 -152 0
-69 -152 157 0
-69 -150 157 0
-69 -157 152 150 0
-70 -152 157 0
-70 -151 157 0
-70 -157 152 151 0
-77 -157 152 0
-77 157 -152 0
-158 0
-1 -163 158 0
-1 -163 159 0
-1 163 -158 -159 0
-2 -163 158 0
-2 -163 160 0
-2 163 -158 -160 0
-3 -163 158 0
-3 -163 161 0
-3 163 -158 -161 0
-4 -163 158 0
-4 -163 162 0
-4 163 -158 -162 0
-5 -163 158 0
-5 163 -158 0
-6 -163 158 0
-6 163 -158 0
-7 -163 158 0
-7 163 -158 0
-8 -163 158 0
-8 163 -158 0
-9 -163 158 0
-9 163 -158 0
-10 -163 158 0
-10 163 -158 0
-71 -163 158 0
-71 163 -158 0
-159 0
-1 -159 164 0
-1 -158 164 0
-1 -164 159 158 0
-2 -164 159 0
-2 164 -159 0
-3 -164 159 0
-3 164 -159 0
-4 -164 159 0
-4 164 -159 0
-5 -164 159 0
-5 -164 160 0
-5 164 -159 -160 0
-6 -164 159 0
-6 -164 161 0
-6 164 -159 -161 0
-7 -164 159 0
-7 -164 162 0
-7 164 -159 -162 0
-8 -164 159 0
-8 164 -159 0
-9 -164 159 0
-9 164 -159 0
-10 -164 159 0
-10 164 -159 0
-71 -164 159 0
-71 164 -159 0
160 0
-1 -165 160 0
-1 165 -160 0
-2 -160 165 0
-2 -158 165 0
-2 -165 160 158 0
-3 -165 160 0
-3 165 -160 0
-4 -165 160 0
-4 165 -160 0
-5 -160 165 0
-5 -159 165 0
-5 -165 160 159 0
-6 -165 160 0
-6 165 -160 0
-7 -165 160 0
-7 165 -160 0
-8 -165 160 0
-8 -165 161 0
-8 165 -160 -161 0
-9 -165 160 0
-9 -165 162 0
-9 165 -160 -162 0
-10 -165 160 0
-10 165 -160 0
-71 -165 160 0
-71 165 -160 0
-161 0
-1 -166 161 0
-1 166 -161 0
-2 -166 161 0
-2 166 -161 0
-3 -161 166 0
-3 -158 166 0
-3 -166 161 158 0
-4 -166 161 0
-4 166 -161 0
-5 -166 161 0
-5 166 -161 0
-6 -161 166 0
-6 -159 166 0
-6 -166 161 159 0
-7 -166 161 0
-7 166 -161 0
-8 -161 166 0
-8 -160 166 0
-8 -166 161 160 0
-9 -166 161 0
-9 166 -161 0
-10 -166 161 0
-10 -166 162 0
-10 166 -161 -162 0
-71 -166 161 0
-71 166 -161 0
162 0
-1 -167 162 0
-1 167 -162 0
-2 -167 162 0
-2 167 -162 0
-3 -167 162 0
-3 167 -162 0
-4 -162 167 0
-4 -158 167 0
-4 -167 162 158 0
-5 -167 162 0
-5 167 -162 0
-6 -167 162 0
-6 167 -162 0
-7 -162 167 0
-7 -159 167 0
-7 -167 162 159 0
-8 -167 162 0
-8 167 -162 0
-9 -162 167 0
-9 -160 167 0
-9 -167 162 160 0
-10 -162 167 0
-10 -161 167 0
-10 -167 162 161 0
-71 -167 162 0
-71 167 -162 0
-11 -168 163 0
-11 -168 164 0
-11 168 -163 -164 0
-12 -168 163 0
-12 -168 165 0
-12 168 -163 -165 0
-13 -168 163 0
-13 -168 166 0
-13 168 -163 -166 0
-14 -168 163 0
-14 -168 167 0
-14 168 -163 -167 0
-15 -168 163 0
-15 168 -163 0
-16 -168 163 0
-16 168 -163 0
-17 -168 163 0
-17 168 -163 0
-18 -168 163 0
-18 168 -163 0
-19 -168 163 0
-19 168 -163 0
-20 -168 163 0
-20 168 -163 0
-72 -168 163 0
-72 168 -163 0
-11 -164 169 0
-11 -163 169 0
-11 -169 164 163 0
-12 -169 164 0
-12 169 -164 0
-13 -169 164 0
-13 169 -164 0
-14 -169 164 0
-14 169 -164 0
-15 -169 164 0
-15 -169 165 0
-15 169 -164 -165 0
-16 -169 164 0
-16 -169 166 0
-16 169 -164 -166 0
-17 -169 164 0
-17 -169 167 0
-17 169 -164 -167 0
-18 -169 164 0
-18 169 -164 0
-19 -169 164 0
-19 169 -164 0
-20 -169 164 0
-20 169 -164 0
-72 -169 164 0
-72 169 -164 0
-11 -170 165 0
-11 170 -165 0
-12 -165 170 0
-12 -163 170 0
-12 -170 165 163 0
-13 -170 165 0
-13 170 -165 0
-14 -170 165 0
-14 170 -165 0
-15 -165 170 0
-15 -164 170 0
-15 -170 165 164 0
-16 -170 165 0
-16 170 -165 0
-17 -170 165 0
-17 170 -165 0
-18 -170 165 0
-18 -170 166 0
-18 170 -165 -166 0
-19 -170 165 0
-19 -170 167 0
-19 170 -165 -167 0
-20 -170 165 0
-20 170 -165 0
-72 -170 165 0
-72 170 -165 0
-11 -171 166 0
-11 171 -166 0
-12 -171 166 0
-12 171 -166 0
-13 -166 171 0
-13 -163 171 0
-13 -171 166 163 0
-14 -171 166 0
-14 171 -166 0
-15 -171 166 0
-15 171 -166 0
-16 -166 171 0
-16 -164 171 0
-16 -171 166 164 0
-17 -171 166 0
-17 171 -166 0
-18 -166 171 0
-18 -165 171 0
-18 -171 166 165 0
-19 -171 166 0
-19 171 -166 0
-20 -171 166 0
-20 -171 167 0
-20 171 -166 -167 0
-72 -171 166 0
-72 171 -166 0
-11 -172 167 0
-11 172 -167 0
-12 -172 167 0
-12 172 -167 0
-13 -172 167 0
-13 172 -167 0
-14 -167 172 0
-14 -163 172 0
-14 -172 167 163 0
-15 -172 167 0
-15 172 -167 0
-16 -172 167 0
-16 172 -167 0
-17 -167 172 0
-17 -164 172 0
-17 -172 167 164 0
-18 -172 167 0
-18 172 -167 0
-19 -167 172 0
-19 -165 172 0
-19 -172 167 165 0
-20 -167 172 0
-20 -166 172 0
-20 -172 167 166 0
-72 -172 167 0
-72 172 -167 0
-21 -173 168 0
-21 -173 169 0
-21 173 -168 -169 0
-22 -173 168 0
-22 -173 170 0
-22 173 -168 -170 0
-23 -173 168 0
-23 -173 171 0
-23 173 -168 -171 0
-24 -173 168 0
-24 -173 172 0
-24 173 -168 -172 0
-25 -173 168 0
-25 173 -168 0
-26 -173 168 0
-26 173 -168 0
-27 -173 168 0
-27 173 -168 0
-28 -173 168 0
-28 173 -168 0
-29 -173 168 0
-29 173 -168 0
-30 -173 168 0
-30 173 -168 0
-73 -173 168 0
-73 173 -168 0
-21 -169 174 0
-21 -168 174 0
-21 -174 169 168 0
-22 -174 169 0
-22 174 -169 0
-23 -174 169 0
-23 174 -169 0
-24 -174 169 0
-24 174 -169 0
-25 -174 169 0
-25 -174 170 0
-25 174 -169 -170 0
-26 -174 169 0
-26 -174 171 0
-26 174 -169 -171 0
-27 -174 169 0
-27 -174 172 0
-27 174 -169 -172 0
-28 -174 169 0
-28 174 -169 0
-29 -174 169 0
-29 174 -169 0
-30 -174 169 0
-30 174 -169 0
-73 -174 169 0
-73 174 -169 0
-21 -175 170 0
-21 175 -170 0
-22 -170 175 0
-22 -168 175 0
-22 -175 170 168 0
-23 -175 170 0
-23 175 -170 0
-24 -175 170 0
-24 175 -170 0
-25 -170 175 0
-25 -169 175 0
-25 -175 170 169 0
-26 -175 170 0
-26 175 -170 0
-27 -175 170 0
-27 175 -170 0
-28 -175 170 0
-28 -175 171 0
-28 175 -170 -171 0
-29 -175 170 0
-29 -175 172 0
-29 175 -170 -172 0
-30 -175 170 0
-30 175 -170 0
-73 -175 170 0
-73 175 -170 0
-21 -176 171 0
-21 176 -171 0
-22 -176 171 0
-22 176 -171 0
-23 -171 176 0
-23 -168 176 0
-23 -176 171 168 0
-24 -176 171 0
-24 176 -171 0
-25 -176 171 0
-25 176 -171 0
-26 -171 176 0
-26 -169 176 0
-26 -176 171 169 0
-27 -176 171 0
-27 176 -171 0
-28 -171 176 0
-28 -170 176 0
-28 -176 171 170 0
-29 -176 171 0
-29 176 -171 0
-30 -176 171 0
-30 -176 172 0
-30 176 -171 -172 0
-73 -176 171 0
-73 176 -171 0
-21 -177 172 0
-21 177 -172 0
-22 -177 172 0
-22 177 -172 0
-23 -177 172 0
-23 177 -172 0
-24 -172 177 0
-24 -168 177 0
-24 -177 172 168 0
-25 -177 172 0
-25 177 -172 0
-26 -177 172 0
-26 177 -172 0
-27 -172 177 0
-27 -169 177 0
-27 -177 172 169 0
-28 -177 172 0
-28 177 -172 0
-29 -172 177 0
-29 -170 177 0
-29 -177 172 170 0
-30 -172 177 0
-30 -171 177 0
-30 -177 172 171 0
-73 -177 172 0
-73 177 -172 0
-31 -178 173 0
-31 -178 174 0
-31 178 -173 -174 0
-32 -178 173 0
-32 -178 175 0
-32 178 -173 -175 0
-33 -178 173 0
-33 -178 176 0
-33 178 -173 -176 0
-34 -178 173 0
-34 -178 177 0
-34 178 -173 -177 0
-35 -178 173 0
-35 178 -173 0
-36 -178 173 0
-36 178 -173 0
-37 -178 173 0
-37 178 -173 0
-38 -178 173 0
-38 178 -173 0
-39 -178 173 0
-39 178 -173 0
-40 -178 173 0
-40 178 -173 0
-74 -178 173 0
-74 178 -173 0
-31 -174 179 0
-31 -173 179 0
-31 -179 174 173 0
-32 -179 174 0
-32 179 -174 0
-33 -179 174 0
-33 179 -174 0
-34 -179 174 0
-34 179 -174 0
-35 -179 174 0
-35 -179 175 0
-35 179 -174 -175 0
-36 -179 174 0
-36 -179 176 0
-36 179 -174 -176 0
-37 -179 174 0
-37 -179 177 0
-37 179 -174 -177 0
-38 -179 174 0
-38 179 -174 0
-39 -179 174 0
-39 179 -174 0
-40 -179 174 0
-40 179 -174 0
-74 -179 174 0
-74 179 -174 0
-31 -180 175 0
-31 180 -175 0
-32 -175 180 0
-32 -173 180 0
-32 -180 175 173 0
-33 -180 175 0
-33 180 -175 0
-34 -180 175 0
-34 180 -175 0
-35 -175 180 0
-35 -174 180 0
-35 -180 175 174 0
-36 -180 175 0
-36 180 -175 0
-37 -180 175 0
-37 180 -175 0
-38 -180 175 0
-38 -180 176 0
-38 180 -175 -176 0
-39 -180 175 0
-39 -180 177 0
-39 180 -175 -177 0
-40 -180 175 0
-40 180 -175 0
-74 -180 175 0
-74 180 -175 0
-31 -181 176 0
-31 181 -176 0
-32 -181 176 0
-32 181 -176 0
-33 -176 181 0
-33 -173 181 0
-33 -181 176 173 0
-34 -181 176 0
-34 181 -176 0
-35 -181 176 0
-35 181 -176 0
-36 -176 181 0
-36 -174 181 0
-36 -181 176 174 0
-37 -181 176 0
-37 181 -176 0
-38 -176 181 0
-38 -175 181 0
-38 -181 176 175 0
-39 -181 176 0
-39 181 -176 0
-40 -181 176 0
-40 -181 177 0
-40 181 -176 -177 0
-74 -181 176 0
-74 181 -176 0
-31 -182 177 0
-31 182 -177 0
-32 -182 177 0
-32 182 -177 0
-33 -182 177 0
-33 182 -177 0
-34 -177 182 0
-34 -173 182 0
-34 -182 177 173 0
-35 -182 177 0
-35 182 -177 0
-36 -182 177 0
-36 182 -177 0
-37 -177 182 0
-37 -174 182 0
-37 -182 177 174 0
-38 -182 177 0
-38 182 -177 0
-39 -177 182 0
-39 -175 182 0
-39 -182 177 175 0
-40 -177 182 0
-40 -176 182 0
-40 -182 177 176 0
-74 -182 177 0
-74 182 -177 0
-41 -183 178 0
-41 -183 179 0
-41 183 -178 -179 0
-42 -183 178 0
-42 -183 180 0
-42 183 -178 -180 0
-43 -183 178 0
-43 -183 181 0
-43 183 -178 -181 0
-44 -183 178 0
-44 -183 182 0
-44 183 -178 -182 0
-45 -183 178 0
-45 183 -178 0
-46 -183 178 0
-46 183 -178 0
-47 -183 178 0
-47 183 -178 0
-48 -183 178 0
-48 183 -178 0
-49 -183 178 0
-49 183 -178 0
-50 -183 178 0
-50 183 -178 0
-75 -183 178 0
-75 183 -178 0
-41 -179 184 0
-41 -178 184 0
-41 -184 179 178 0
-42 -184 179 0
-42 184 -179 0
-43 -184 179 0
-43 184 -179 0
-44 -184 179 0
-44 184 -179 0
-45 -184 179 0
-45 -184 180 0
-45 184 -179 -180 0
-46 -184 179 0
-46 -184 181 0
-46 184 -179 -181 0
-47 -184 179 0
-47 -184 182 0
-47 184 -179 -182 0
-48 -184 179 0
-48 184 -179 0
-49 -184 179 0
-49 184 -179 0
-50 -184 179 0
-50 184 -179 0
-75 -184 179 0
-75 184 -179 0
-41 -185 180 0
-41 185 -180 0
-42 -180 185 0
-42 -178 185 0
-42 -185 180 178 0
-43 -185 180 0
-43 185 -180 0
-44 -185 180 0
-44 185 -180 0
-45 -180 185 0
-45 -179 185 0
-45 -185 180 179 0
-46 -185 180 0
-46 185 -180 0
-47 -185 180 0
-47 185 -180 0
-48 -185 180 0
-48 -185 181 0
-48 185 -180 -181 0
-49 -185 180 0
-49 -185 182 0
-49 185 -180 -182 0
-50 -185 180 0
-50 185 -180 0
-75 -185 180 0
-75 185 -180 0
-41 -186 181 0
-41 186 -181 0
-42 -186 181 0
-42 186 -181 0
-43 -181 186 0
-43 -178 186 0
-43 -186 181 178 0
-44 -186 181 0
-44 186 -181 0
-45 -186 181 0
-45 186 -181 0
-46 -181 186 0
-46 -179 186 0
-46 -186 181 179 0
-47 -186 181 0
-47 186 -181 0
-48 -181 186 0
-48 -180 186 0
-48 -186 181 180 0
-49 -186 181 0
-49 186 -181 0
-50 -186 181 0
-50 -186 182 0
-50 186 -181 -182 0
-75 -186 181 0
-75 186 -181 0
-41 -187 182 0
-41 187 -182 0
-42 -187 182 0
-42 187 -182 0
-43 -187 182 0
-43 187 -182 0
-44 -182 187 0
-44 -178 187 0
-44 -187 182 178 0
-45 -187 182 0
-45 187 -182 0
-46 -187 182 0
-46 187 -182 0
-47 -182 187 0
-47 -179 187 0
-47 -187 182 179 0
-48 -187 182 0
-48 187 -182 0
-49 -182 187 0
-49 -180 187 0
-49 -187 182 180 0
-50 -182 187 0
-50 -181 187 0
-50 -187 182 181 0
-75 -187 182 0
-75 187 -182 0
-51 -188 183 0
-51 -188 184 0
-51 188 -183 -184 0
-52 -188 183 0
-52 -188 185 0
-52 188 -183 -185 0
-53 -188 183 0
-53 -188 186 0
-53 188 -183 -186 0
-54 -188 183 0
-54 -188 187 0
-54 188 -183 -187 0
-55 -188 183 0
-55 188 -183 0
-56 -188 183 0
-56 188 -183 0
-57 -188 183 0
-57 188 -183 0
-58 -188 183 0
-58 188 -183 0
-59 -188 183 0
-59 188 -183 0
-60 -188 183 0
-60 188 -183 0
-76 -188 183 0
-76 188 -183 0
-51 -184 189 0
-51 -183 189 0
-51 -189 184 183 0
-52 -189 184 0
-52 189 -184 0
-53 -189 184 0
-53 189 -184 0
-54 -189 184 0
-54 189 -184 0
-55 -189 184 0
-55 -189 185 0
-55 189 -184 -185 0
-56 -189 184 0
-56 -189 186 0
-56 189 -184 -186 0
-57 -189 184 0
-57 -189 187 0
-57 189 -184 -187 0
-58 -189 184 0
-58 189 -184 0
-59 -189 184 0
-59 189 -184 0
-60 -189 184 0
-60 189 -184 0
-76 -189 184 0
-76 189 -184 0
-51 -190 185 0
-51 190 -185 0
-52 -185 190 0
-52 -183 190 0
-52 -190 185 183 0
-53 -190 185 0
-53 190 -185 0
-54 -190 185 0
-54 190 -185 0
-55 -185 190 0
-55 -184 190 0
-55 -190 185 184 0
-56 -190 185 0
-56 190 -185 0
-57 -190 185 0
-57 190 -185 0
-58 -190 185 0
-58 -190 186 0
-58 190 -185 -186 0
-59 -190 185 0
-59 -190 187 0
-59 190 -185 -187 0
-60 -190 185 0
-60 190 -185 0
-76 -190 185 0
-76 190 -185 0
-51 -191 186 0
-51 191 -186 0
-52 -191 186 0
-52 191 -186 0
-53 -186 191 0
-53 -183 191 0
-53 -191 186 183 0
-54 -191 186 0
-54 191 -186 0
-55 -191 186 0
-55 191 -186 0
-56 -186 191 0
-56 -184 191 0
-56 -191 186 184 0
-57 -191 186 0
-57 191 -186 0
-58 -186 191 0
-58 -185 191 0
-58 -191 186 185 0
-59 -191 186 0
-59 191 -186 0
-60 -191 186 0
-60 -191 187 0
-60 191 -186 -187 0
-76 -191 186 0
-76 191 -186 0
-51 -192 187 0
-51 192 -187 0
-52 -192 187 0
-52 192 -187 0
-53 -192 187 0
-53 192 -187 0
-54 -187 192 0
-54 -183 192 0
-54 -192 187 183 0
-55 -192 187 0
-55 192 -187 0
-56 -192 187 0
-56 192 -187 0
-57 -187 192 0
-57 -184 192 0
-57 -192 187 184 0
-58 -192 187 0
-58 192 -187 0
-59 -187 192 0
-59 -185 192 0
-59 -192 187 185 0
-60 -187 192 0
-60 -186 192 0
-60 -192 187 186 0
-76 -192 187 0
-76 192 -187 0
-61 -193 188 0
-61 -193 189 0
-61 193 -188 -189 0
-62 -193 188 0
-62 -193 190 0
-62 193 -188 -190 0
-63 -193 188 0
-63 -193 191 0
-63 193 -188 -191 0
-64 -193 188 0
-64 -193 192 0
-64 193 -188 -192 0
-65 -193 188 0
-65 193 -188 0
-66 -193 188 0
-66 193 -188 0
-67 -193 188 0
-67 193 -188 0
-68 -193 188 0
-68 193 -188 0
-69 -193 188 0
-69 193 -188 0
-70 -193 188 0
-70 193 -188 0
-77 -193 188 0
-77 193 -188 0
-61 -189 194 0
-61 -188 194 0
-61 -194 189 188 0
-62 -194 189 0
-62 194 -189 0
-63 -194 189 0
-63 194 -189 0
-64 -194 189 0
-64 194 -189 0
-65 -194 189 0
-65 -194 190 0
-65 194 -189 -190 0
-66 -194 189 0
-66 -194 191 0
-66 194 -189 -191 0
-67 -194 189 0
-67 -194 192 0
-67 194 -189 -192 0
-68 -194 189 0
-68 194 -189 0
-69 -194 189 0
-69 194 -189 0
-70 -194 189 0
-70 194 -189 0
-77 -194 189 0
-77 194 -189 0
-61 -195 190 0
-61 195 -190 0
-62 -190 195 0
-62 -188 195 0
-62 -195 190 188 0
-63 -195 190 0
-63 195 -190 0
-64 -195 190 0
-64 195 -190 0
-65 -190 195 0
-65 -189 195 0
-65 -195 190 189 0
-66 -195 190 0
-66 195 -190 0
-67 -195 190 0
-67 195 -190 0
-68 -195 190 0
-68 -195 191 0
-68 195 -190 -191 0
-69 -195 190 0
-69 -195 192 0
-69 195 -190 -192 0
-70 -195 190 0
-70 195 -190 0
-77 -195 190 0
-77 195 -190 0
-61 -196 191 0
-61 196 -191 0
-62 -196 191 0
-62 196 -191 0
-63 -191 196 0
-63 -188 196 0
-63 -196 191 188 0
-64 -196 191 0
-64 196 -191 0
-65 -196 191 0
-65 196 -191 0
-66 -191 196 0
-66 -189 196 0
-66 -196 191 189 0
-67 -196 191 0
-67 196 -191 0
-68 -191 196 0
-68 -190 196 0
-68 -196 191 190 0
-69 -196 191 0
-69 196 -191 0
-70 -196 191 0
-70 -196 192 0
-70 196 -191 -192 0
-77 -196 191 0
-77 196 -191 0
-61 -197 192 0
-61 197 -192 0
-62 -197 192 0
-62 197 -192 0
-63 -197 192 0
-63 197 -192 0
-64 -192 197 0
-64 -188 197 0
-64 -197 192 188 0
-65 -197 192 0
-65 197 -192 0
-66 -197 192 0
-66 197 -192 0
-67 -192 197 0
-67 -189 197 0
-67 -197 192 189 0
-68 -197 192 0
-68 197 -192 0
-69 -192 197 0
-69 -190 197 0
-69 -197 192 190 0
-70 -192 197 0
-70 -191 197 0
-70 -197 192 191 0
-77 -197 192 0
-77 197 -192 0
-198 0
-1 -203 198 0
-1 -203 199 0
-1 203 -198 -199 0
-2 -203 198 0
-2 -203 200 0
-2 203 -198 -200 0
-3 -203 198 0
-3 -203 201 0
-3 203 -198 -201 0
-4 -203 198 0
-4 -203 202 0
-4 203 -198 -202 0
-5 -203 198 0
-5 203 -198 0
-6 -203 198 0
-6 203 -198 0
-7 -203 198 0
-7 203 -198 0
-8 -203 198 0
-8 203 -198 0
-9 -203 198 0
-9 203 -198 0
-10 -203 198 0
-10 203 -198 0
-71 -203 198 0
-71 203 -198 0
-199 0
-1 -199 204 0
-1 -198 204 0
-1 -204 199 198 0
-2 -204 199 0
-2 204 -199 0
-3 -204 199 0
-3 204 -199 0
-4 -204 199 0
-4 204 -199 0
-5 -204 199 0
-5 -204 200 0
-5 204 -199 -200 0
-6 -204 199 0
-6 -204 201 0
-6 204 -199 -201 0
-7 -204 199 0
-7 -204 202 0
-7 204 -199 -202 0
-8 -204 199 0
-8 204 -199 0
-9 -204 199 0
-9 204 -199 0
-10 -204 199 0
-10 204 -199 0
-71 -204 199 0
-71 204 -199 0
200 0
-1 -205 200 0
-1 205 -200 0
-2 -200 205 0
-2 -198 205 0
-2 -205 200 198 0
-3 -205 200 0
-3 205 -200 0
-4 -205 200 0
-4 205 -200 0
-5 -200 205 0
-5 -199 205 0
-5 -205 200 199 0
-6 -205 200 0
-6 205 -200 0
-7 -205 200 0
-7 205 -200 0
-8 -205 200 0
-8 -205 201 0
-8 205 -200 -201 0
-9 -205 200 0
-9 -205 202 0
-9 205 -200 -202 0
-10 -205 200 0
-10 205 -200 0
-71 -205 200 0
-71 205 -200 0
201 0
-1 -206 201 0
-1 206 -201 0
-2 -206 201 0
-2 206 -201 0
-3 -201 206 0
-3 -198 206 0
-3 -206 201 198 0
-4 -206 201 0
-4 206 -201 0
-5 -206 201 0
-5 206 -201 0
-6 -201 206 0
-6 -199 206 0
-6 -206 201 199 0
-7 -206 201 0
-7 206 -201 0
-8 -201 206 0
-8 -200 206 0
-8 -206 201 200 0
-9 -206 201 0
-9 206 -201 0
-10 -206 201 0
-10 -206 202 0
-10 206 -201 -202 0
-71 -206 201 0
-71 206 -201 0
-202 0
-1 -207 202 0
-1 207 -202 0
-2 -207 202 0
-2 207 -202 0
-3 -207 202 0
-3 207 -202 0
-4 -202 207 0
-4 -198 207 0
-4 -207 202 198 0
-5 -207 202 0
-5 207 -202 0
-6 -207 202 0
-6 207 -202 0
-7 -202 207 0
-7 -199 207 0
-7 -207 202 199 0
-8 -207 202 0
-8 207 -202 0
-9 -202 207 0
-9 -200 207 0
-9 -207 202 200 0
-10 -202 207 0
-10 -201 207 0
-10 -207 202 201 0
-71 -207 202 0
-71 207 -202 0
-11 -208 203 0
-11 -208 204 0
-11 208 -203 -204 0
-12 -208 203 0
-12 -208 205 0
-12 208 -203 -205 0
-13 -208 203 0
-13 -208 206 0
-13 208 -203 -206 0
-14 -208 203 0
-14 -208 207 0
-14 208 -203 -207 0
-15 -208 203 0
-15 208 -203 0
-16 -208 203 0
-16 208 -203 0
-17 -208 203 0
-17 208 -203 0
-18 -208 203 0
-18 208 -203 0
-19 -208 203 0
-19 208 -203 0
-20 -208 203 0
-20 208 -203 0
-72 -208 203 0
-72 208 -203 0
-11 -204 209 0
-11 -203 209 0
-11 -209 204 203 0
-12 -209 204 0
-12 209 -204 0
-13 -209 204 0
-13 209 -204 0
-14 -209 204 0
-14 209 -204 0
-15 -209 204 0
-15 -209 205 0
-15 209 -204 -205 0
-16 -209 204 0
-16 -209 206 0
-16 209 -204 -206 0
-17 -209 204 0
-17 -209 207 0
-17 209 -204 -207 0
-18 -209 204 0
-18 209 -204 0
-19 -209 204 0
-19 209 -204 0
-20 -209 204 0
-20 209 -204 0
-72 -209 204 0
-72 209 -204 0
-11 -210 205 0
-11 210 -205 0
-12 -205 210 0
-12 -203 210 0
-12 -210 205 203 0
-13 -210 205 0
-13 210 -205 0
-14 -210 205 0
-14 210 -205 0
-15 -205 210 0
-15 -204 210 0
-15 -210 205 204 0
-16 -210 205 0
-16 210 -205 0
-17 -210 205 0
-17 210 -205 0
-18 -210 205 0
-18 -210 206 0
-18 210 -205 -206 0
-19 -210 205 0
-19 -210 207 0
-19 210 -205 -207 0
-20 -210 205 0
-20 210 -205 0
-72 -210 205 0
-72 210 -205 0
-11 -211 206 0
-11 211 -206 0
-12 -211 206 0
-12 211 -206 0
-13 -206 211 0
-13 -203 211 0
-13 -211 206 203 0
-14 -211 206 0
-14 211 -206 0
-15 -211 206 0
-15 211 -206 0
-16 -206 211 0
-16 -204 211 0
-16 -211 206 204 0
-17 -211 206 0
-17 211 -206 0
-18 -206 211 0
-18 -205 211 0
-18 -211 206 205 0
-19 -211 206 0
-19 211 -206 0
-20 -211 206 0
-20 -211 207 0
-20 211 -206 -207 0
-72 -211 206 0
-72 211 -206 0
-11 -212 207 0
-11 212 -207 0
-12 -212 207 0
-12 212 -207 0
-13 -212 207 0
-13 212 -207 0
-14 -207 212 0
-14 -203 212 0
-14 -212 207 203 0
-15 -212 207 0
-15 212 -207 0
-16 -212 207 0
-16 212 -207 0
-17 -207 212 0
-17 -204 212 0
-17 -212 207 204 0
-18 -212 207 0
-18 212 -207 0
-19 -207 212 0
-19 -205 212 0
-19 -212 207 205 0
-20 -207 212 0
-20 -206 212 0
-20 -212 207 206 0
-72 -212 207 0
-72 212 -207 0
-21 -213 208 0
-21 -213 209 0
-21 213 -208 -209 0
-22 -213 208 0
-22 -213 210 0
-22 213 -208 -210 0
-23 -213 208 0
-23 -213 211 0
-23 213 -208 -211 0
-24 -213 208 0
-24 -213 212 0
-24 213 -208 -212 0
-25 -213 208 0
-25 213 -208 0
-26 -213 208 0
-26 213 -208 0
-27 -213 208 0
-27 213 -208 0
-28 -213 208 0
-28 213 -208 0
-29 -213 208 0
-29 213 -208 0
-30 -213 208 0
-30 213 -208 0
-73 -213 208 0
-73 213 -208 0
-21 -209 214 0
-21 -208 214 0
-21 -214 209 208 0
-22 -214 209 0
-22 214 -209 0
-23 -214 209 0
-23 214 -209 0
-24 -214 209 0
-24 214 -209 0
-25 -214 209 0
-25 -214 210 0
-25 214 -209 -210 0
-26 -214 209 0
-26 -214 211 0
-26 214 -209 -211 0
-27 -214 209 0
-27 -214 212 0
-27 214 -209 -212 0
-28 -214 209 0
-28 214 -209 0
-29 -214 209 0
-29 214 -209 0
-30 -214 209 0
-30 214 -209 0
-73 -214 209 0
-73 214 -209 0
-21 -215 210 0
-21 215 -210 0
-22 -210 215 0
-22 -208 215 0
-22 -215 210 208 0
-23 -215 210 0
-23 215 -210 0
-24 -215 210 0
-24 215 -210 0
-25 -210 215 0
-25 -209 215 0
-25 -215 210 209 0
-26 -215 210 0
-26 215 -210 0
-27 -215 210 0
-27 215 -210 0
-28 -215 210 0
-28 -215 211 0
-28 215 -210 -211 0
-29 -215 210 0
-29 -215 212 0
-29 215 -210 -212 0
-30 -215 210 0
-30 215 -210 0
-73 -215 210 0
-73 215 -210 0
-21 -216 211 0
-21 216 -211 0
-22 -216 211 0
-22 216 -211 0
-23 -211 216 0
-23 -208 216 0
-23 -216 211 208 0
-24 -216 211 0
-24 216 -211 0
-25 -216 211 0
-25 216 -211 0
-26 -211 216 0
-26 -209 216 0
-26 -216 211 209 0
-27 -216 211 0
-27 216 -211 0
-28 -211 216 0
-28 -210 216 0
-28 -216 211 210 0
-29 -216 211 0
-29 216 -211 0
-30 -216 211 0
-30 -216 212 0
-30 216 -211 -212 0
-73 -216 211 0
-73 216 -211 0
-21 -217 212 0
-21 217 -212 0
-22 -217 212 0
-22 217 -212 0
-23 -217 212 0
-23 217 -212 0
-24 -212 217 0
-24 -208 217 0
-24 -217 212 208 0
-25 -217 212 0
-25 217 -212 0
-26 -217 212 0
-26 217 -212 0
-27 -212 217 0
-27 -209 217 0
-27 -217 212 209 0
-28 -217 212 0
-28 217 -212 0
-29 -212 217 0
-29 -210 217 0
-29 -217 212 210 0
-30 -212 217 0
-30 -211 217 0
-30 -217 212 211 0
-73 -217 212 0
-73 217 -212 0
-31 -218 213 0
-31 -218 214 0
-31 218 -213 -214 0
-32 -218 213 0
-32 -218 215 0
-32 218 -213 -215 0
-33 -218 213 0
-33 -218 216 0
-33 218 -213 -216 0
-34 -218 213 0
-34 -218 217 0
-34 218 -213 -217 0
-35 -218 213 0
-35 218 -213 0
-36 -218 213 0
-36 218 -213 0
-37 -218 213 0
-37 218 -213 0
-38 -218 213 0
-38 218 -213 0
-39 -218 213 0
-39 218 -213 0
-40 -218 213 0
-40 218 -213 0
-74 -218 213 0
-74 218 -213 0
-31 -214 219 0
-31 -213 219 0
-31 -219 214 213 0
-32 -219 214 0
-32 219 -214 0
-33 -219 214 0
-33 219 -214 0
-34 -219 214 0
-34 219 -214 0
-35 -219 214 0
-35 -219 215 0
-35 219 -214 -215 0
-36 -219 214 0
-36 -219 216 0
-36 219 -214 -216 0
-37 -219 214 0
-37 -219 217 0
-37 219 -214 -217 0
-38 -219 214 0
-38 219 -214 0
-39 -219 214 0
-39 219 -214 0
-40 -219 214 0
-40 219 -214 0
-74 -219 214 0
-74 219 -214 0
-31 -220 215 0
-31 220 -215 0
-32 -215 220 0
-32 -213 220 0
-32 -220 215 213 0
-33 -220 215 0
-33 220 -215 0
-34 -220 215 0
-34 220 -215 0
-35 -215 220 0
-35 -214 220 0
-35 -220 215 214 0
-36 -220 215 0
-36 220 -215 0
-37 -220 215 0
-37 220 -215 0
-38 -220 215 0
-38 -220 216 0
-38 220 -215 -216 0
-39 -220 215 0
-39 -220 217 0
-39 220 -215 -217 0
-40 -220 215 0
-40 220 -215 0
-74 -220 215 0
-74 220 -215 0
-31 -221 216 0
-31 221 -216 0
-32 -221 216 0
-32 221 -216 0
-33 -216 221 0
-33 -213 221 0
-33 -221 216 213 0
-34 -221 216 0
-34 221 -216 0
-35 -221 216 0
-35 221 -216 0
-36 -216 221 0
-36 -214 221 0
-36 -221 216 214 0
-37 -221 216 0
-37 221 -216 0
-38 -216 221 0
-38 -215 221 0
-38 -221 216 215 0
-39 -221 216 0
-39 221 -216 0
-40 -221 216 0
-40 -221 217 0
-40 221 -216 -217 0
-74 -221 216 0
-74 221 -216 0
-31 -222 217 0
-31 222 -217 0
-32 -222 217 0
-32 222 -217 0
-33 -222 217 0
-33 222 -217 0
-34 -217 222 0
-34 -213 222 0
-34 -222 217 213 0
-35 -222 217 0
-35 222 -217 0
-36 -222 217 0
-36 222 -217 0
-37 -217 222 0
-37 -214 222 0
-37 -222 217 214 0
-38 -222 217 0
-38 222 -217 0
-39 -217 222 0
-39 -215 222 0
-39 -222 217 215 0
-40 -217 222 0
-40 -216 222 0
-40 -222 217 216 0
-74 -222 217 0
-74 222 -217 0
-41 -223 218 0
-41 -223 219 0
-41 223 -218 -219 0
-42 -223 218 0
-42 -223 220 0
-42 223 -218 -220 0
-43 -223 218 0
-43 -223 221 0
-43 223 -218 -221 0
-44 -223 218 0
-44 -223 222 0
-44 223 -218 -222 0
-45 -223 218 0
-45 223 -218 0
-46 -223 218 0
-46 223 -218 0
-47 -223 218 0
-47 223 -218 0
-48 -223 218 0
-48 223 -218 0
-49 -223 218 0
-49 223 -218 0
-50 -223 218 0
-50 223 -218 0
-75 -223 218 0
-75 223 -218 0
-41 -219 224 0
-41 -218 224 0
-41 -224 219 218 0
-42 -224 219 0
-42 224 -219 0
-43 -224 219 0
-43 224 -219 0
-44 -224 219 0
-44 224 -219 0
-45 -224 219 0
-45 -224 220 0
-45 224 -219 -220 0
-46 -224 219 0
-46 -224 221 0
-46 224 -219 -221 0
-47 -224 219 0
-47 -224 222 0
-47 224 -219 -222 0
-48 -224 219 0
-48 224 -219 0
-49 -224 219 0
-49 224 -219 0
-50 -224 219 0
-50 224 -219 0
-75 -224 219 0
-75 224 -219 0
-41 -225 220 0
-41 225 -220 0
-42 -220 225 0
-42 -218 225 0
-42 -225 220 218 0
-43 -225 220 0
-43 225 -220 0
-44 -225 220 0
-44 225 -220 0
-45 -220 225 0
-45 -219 225 0
-45 -225 220 219 0
-46 -225 220 0
-46 225 -220 0
-47 -225 220 0
-47 225 -220 0
-48 -225 220 0
-48 -225 221 0
-48 225 -220 -221 0
-49 -225 220 0
-49 -225 222 0
-49 225 -220 -222 0
-50 -225 220 0
-50 225 -220 0
-75 -225 220 0
-75 225 -220 0
-41 -226 221 0
-41 226 -221 0
-42 -226 221 0
-42 226 -221 0
-43 -221 226 0
-43 -218 226 0
-43 -226 221 218 0
-44 -226 221 0
-44 226 -221 0
-45 -226 221 0
-45 226 -221 0
-46 -221 226 0
-46 -219 226 0
-46 -226 221 219 0
-47 -226 221 0
-47 226 -221 0
-48 -221 226 0
-48 -220 226 0
-48 -226 221 220 0
-49 -226 221 0
-49 226 -221 0
-50 -226 221 0
-50 -226 222 0
-50 226 -221 -222 0
-75 -226 221 0
-75 226 -221 0
-41 -227 222 0
-41 227 -222 0
-42 -227 222 0
-42 227 -222 0
-43 -227 222 0
-43 227 -222 0
-44 -222 227 0
-44 -218 227 0
-44 -227 222 218 0
-45 -227 222 0
-45 227 -222 0
-46 -227 222 0
-46 227 -222 0
-47 -222 227 0
-47 -219 227 0
-47 -227 222 219 0
-48 -227 222 0
-48 227 -222 0
-49 -222 227 0
-49 -220 227 0
-49 -227 222 220 0
-50 -222 227 0
-50 -221 227 0
-50 -227 222 221 0
-75 -227 222 0
-75 227 -222 0
-51 -228 223 0
-51 -228 224 0
-51 228 -223 -224 0
-52 -228 223 0
-52 -228 225 0
-52 228 -223 -225 0
-53 -228 223 0
-53 -228 226 0
-53 228 -223 -226 0
-54 -228 223 0
-54 -228 227 0
-54 228 -223 -227 0
-55 -228 223 0
-55 228 -223 0
-56 -228 223 0
-56 228 -223 0
-57 -228 223 0
-57 228 -223 0
-58 -228 223 0
-58 228 -223 0
-59 -228 223 0
-59 228 -223 0
-60 -228 223 0
-60 228 -223 0
-76 -228 223 0
-76 228 -223 0
-51 -224 229 0
-51 -223 229 0
-51 -229 224 223 0
-52 -229 224 0
-52 229 -224 0
-53 -229 224 0
-53 229 -224 0
-54 -229 224 0
-54 229 -224 0
-55 -229 224 0
-55 -229 225 0
-55 229 -224 -225 0
-56 -229 224 0
-56 -229 226 0
-56 229 -224 -226 0
-57 -229 224 0
-57 -229 227 0
-57 229 -224 -227 0
-58 -229 224 0
-58 229 -224 0
-59 -229 224 0
-59 229 -224 0
-60 -229 224 0
-60 229 -224 0
-76 -229 224 0
-76 229 -224 0
-51 -230 225 0
-51 230 -225 0
-52 -225 230 0
-52 -223 230 0
-52 -230 225 223 0
-53 -230 225 0
-53 230 -225 0
-54 -230 225 0
-54 230 -225 0
-55 -225 230 0
-55 -224 230 0
-55 -230 225 224 0
-56 -230 225 0
-56 230 -225 0
-57 -230 225 0
-57 230 -225 0
-58 -230 225 0
-58 -230 226 0
-58 230 -225 -226 0
-59 -230 225 0
-59 -230 227 0
-59 230 -225 -227 0
-60 -230 225 0
-60 230 -225 0
-76 -230 225 0
-76 230 -225 0
-51 -231 226 0
-51 231 -226 0
-52 -231 226 0
-52 231 -226 0
-53 -226 231 0
-53 -223 231 0
-53 -231 226 223 0
-54 -231 226 0
-54 231 -226 0
-55 -231 226 0
-55 231 -226 0
-56 -226 231 0
-56 -224 231 0
-56 -231 226 224 0
-57 -231 226 0
-57 231 -226 0
-58 -226 231 0
-58 -225 231 0
-58 -231 226 225 0
-59 -231 226 0
-59 231 -226 0
-60 -231 226 0
-60 -231 227 0
-60 231 -226 -227 0
-76 -231 226 0
-76 231 -226 0
-51 -232 227 0
-51 232 -227 0
-52 -232 227 0
-52 232 -227 0
-53 -232 227 0
-53 232 -227 0
-54 -227 232 0
-54 -223 232 0
-54 -232 227 223 0
-55 -232 227 0
-55 232 -227 0
-56 -232 227 0
-56 232 -227 0
-57 -227 232 0
-57 -224 232 0
-57 -232 227 224 0
-58 -232 227 0
-58 232 -227 0
-59 -227 232 0
-59 -225 232 0
-59 -232 227 225 0
-60 -227 232 0
-60 -226 232 0
-60 -232 227 226 0
-76 -232 227 0
-76 232 -227 0
-61 -233 228 0
-61 -233 229 0
-61 233 -228 -229 0
-62 -233 228 0
-62 -233 230 0
-62 233 -228 -230 0
-63 -233 228 0
-63 -233 231 0
-63 233 -228 -231 0
-64 -233 228 0
-64 -233 232 0
-64 233 -228 -232 0
-65 -233 228 0
-65 233 -228 0
-66 -233 228 0
-66 233 -228 0
-67 -233 228 0
-67 233 -228 0
-68 -233 228 0
-68 233 -228 0
-69 -233 228 0
-69 233 -228 0
-70 -233 228 0
-70 233 -228 0
-77 -233 228 0
-77 233 -228 0
-61 -229 234 0
-61 -228 234 0
-61 -234 229 228 0
-62 -234 229 0
-62 234 -229 0
-63 -234 229 0
-63 234 -229 0
-64 -234 229 0
-64 234 -229 0
-65 -234 229 0
-65 -234 230 0
-65 234 -229 -230 0
-66 -234 229 0
-66 -234 231 0
-66 234 -229 -231 0
-67 -234 229 0
-67 -234 232 0
-67 234 -229 -232 0
-68 -234 229 0
-68 234 -229 0
-69 -234 229 0
-69 234 -229 0
-70 -234 229 0
-70 234 -229 0
-77 -234 229 0
-77 234 -229 0
-61 -235 230 0
-61 235 -230 0
-62 -230 235 0
-62 -228 235 0
-62 -235 230 228 0
-63 -235 230 0
-63 235 -230 0
-64 -235 230 0
-64 235 -230 0
-65 -230 235 0
-65 -229 235 0
-65 -235 230 229 0
-66 -235 230 0
-66 235 -230 0
-67 -235 230 0
-67 235 -230 0
-68 -235 230 0
-68 -235 231 0
-68 235 -230 -231 0
-69 -235 230 0
-69 -235 232 0
-69 235 -230 -232 0
-70 -235 230 0
-70 235 -230 0
-77 -235 230 0
-77 235 -230 0
-61 -236 231 0
-61 236 -231 0
-62 -236 231 0
-62 236 -231 0
-63 -231 236 0
-63 -228 236 0
-63 -236 231 228 0
-64 -236 231 0
-64 236 -231 0
-65 -236 231 0
-65 236 -231 0
-66 -231 236 0
-66 -229 236 0
-66 -236 231 229 0
-67 -236 231 0
-67 236 -231 0
-68 -231 236 0
-68 -230 236 0
-68 -236 231 230 0
-69 -236 231 0
-69 236 -231 0
-70 -236 231 0
-70 -236 232 0
-70 236 -231 -232 0
-77 -236 231 0
-77 236 -231 0
-61 -237 232 0
-61 237 -232 0
-62 -237 232 0
-62 237 -232 0
-63 -237 232 0
-63 237 -232 0
-64 -232 237 0
-64 -228 237 0
-64 -237 232 228 0
-65 -237 232 0
-65 237 -232 0
-66 -237 232 0
-66 237 -232 0
-67 -232 237 0
-67 -229 237 0
-67 -237 232 229 0
-68 -237 232 0
-68 237 -232 0
-69 -232 237 0
-69 -230 237 0
-69 -237 232 230 0
-70 -232 237 0
-70 -231 237 0
-70 -237 232 231 0
-77 -237 232 0
-77 237 -232 0
-238 0
-1 -243 238 0
-1 -243 239 0
-1 243 -238 -239 0
-2 -243 238 0
-2 -243 240 0
-2 243 -238 -240 0
-3 -243 238 0
-3 -243 241 0
-3 243 -238 -241 0
-4 -243 238 0
-4 -243 242 0
-4 243 -238 -242 0
-5 -243 238 0
-5 243 -238 0
-6 -243 238 0
-6 243 -238 0
-7 -243 238 0
-7 243 -238 0
-8 -243 238 0
-8 243 -238 0
-9 -243 238 0
-9 243 -238 0
-10 -243 238 0
-10 243 -238 0
-71 -243 238 0
-71 243 -238 0
239 0
-1 -239 244 0
-1 -238 244 0
-1 -244 239 238 0
-2 -244 239 0
-2 244 -239 0
-3 -244 239 0
-3 244 -239 0
-4 -244 239 0
-4 244 -239 0
-5 -244 239 0
-5 -244 240 0
-5 244 -239 -240 0
-6 -244 239 0
-6 -244 241 0
-6 244 -239 -241 0
-7 -244 239 0
-7 -244 242 0
-7 244 -239 -242 0
-8 -244 239 0
-8 244 -239 0
-9 -244 239 0
-9 244 -239 0
-10 -244 239 0
-10 244 -239 0
-71 -244 239 0
-71 244 -239 0
-240 0
-1 -245 240 0
-1 245 -240 0
-2 -240 245 0
-2 -238 245 0
-2 -245 240 238 0
-3 -245 240 0
-3 245 -240 0
-4 -245 240 0
-4 245 -240 0
-5 -240 245 0
-5 -239 245 0
-5 -245 240 239 0
-6 -245 240 0
-6 245 -240 0
-7 -245 240 0
-7 245 -240 0
-8 -245 240 0
-8 -245 241 0
-8 245 -240 -241 0
-9 -245 240 0
-9 -245 242 0
-9 245 -240 -242 0
-10 -245 240 0
-10 245 -240 0
-71 -245 240 0
-71 245 -240 0
-241 0
-1 -246 241 0
-1 246 -241 0
-2 -246 241 0
-2 246 -241 0
-3 -241 246 0
-3 -238 246 0
-3 -246 241 238 0
-4 -246 241 0
-4 246 -241 0
-5 -246 241 0
-5 246 -241 0
-6 -241 246 0
-6 -239 246 0
-6 -246 241 239 0
-7 -246 241 0
-7 246 -241 0
-8 -241 246 0
-8 -240 246 0
-8 -246 241 240 0
-9 -246 241 0
-9 246 -241 0
-10 -246 241 0
-10 -246 242 0
-10 246 -241 -242 0
-71 -246 241 0
-71 246 -241 0
-242 0
-1 -247 242 0
-1 247 -242 0
-2 -247 242 0
-2 247 -242 0
-3 -247 242 0
-3 247 -242 0
-4 -242 247 0
-4 -238 247 0
-4 -247 242 238 0
-5 -247 242 0
-5 247 -242 0
-6 -247 242 0
-6 247 -242 0
-7 -242 247 0
-7 -239 247 0
-7 -247 242 239 0
-8 -247 242 0
-8 247 -242 0
-9 -242 247 0
-9 -240 247 0
-9 -247 242 240 0
-10 -242 247 0
-10 -241 247 0
-10 -247 242 241 0
-71 -247 242 0
-71 247 -242 0
-11 -248 243 0
-11 -248 244 0
-11 248 -243 -244 0
-12 -248 243 0
-12 -248 245 0
-12 248 -243 -245 0
-13 -248 243 0
-13 -248 246 0
-13 248 -243 -246 0
-14 -248 243 0
-14 -248 247 0
-14 248 -243 -247 0
-15 -248 243 0
-15 248 -243 0
-16 -248 243 0
-16 248 -243 0
-17 -248 243 0
-17 248 -243 0
-18 -248 243 0
-18 248 -243 0
-19 -248 243 0
-19 248 -243 0
-20 -248 243 0
-20 248 -243 0
-72 -248 243 0
-72 248 -243 0
-11 -244 249 0
-11 -243 249 0
-11 -249 244 243 0
-12 -249 244 0
-12 249 -244 0
-13 -249 244 0
-13 249 -244 0
-14 -249 244 0
-14 249 -244 0
-15 -249 244 0
-15 -249 245 0
-15 249 -244 -245 0
-16 -249 244 0
-16 -249 246 0
-16 249 -244 -246 0
-17 -249 244 0
-17 -249 247 0
-17 249 -244 -247 0
-18 -249 244 0
-18 249 -244 0
-19 -249 244 0
-19 249 -244 0
-20 -249 244 0
-20 249 -244 0
-72 -249 244 0
-72 249 -244 0
-11 -250 245 0
-11 250 -245 0
-12 -245 250 0
-12 -243 250 0
-12 -250 245 243 0
-13 -250 245 0
-13 250 -245 0
-14 -250 245 0
-14 250 -245 0
-15 -245 250 0
-15 -244 250 0
-15 -250 245 244 0
-16 -250 245 0
-16 250 -245 0
-17 -250 245 0
-17 250 -245 0
-18 -250 245 0
-18 -250 246 0
-18 250 -245 -246 0
-19 -250 245 0
-19 -250 247 0
-19 250 -245 -247 0
-20 -250 245 0
-20 250 -245 0
-72 -250 245 0
-72 250 -245 0
-11 -251 246 0
-11 251 -246 0
-12 -251 246 0
-12 251 -246 0
-13 -246 251 0
-13 -243 251 0
-13 -251 246 243 0
-14 -251 246 0
-14 251 -246 0
-15 -251 246 0
-15 251 -246 0
-16 -246 251 0
-16 -244 251 0
-16 -251 246 244 0
-17 -251 246 0
-17 251 -246 0
-18 -246 251 0
-18 -245 251 0
-18 -251 246 245 0
-19 -251 246 0
-19 251 -246 0
-20 -251 246 0
-20 -251 247 0
-20 251 -246 -247 0
-72 -251 246 0
-72 251 -246 0
-11 -252 247 0
-11 252 -247 0
-12 -252 247 0
-12 252 -247 0
-13 -252 247 0
-13 252 -247 0
-14 -247 252 0
-14 -243 252 0
-14 -252 247 243 0
-15 -252 247 0
-15 252 -247 0
-16 -252 247 0
-16 252 -247 0
-17 -247 252 0
-17 -244 252 0
-17 -252 247 244 0
-18 -252 247 0
-18 252 -247 0
-19 -247 252 0
-19 -245 252 0
-19 -252 247 245 0
-20 -247 252 0
-20 -246 252 0
-20 -252 247 246 0
-72 -252 247 0
-72 252 -247 0
-21 -253 248 0
-21 -253 249 0
-21 253 -248 -249 0
-22 -253 248 0
-22 -253 250 0
-22 253 -248 -250 0
-23 -253 248 0
-23 -253 251 0
-23 253 -248 -251 0
-24 -253 248 0
-24 -253 252 0
-24 253 -248 -252 0
-25 -253 248 0
-25 253 -248 0
-26 -253 248 0
-26 253 -248 0
-27 -253 248 0
-27 253 -248 0
-28 -253 248 0
-28 253 -248 0
-29 -253 248 0
-29 253 -248 0
-30 -253 248 0
-30 253 -248 0
-73 -253 248 0
-73 253 -248 0
-21 -249 254 0
-21 -248 254 0
-21 -254 249 248 0
-22 -254 249 0
-22 254 -249 0
-23 -254 249 0
-23 254 -249 0
-24 -254 249 0
-24 254 -249 0
-25 -254 249 0
-25 -254 250 0
-25 254 -249 -250 0
-26 -254 249 0
-26 -254 251 0
-26 254 -249 -251 0
-27 -254 249 0
-27 -254 252 0
-27 254 -249 -252 0
-28 -254 249 0
-28 254 -249 0
-29 -254 249 0
-29 254 -249 0
-30 -254 249 0
-30 254 -249 0
-73 -254 249 0
-73 254 -249 0
-21 -255 250 0
-21 255 -250 0
-22 -250 255 0
-22 -248 255 0
-22 -255 250 248 0
-23 -255 250 0
-23 255 -250 0
-24 -255 250 0
-24 255 -250 0
-25 -250 255 0
-25 -249 255 0
-25 -255 250 249 0
-26 -255 250 0
-26 255 -250 0
-27 -255 250 0
-27 255 -250 0
-28 -255 250 0
-28 -255 251 0
-28 255 -250 -251 0
-29 -255 250 0
-29 -255 252 0
-29 255 -250 -252 0
-30 -255 250 0
-30 255 -250 0
-73 -255 250 0
-73 255 -250 0
-21 -256 251 0
-21 256 -251 0
-22 -256 251 0
-22 256 -251 0
-23 -251 256 0
-23 -248 256 0
-23 -256 251 248 0
-24 -256 251 0
-24 256 -251 0
-25 -256 251 0
-25 256 -251 0
-26 -251 256 0
-26 -249 256 0
-26 -256 251 249 0
-27 -256 251 0
-27 256 -251 0
-28 -251 256 0
-28 -250 256 0
-28 -256 251 250 0
-29 -256 251 0
-29 256 -251 0
-30 -256 251 0
-30 -256 252 0
-30 256 -251 -252 0
-73 -256 251 0
-73 256 -251 0
-21 -257 252 0
-21 257 -252 0
-22 -257 252 0
-22 257 -252 0
-23 -257 252 0
-23 257 -252 0
-24 -252 257 0
-24 -248 257 0
-24 -257 252 248 0
-25 -257 252 0
-25 257 -252 0
-26 -257 252 0
-26 257 -252 0
-27 -252 257 0
-27 -249 257 0
-27 -257 252 249 0
-28 -257 252 0
-28 257 -252 0
-29 -252 257 0
-29 -250 257 0
-29 -257 252 250 0
-30 -252 257 0
-30 -251 257 0
-30 -257 252 251 0
-73 -257 252 0
-73 257 -252 0
-31 -258 253 0
-31 -258 254 0
-31 258 -253 -254 0
-32 -258 253 0
-32 -258 255 0
-32 258 -253 -255 0
-33 -258 253 0
-33 -258 256 0
-33 258 -253 -256 0
-34 -258 253 0
-34 -258 257 0
-34 258 -253 -257 0
-35 -258 253 0
-35 258 -253 0
-36 -258 253 0
-36 258 -253 0
-37 -258 253 0
-37 258 -253 0
-38 -258 253 0
-38 258 -253 0
-39 -258 253 0
-39 258 -253 0
-40 -258 253 0
-40 258 -253 0
-74 -258 253 0
-74 258 -253 0
-31 -254 259 0
-31 -253 259 0
-31 -259 254 253 0
-32 -259 254 0
-32 259 -254 0
-33 -259 254 0
-33 259 -254 0
-34 -259 254 0
-34 259 -254 0
-35 -259 254 0
-35 -259 255 0
-35 259 -254 -255 0
-36 -259 254 0
-36 -259 256 0
-36 259 -254 -256 0
-37 -259 254 0
-37 -259 257 0
-37 259 -254 -257 0
-38 -259 254 0
-38 259 -254 0
-39 -259 254 0
-39 259 -254 0
-40 -259 254 0
-40 259 -254 0
-74 -259 254 0
-74 259 -254 0
-31 -260 255 0
-31 260 -255 0
-32 -255 260 0
-32 -253 260 0
-32 -260 255 253 0
-33 -260 255 0
-33 260 -255 0
-34 -260 255 0
-34 260 -255 0
-35 -255 260 0
-35 -254 260 0
-35 -260 255 254 0
-36 -260 255 0
-36 260 -255 0
-37 -260 255 0
-37 260 -255 0
-38 -260 255 0
-38 -260 256 0
-38 260 -255 -256 0
-39 -260 255 0
-39 -260 257 0
-39 260 -255 -257 0
-40 -260 255 0
-40 260 -255 0
-74 -260 255 0
-74 260 -255 0
-31 -261 256 0
-31 261 -256 0
-32 -261 256 0
-32 261 -256 0
-33 -256 261 0
-33 -253 261 0
-33 -261 256 253 0
-34 -261 256 0
-34 261 -256 0
-35 -261 256 0
-35 261 -256 0
-36 -256 261 0
-36 -254 261 0
-36 -261 256 254 0
-37 -261 256 0
-37 261 -256 0
-38 -256 261 0
-38 -255 261 0
-38 -261 256 255 0
-39 -261 256 0
-39 261 -256 0
-40 -261 256 0
-40 -261 257 0
-40 261 -256 -257 0
-74 -261 256 0
-74 261 -256 0
-31 -262 257 0
-31 262 -257 0
-32 -262 257 0
-32 262 -257 0
-33 -262 257 0
-33 262 -257 0
-34 -257 262 0
-34 -253 262 0
-34 -262 257 253 0
-35 -262 257 0
-35 262 -257 0
-36 -262 257 0
-36 262 -257 0
-37 -257 262 0
-37 -254 262 0
-37 -262 257 254 0
-38 -262 257 0
-38 262 -257 0
-39 -257 262 0
-39 -255 262 0
-39 -262 257 255 0
-40 -257 262 0
-40 -256 262 0
-40 -262 257 256 0
-74 -262 257 0
-74 262 -257 0
-41 -263 258 0
-41 -263 259 0
-41 263 -258 -259 0
-42 -263 258 0
-42 -263 260 0
-42 263 -258 -260 0
-43 -263 258 0
-43 -263 261 0
-43 263 -258 -261 0
-44 -263 258 0
-44 -263 262 0
-44 263 -258 -262 0
-45 -263 258 0
-45 263 -258 0
-46 -263 258 0
-46 263 -258 0
-47 -263 258 0
-47 263 -258 0
-48 -263 258 0
-48 263 -258 0
-49 -263 258 0
-49 263 -258 0
-50 -263 258 0
-50 263 -258 0
-75 -263 258 0
-75 263 -258 0
-41 -259 264 0
-41 -258 264 0
-41 -264 259 258 0
-42 -264 259 0
-42 264 -259 0
-43 -264 259 0
-43 264 -259 0
-44 -264 259 0
-44 264 -259 0
-45 -264 259 0
-45 -264 260 0
-45 264 -259 -260 0
-46 -264 259 0
-46 -264 261 0
-46 264 -259 -261 0
-47 -264 259 0
-47 -264 262 0
-47 264 -259 -262 0
-48 -264 259 0
-48 264 -259 0
-49 -264 259 0
-49 264 -259 0
-50 -264 259 0
-50 264 -259 0
-75 -264 259 0
-75 264 -259 0
-41 -265 260 0
-41 265 -260 0
-42 -260 265 0
-42 -258 265 0
-42 -265 260 258 0
-43 -265 260 0
-43 265 -260 0
-44 -265 260 0
-44 265 -260 0
-45 -260 265 0
-45 -259 265 0
-45 -265 260 259 0
-46 -265 260 0
-46 265 -260 0
-47 -265 260 0
-47 265 -260 0
-48 -265 260 0
-48 -265 261 0
-48 265 -260 -261 0
-49 -265 260 0
-49 -265 262 0
-49 265 -260 -262 0
-50 -265 260 0
-50 265 -260 0
-75 -265 260 0
-75 265 -260 0
-41 -266 261 0
-41 266 -261 0
-42 -266 261 0
-42 266 -261 0
-43 -261 266 0
-43 -258 266 0
-43 -266 261 258 0
-44 -266 261 0
-44 266 -261 0
-45 -266 261 0
-45 266 -261 0
-46 -261 266 0
-46 -259 266 0
-46 -266 261 259 0
-47 -266 261 0
-47 266 -261 0
-48 -261 266 0
-48 -260 266 0
-48 -266 261 260 0
-49 -266 261 0
-49 266 -261 0
-50 -266 261 0
-50 -266 262 0
-50 266 -261 -262 0
-75 -266 261 0
-75 266 -261 0
-41 -267 262 0
-41 267 -262 0
-42 -267 262 0
-42 267 -262 0
-43 -267 262 0
-43 267 -262 0
-44 -262 267 0
-44 -258 267 0
-44 -267 262 258 0
-45 -267 262 0
-45 267 -262 0
-46 -267 262 0
-46 267 -262 0
-47 -262 267 0
-47 -259 267 0
-47 -267 262 259 0
-48 -267 262 0
-48 267 -262 0
-49 -262 267 0
-49 -260 267 0
-49 -267 262 260 0
-50 -262 267 0
-50 -261 267 0
-50 -267 262 261 0
-75 -267 262 0
-75 267 -262 0
-51 -268 263 0
-51 -268 264 0
-51 268 -263 -264 0
-52 -268 263 0
-52 -268 265 0
-52 268 -263 -265 0
-53 -268 263 0
-53 -268 266 0
-53 268 -263 -266 0
-54 -268 263 0
-54 -268 267 0
-54 268 -263 -267 0
-55 -268 263 0
-55 268 -263 0
-56 -268 263 0
-56 268 -263 0
-57 -268 263 0
-57 268 -263 0
-58 -268 263 0
-58 268 -263 0
-59 -268 263 0
-59 268 -263 0
-60 -268 263 0
-60 268 -263 0
-76 -268 263 0
-76 268 -263 0
-51 -264 269 0
-51 -263 269 0
-51 -269 264 263 0
-52 -269 264 0
-52 269 -264 0
-53 -269 264 0
-53 269 -264 0
-54 -269 264 0
-54 269 -264 0
-55 -269 264 0
-55 -269 265 0
-55 269 -264 -265 0
-56 -269 264 0
-56 -269 266 0
-56 269 -264 -266 0
-57 -269 264 0
-57 -269 267 0
-57 269 -264 -267 0
-58 -269 264 0
-58 269 -264 0
-59 -269 264 0
-59 269 -264 0
-60 -269 264 0
-60 269 -264 0
-76 -269 264 0
-76 269 -264 0
-51 -270 265 0
-51 270 -265 0
-52 -265 270 0
-52 -263 270 0
-52 -270 265 263 0
-53 -270 265 0
-53 270 -265 0
-54 -270 265 0
-54 270 -265 0
-55 -265 270 0
-55 -264 270 0
-55 -270 265 264 0
-56 -270 265 0
-56 270 -265 0
-57 -270 265 0
-57 270 -265 0
-58 -270 265 0
-58 -270 266 0
-58 270 -265 -266 0
-59 -270 265 0
-59 -270 267 0
-59 270 -265 -267 0
-60 -270 265 0
-60 270 -265 0
-76 -270 265 0
-76 270 -265 0
-51 -271 266 0
-51 271 -266 0
-52 -271 266 0
-52 271 -266 0
-53 -266 271 0
-53 -263 271 0
-53 -271 266 263 0
-54 -271 266 0
-54 271 -266 0
-55 -271 266 0
-55 271 -266 0
-56 -266 271 0
-56 -264 271 0
-56 -271 266 264 0
-57 -271 266 0
-57 271 -266 0
-58 -266 271 0
-58 -265 271 0
-58 -271 266 265 0
-59 -271 266 0
-59 271 -266 0
-60 -271 266 0
-60 -271 267 0
-60 271 -266 -267 0
-76 -271 266 0
-76 271 -266 0
-51 -272 267 0
-51 272 -267 0
-52 -272 267 0
-52 272 -267 0
-53 -272 267 0
-53 272 -267 0
-54 -267 272 0
-54 -263 272 0
-54 -272 267 263 0
-55 -272 267 0
-55 272 -267 0
-56 -272 267 0
-56 272 -267 0
-57 -267 272 0
-57 -264 272 0
-57 -272 267 264 0
-58 -272 267 0
-58 272 -267 0
-59 -267 272 0
-59 -265 272 0
-59 -272 267 265 0
-60 -267 272 0
-60 -266 272 0
-60 -272 267 266 0
-76 -272 267 0
-76 272 -267 0
-61 -273 268 0
-61 -273 269 0
-61 273 -268 -269 0
-62 -273 268 0
-62 -273 270 0
-62 273 -268 -270 0
-63 -273 268 0
-63 -273 271 0
-63 273 -268 -271 0
-64 -273 268 0
-64 -273 272 0
-64 273 -268 -272 0
-65 -273 268 0
-65 273 -268 0
-66 -273 268 0
-66 273 -268 0
-67 -273 268 0
-67 273 -268 0
-68 -273 268 0
-68 273 -268 0
-69 -273 268 0
-69 273 -268 0
-70 -273 268 0
-70 273 -268 0
-77 -273 268 0
-77 273 -268 0
-61 -269 274 0
-61 -268 274 0
-61 -274 269 268 0
-62 -274 269 0
-62 274 -269 0
-63 -274 269 0
-63 274 -269 0
-64 -274 269 0
-64 274 -269 0
-65 -274 269 0
-65 -274 270 0
-65 274 -269 -270 0
-66 -274 269 0
-66 -274 271 0
-66 274 -269 -271 0
-67 -274 269 0
-67 -274 272 0
-67 274 -269 -272 0
-68 -274 269 0
-68 274 -269 0
-69 -274 269 0
-69 274 -269 0
-70 -274 269 0
-70 274 -269 0
-77 -274 269 0
-77 274 -269 0
-61 -275 270 0
-61 275 -270 0
-62 -270 275 0
-62 -268 275 0
-62 -275 270 268 0
-63 -275 270 0
-63 275 -270 0
-64 -275 270 0
-64 275 -270 0
-65 -270 275 0
-65 -269 275 0
-65 -275 270 269 0
-66 -275 270 0
-66 275 -270 0
-67 -275 270 0
-67 275 -270 0
-68 -275 270 0
-68 -275 271 0
-68 275 -270 -271 0
-69 -275 270 0
-69 -275 272 0
-69 275 -270 -272 0
-70 -275 270 0
-70 275 -270 0
-77 -275 270 0
-77 275 -270 0
-61 -276 271 0
-61 276 -271 0
-62 -276 271 0
-62 276 -271 0
-63 -271 276 0
-63 -268 276 0
-63 -276 271 268 0
-64 -276 271 0
-64 276 -271 0
-65 -276 271 0
-65 276 -271 0
-66 -271 276 0
-66 -269 276 0
-66 -276 271 269 0
-67 -276 271 0
-67 276 -271 0
-68 -271 276 0
-68 -270 276 0
-68 -276 271 270 0
-69 -276 271 0
-69 276 -271 0
-70 -276 271 0
-70 -276 272 0
-70 276 -271 -272 0
-77 -276 271 0
-77 276 -271 0
-61 -277 272 0
-61 277 -272 0
-62 -277 272 0
-62 277 -272 0
-63 -277 272 0
-63 277 -272 0
-64 -272 277 0
-64 -268 277 0
-64 -277 272 268 0
-65 -277 272 0
-65 277 -272 0
-66 -277 272 0
-66 277 -272 0
-67 -272 277 0
-67 -269 277 0
-67 -277 272 269 0
-68 -277 272 0
-68 277 -272 0
-69 -272 277 0
-69 -270 277 0
-69 -277 272 270 0
-70 -272 277 0
-70 -271 277 0
-70 -277 272 271 0
-77 -277 272 0
-77 277 -272 0
-278 0
-1 -283 278 0
-1 -283 279 0
-1 283 -278 -279 0
-2 -283 278 0
-2 -283 280 0
-2 283 -278 -280 0
-3 -283 278 0
-3 -283 281 0
-3 283 -278 -281 0
-4 -283 278 0
-4 -283 282 0
-4 283 -278 -282 0
-5 -283 278 0
-5 283 -278 0
-6 -283 278 0
-6 283 -278 0
-7 -283 278 0
-7 283 -278 0
-8 -283 278 0
-8 283 -278 0
-9 -283 278 0
-9 283 -278 0
-10 -283 278 0
-10 283 -278 0
-71 -283 278 0
-71 283 -278 0
279 0
-1 -279 284 0
-1 -278 284 0
-1 -284 279 278 0
-2 -284 279 0
-2 284 -279 0
-3 -284 279 0
-3 284 -279 0
-4 -284 279 0
-4 284 -279 0
-5 -284 279 0
-5 -284 280 0
-5 284 -279 -280 0
-6 -284 279 0
-6 -284 281 0
-6 284 -279 -281 0
-7 -284 279 0
-7 -284 282 0
-7 284 -279 -282 0
-8 -284 279 0
-8 284 -279 0
-9 -284 279 0
-9 284 -279 0
-10 -284 279 0
-10 284 -279 0
-71 -284 279 0
-71 284 -279 0
-280 0
-1 -285 280 0
-1 285 -280 0
-2 -280 285 0
-2 -278 285 0
-2 -285 280 278 0
-3 -285 280 0
-3 285 -280 0
-4 -285 280 0
-4 285 -280 0
-5 -280 285 0
-5 -279 285 0
-5 -285 280 279 0
-6 -285 280 0
-6 285 -280 0
-7 -285 280 0
-7 285 -280 0
-8 -285 280 0
-8 -285 281 0
-8 285 -280 -281 0
-9 -285 280 0
-9 -285 282 0
-9 285 -280 -282 0
-10 -285 280 0
-10 285 -280 0
-71 -285 280 0
-71 285 -280 0
-281 0
-1 -286 281 0
-1 286 -281 0
-2 -286 281 0
-2 286 -281 0
-3 -281 286 0
-3 -278 286 0
-3 -286 281 278 0
-4 -286 281 0
-4 286 -281 0
-5 -286 281 0
-5 286 -281 0
-6 -281 286 0
-6 -279 286 0
-6 -286 281 279 0
-7 -286 281 0
-7 286 -281 0
-8 -281 286 0
-8 -280 286 0
-8 -286 281 280 0
-9 -286 281 0
-9 286 -281 0
-10 -286 281 0
-10 -286 282 0
-10 286 -281 -282 0
-71 -286 281 0
-71 286 -281 0
282 0
-1 -287 282 0
-1 287 -282 0
-2 -287 282 0
-2 287 -282 0
-3 -287 282 0
-3 287 -282 0
-4 -282 287 0
-4 -278 287 0
-4 -287 282 278 0
-5 -287 282 0
-5 287 -282 0
-6 -287 282 0
-6 287 -282 0
-7 -282 287 0
-7 -279 287 0
-7 -287 282 279 0
-8 -287 282 0
-8 287 -282 0
-9 -282 287 0
-9 -280 287 0
-9 -287 282 280 0
-10 -282 287 0
-10 -281 287 0
-10 -287 282 281 0
-71 -287 282 0
-71 287 -282 0
-11 -288 283 0
-11 -288 284 0
-11 288 -283 -284 0
-12 -288 283 0
-12 -288 285 0
-12 288 -283 -285 0
-13 -288 283 0
-13 -288 286 0
-13 288 -283 -286 0
-14 -288 283 0
-14 -288 287 0
-14 288 -283 -287 0
-15 -288 283 0
-15 288 -283 0
-16 -288 283 0
-16 288 -283 0
-17 -288 283 0
-17 288 -283 0
-18 -288 283 0
-18 288 -283 0
-19 -288 283 0
-19 288 -283 0
-20 -288 283 0
-20 288 -283 0
-72 -288 283 0
-72 288 -283 0
-11 -284 289 0
-11 -283 289 0
-11 -289 284 283 0
-12 -289 284 0
-12 289 -284 0
-13 -289 284 0
-13 289 -284 0
-14 -289 284 0
-14 289 -284 0
-15 -289 284 0
-15 -289 285 0
-15 289 -284 -285 0
-16 -289 284 0
-16 -289 286 0
-16 289 -284 -286 0
-17 -289 284 0
-17 -289 287 0
-17 289 -284 -287 0
-18 -289 284 0
-18 289 -284 0
-19 -289 284 0
-19 289 -284 0
-20 -289 284 0
-20 289 -284 0
-72 -289 284 0
-72 289 -284 0
-11 -290 285 0
-11 290 -285 0
-12 -285 290 0
-12 -283 290 0
-12 -290 285 283 0
-13 -290 285 0
-13 290 -285 0
-14 -290 285 0
-14 290 -285 0
-15 -285 290 0
-15 -284 290 0
-15 -290 285 284 0
-16 -290 285 0
-16 290 -285 0
-17 -290 285 0
-17 290 -285 0
-18 -290 285 0
-18 -290 286 0
-18 290 -285 -286 0
-19 -290 285 0
-19 -290 287 0
-19 290 -285 -287 0
-20 -290 285 0
-20 290 -285 0
-72 -290 285 0
-72 290 -285 0
-11 -291 286 0
-11 291 -286 0
-12 -291 286 0
-12 291 -286 0
-13 -286 291 0
-13 -283 291 0
-13 -291 286 283 0
-14 -291 286 0
-14 291 -286 0
-15 -291 286 0
-15 291 -286 0
-16 -286 291 0
-16 -284 291 0
-16 -291 286 284 0
-17 -291 286 0
-17 291 -286 0
-18 -286 291 0
-18 -285 291 0
-18 -291 286 285 0
-19 -291 286 0
-19 291 -286 0
-20 -291 286 0
-20 -291 287 0
-20 291 -286 -287 0
-72 -291 286 0
-72 291 -286 0
-11 -292 287 0
-11 292 -287 0
-12 -292 287 0
-12 292 -287 0
-13 -292 287 0
-13 292 -287 0
-14 -287 292 0
-14 -283 292 0
-14 -292 287 283 0
-15 -292 287 0
-15 292 -287 0
-16 -292 287 0
-16 292 -287 0
-17 -287 292 0
-17 -284 292 0
-17 -292 287 284 0
-18 -292 287 0
-18 292 -287 0
-19 -287 292 0
-19 -285 292 0
-19 -292 287 285 0
-20 -287 292 0
-20 -286 292 0
-20 -292 287 286 0
-72 -292 287 0
-72 292 -287 0
-21 -293 288 0
-21 -293 289 0
-21 293 -288 -289 0
-22 -293 288 0
-22 -293 290 0
-22 293 -288 -290 0
-23 -293 288 0
-23 -293 291 0
-23 293 -288 -291 0
-24 -293 288 0
-24 -293 292 0
-24 293 -288 -292 0
-25 -293 288 0
-25 293 -288 0
-26 -293 288 0
-26 293 -288 0
-27 -293 288 0
-27 293 -288 0
-28 -293 288 0
-28 293 -288 0
-29 -293 288 0
-29 293 -288 0
-30 -293 288 0
-30 293 -288 0
-73 -293 288 0
-73 293 -288 0
-21 -289 294 0
-21 -288 294 0
-21 -294 289 288 0
-22 -294 289 0
-22 294 -289 0
-23 -294 289 0
-23 294 -289 0
-24 -294 289 0
-24 294 -289 0
-25 -294 289 0
-25 -294 290 0
-25 294 -289 -290 0
-26 -294 289 0
-26 -294 291 0
-26 294 -289 -291 0
-27 -294 289 0
-27 -294 292 0
-27 294 -289 -292 0
-28 -294 289 0
-28 294 -289 0
-29 -294 289 0
-29 294 -289 0
-30 -294 289 0
-30 294 -289 0
-73 -294 289 0
-73 294 -289 0
-21 -295 290 0
-21 295 -290 0
-22 -290 295 0
-22 -288 295 0
-22 -295 290 288 0
-23 -295 290 0
-23 295 -290 0
-24 -295 290 0
-24 295 -290 0
-25 -290 295 0
-25 -289 295 0
-25 -295 290 289 0
-26 -295 290 0
-26 295 -290 0
-27 -295 290 0
-27 295 -290 0
-28 -295 290 0
-28 -295 291 0
-28 295 -290 -291 0
-29 -295 290 0
-29 -295 292 0
-29 295 -290 -292 0
-30 -295 290 0
-30 295 -290 0
-73 -295 290 0
-73 295 -290 0
-21 -296 291 0
-21 296 -291 0
-22 -296 291 0
-22 296 -291 0
-23 -291 296 0
-23 -288 296 0
-23 -296 291 288 0
-24 -296 291 0
-24 296 -291 0
-25 -296 291 0
-25 296 -291 0
-26 -291 296 0
-26 -289 296 0
-26 -296 291 289 0
-27 -296 291 0
-27 296 -291 0
-28 -291 296 0
-28 -290 296 0
-28 -296 291 290 0
-29 -296 291 0
-29 296 -291 0
-30 -296 291 0
-30 -296 292 0
-30 296 -291 -292 0
-73 -296 291 0
-73 296 -291 0
-21 -297 292 0
-21 297 -292 0
-22 -297 292 0
-22 297 -292 0
-23 -297 292 0
-23 297 -292 0
-24 -292 297 0
-24 -288 297 0
-24 -297 292 288 0
-25 -297 292 0
-25 297 -292 0
-26 -297 292 0
-26 297 -292 0
-27 -292 297 0
-27 -289 297 0
-27 -297 292 289 0
-28 -297 292 0
-28 297 -292 0
-29 -292 297 0
-29 -290 297 0
-29 -297 292 290 0
-30 -292 297 0
-30 -291 297 0
-30 -297 292 291 0
-73 -297 292 0
-73 297 -292 0
-31 -298 293 0
-31 -298 294 0
-31 298 -293 -294 0
-32 -298 293 0
-32 -298 295 0
-32 298 -293 -295 0
-33 -298 293 0
-33 -298 296 0
-33 298 -293 -296 0
-34 -298 293 0
-34 -298 297 0
-34 298 -293 -297 0
-35 -298 293 0
-35 298 -293 0
-36 -298 293 0
-36 298 -293 0
-37 -298 293 0
-37 298 -293 0
-38 -298 293 0
-38 298 -293 0
-39 -298 293 0
-39 298 -293 0
-40 -298 293 0
-40 298 -293 0
-74 -298 293 0
-74 298 -293 0
-31 -294 299 0
-31 -293 299 0
-31 -299 294 293 0
-32 -299 294 0
-32 299 -294 0
-33 -299 294 0
-33 299 -294 0
-34 -299 294 0
-34 299 -294 0
-35 -299 294 0
-35 -299 295 0
-35 299 -294 -295 0
-36 -299 294 0
-36 -299 296 0
-36 299 -294 -296 0
-37 -299 294 0
-37 -299 297 0
-37 299 -294 -297 0
-38 -299 294 0
-38 299 -294 0
-39 -299 294 0
-39 299 -294 0
-40 -299 294 0
-40 299 -294 0
-74 -299 294 0
-74 299 -294 0
-31 -300 295 0
-31 300 -295 0
-32 -295 300 0
-32 -293 300 0
-32 -300 295 293 0
-33 -300 295 0
-33 300 -295 0
-34 -300 295 0
-34 300 -295 0
-35 -295 300 0
-35 -294 300 0
-35 -300 295 294 0
-36 -300 295 0
-36 300 -295 0
-37 -300 295 0
-37 300 -295 0
-38 -300 295 0
-38 -300 296 0
-38 300 -295 -296 0
-39 -300 295 0
-39 -300 297 0
-39 300 -295 -297 0
-40 -300 295 0
-40 300 -295 0
-74 -300 295 0
-74 300 -295 0
-31 -301 296 0
-31 301 -296 0
-32 -301 296 0
-32 301 -296 0
-33 -296 301 0
-33 -293 301 0
-33 -301 296 293 0
-34 -301 296 0
-34 301 -296 0
-35 -301 296 0
-35 301 -296 0
-36 -296 301 0
-36 -294 301 0
-36 -301 296 294 0
-37 -301 296 0
-37 301 -296 0
-38 -296 301 0
-38 -295 301 0
-38 -301 296 295 0
-39 -301 296 0
-39 301 -296 0
-40 -301 296 0
-40 -301 297 0
-40 301 -296 -297 0
-74 -301 296 0
-74 301 -296 0
-31 -302 297 0
-31 302 -297 0
-32 -302 297 0
-32 302 -297 0
-33 -302 297 0
-33 302 -297 0
-34 -297 302 0
-34 -293 302 0
-34 -302 297 293 0
-35 -302 297 0
-35 302 -297 0
-36 -302 297 0
-36 302 -297 0
-37 -297 302 0
-37 -294 302 0
-37 -302 297 294 0
-38 -302 297 0
-38 302 -297 0
-39 -297 302 0
-39 -295 302 0
-39 -302 297 295 0
-40 -297 302 0
-40 -296 302 0
-40 -302 297 296 0
-74 -302 297 0
-74 302 -297 0
-41 -303 298 0
-41 -303 299 0
-41 303 -298 -299 0
-42 -303 298 0
-42 -303 300 0
-42 303 -298 -300 0
-43 -303 298 0
-43 -303 301 0
-43 303 -298 -301 0
-44 -303 298 0
-44 -303 302 0
-44 303 -298 -302 0
-45 -303 298 0
-45 303 -298 0
-46 -303 298 0
-46 303 -298 0
-47 -303 298 0
-47 303 -298 0
-48 -303 298 0
-48 303 -298 0
-49 -303 298 0
-49 303 -298 0
-50 -303 298 0
-50 303 -298 0
-75 -303 298 0
-75 303 -298 0
-41 -299 304 0
-41 -298 304 0
-41 -304 299 298 0
-42 -304 299 0
-42 304 -299 0
-43 -304 299 0
-43 304 -299 0
-44 -304 299 0
-44 304 -299 0
-45 -304 299 0
-45 -304 300 0
-45 304 -299 -300 0
-46 -304 299 0
-46 -304 301 0
-46 304 -299 -301 0
-47 -304 299 0
-47 -304 302 0
-47 304 -299 -302 0
-48 -304 299 0
-48 304 -299 0
-49 -304 299 0
-49 304 -299 0
-50 -304 299 0
-50 304 -299 0
-75 -304 299 0
-75 304 -299 0
-41 -305 300 0
-41 305 -300 0
-42 -300 305 0
-42 -298 305 0
-42 -305 300 298 0
-43 -305 300 0
-43 305 -300 0
-44 -305 300 0
-44 305 -300 0
-45 -300 305 0
-45 -299 305 0
-45 -305 300 299 0
-46 -305 300 0
-46 305 -300 0
-47 -305 300 0
-47 305 -300 0
-48 -305 300 0
-48 -305 301 0
-48 305 -300 -301 0
-49 -305 300 0
-49 -305 302 0
-49 305 -300 -302 0
-50 -305 300 0
-50 305 -300 0
-75 -305 300 0
-75 305 -300 0
-41 -306 301 0
-41 306 -301 0
-42 -306 301 0
-42 306 -301 0
-43 -301 306 0
-43 -298 306 0
-43 -306 301 298 0
-44 -306 301 0
-44 306 -301 0
-45 -306 301 0
-45 306 -301 0
-46 -301 306 0
-46 -299 306 0
-46 -306 301 299 0
-47 -306 301 0
-47 306 -301 0
-48 -301 306 0
-48 -300 306 0
-48 -306 301 300 0
-49 -306 301 0
-49 306 -301 0
-50 -306 301 0
-50 -306 302 0
-50 306 -301 -302 0
-75 -306 301 0
-75 306 -301 0
-41 -307 302 0
-41 307 -302 0
-42 -307 302 0
-42 307 -302 0
-43 -307 302 0
-43 307 -302 0
-44 -302 307 0
-44 -298 307 0
-44 -307 302 298 0
-45 -307 302 0
-45 307 -302 0
-46 -307 302 0
-46 307 -302 0
-47 -302 307 0
-47 -299 307 0
-47 -307 302 299 0
-48 -307 302 0
-48 307 -302 0
-49 -302 307 0
-49 -300 307 0
-49 -307 302 300 0
-50 -302 307 0
-50 -301 307 0
-50 -307 302 301 0
-75 -307 302 0
-75 307 -302 0
-51 -308 303 0
-51 -308 304 0
-51 308 -303 -304 0
-52 -308 303 0
-52 -308 305 0
-52 308 -303 -305 0
-53 -308 303 0
-53 -308 306 0
-53 308 -303 -306 0
-54 -308 303 0
-54 -308 307 0
-54 308 -303 -307 0
-55 -308 303 0
-55 308 -303 0
-56 -308 303 0
-56 308 -303 0
-57 -308 303 0
-57 308 -303 0
-58 -308 303 0
-58 308 -303 0
-59 -308 303 0
-59 308 -303 0
-60 -308 303 0
-60 308 -303 0
-76 -308 303 0
-76 308 -303 0
-51 -304 309 0
-51 -303 309 0
-51 -309 304 303 0
-52 -309 304 0
-52 309 -304 0
-53 -309 304 0
-53 309 -304 0
-54 -309 304 0
-54 309 -304 0
-55 -309 304 0
-55 -309 305 0
-55 309 -304 -305 0
-56 -309 304 0
-56 -309 306 0
-56 309 -304 -306 0
-57 -309 304 0
-57 -309 307 0
-57 309 -304 -307 0
-58 -309 304 0
-58 309 -304 0
-59 -309 304 0
-59 309 -304 0
-60 -309 304 0
-60 309 -304 0
-76 -309 304 0
-76 309 -304 0
-51 -310 305 0
-51 310 -305 0
-52 -305 310 0
-52 -303 310 0
-52 -310 305 303 0
-53 -310 305 0
-53 310 -305 0
-54 -310 305 0
-54 310 -305 0
-55 -305 310 0
-55 -304 310 0
-55 -310 305 304 0
-56 -310 305 0
-56 310 -305 0
-57 -310 305 0
-57 310 -305 0
-58 -310 305 0
-58 -310 306 0
-58 310 -305 -306 0
-59 -310 305 0
-59 -310 307 0
-59 310 -305 -307 0
-60 -310 305 0
-60 310 -305 0
-76 -310 305 0
-76 310 -305 0
-51 -311 306 0
-51 311 -306 0
-52 -311 306 0
-52 311 -306 0
-53 -306 311 0
-53 -303 311 0
-53 -311 306 303 0
-54 -311 306 0
-54 311 -306 0
-55 -311 306 0
-55 311 -306 0
-56 -306 311 0
-56 -304 311 0
-56 -311 306 304 0
-57 -311 306 0
-57 311 -306 0
-58 -306 311 0
-58 -305 311 0
-58 -311 306 305 0
-59 -311 306 0
-59 311 -306 0
-60 -311 306 0
-60 -311 307 0
-60 311 -306 -307 0
-76 -311 306 0
-76 311 -306 0
-51 -312 307 0
-51 312 -307 0
-52 -312 307 0
-52 312 -307 0
-53 -312 307 0
-53 312 -307 0
-54 -307 312 0
-54 -303 312 0
-54 -312 307 303 0
-55 -312 307 0
-55 312 -307 0
-56 -312 307 0
-56 312 -307 0
-57 -307 312 0
-57 -304 312 0
-57 -312 307 304 0
-58 -312 307 0
-58 312 -307 0
-59 -307 312 0
-59 -305 312 0
-59 -312 307 305 0
-60 -307 312 0
-60 -306 312 0
-60 -312 307 306 0
-76 -312 307 0
-76 312 -307 0
-61 -313 308 0
-61 -313 309 0
-61 313 -308 -309 0
-62 -313 308 0
-62 -313 310 0
-62 313 -308 -310 0
-63 -313 308 0
-63 -313 311 0
-63 313 -308 -311 0
-64 -313 308 0
-64 -313 312 0
-64 313 -308 -312 0
-65 -313 308 0
-65 313 -308 0
-66 -313 308 0
-66 313 -308 0
-67 -313 308 0
-67 313 -308 0
-68 -313 308 0
-68 313 -308 0
-69 -313 308 0
-69 313 -308 0
-70 -313 308 0
-70 313 -308 0
-77 -313 308 0
-77 313 -308 0
-61 -309 314 0
-61 -308 314 0
-61 -314 309 308 0
-62 -314 309 0
-62 314 -309 0
-63 -314 309 0
-63 314 -309 0
-64 -314 309 0
-64 314 -309 0
-65 -314 309 0
-65 -314 310 0
-65 314 -309 -310 0
-66 -314 309 0
-66 -314 311 0
-66 314 -309 -311 0
-67 -314 309 0
-67 -314 312 0
-67 314 -309 -312 0
-68 -314 309 0
-68 314 -309 0
-69 -314 309 0
-69 314 -309 0
-70 -314 309 0
-70 314 -309 0
-77 -314 309 0
-77 314 -309 0
-61 -315 310 0
-61 315 -310 0
-62 -310 315 0
-62 -308 315 0
-62 -315 310 308 0
-63 -315 310 0
-63 315 -310 0
-64 -315 310 0
-64 315 -310 0
-65 -310 315 0
-65 -309 315 0
-65 -315 310 309 0
-66 -315 310 0
-66 315 -310 0
-67 -315 310 0
-67 315 -310 0
-68 -315 310 0
-68 -315 311 0
-68 315 -310 -311 0
-69 -315 310 0
-69 -315 312 0
-69 315 -310 -312 0
-70 -315 310 0
-70 315 -310 0
-77 -315 310 0
-77 315 -310 0
-61 -316 311 0
-61 316 -311 0
-62 -316 311 0
-62 316 -311 0
-63 -311 316 0
-63 -308 316 0
-63 -316 311 308 0
-64 -316 311 0
-64 316 -311 0
-65 -316 311 0
-65 316 -311 0
-66 -311 316 0
-66 -309 316 0
-66 -316 311 309 0
-67 -316 311 0
-67 316 -311 0
-68 -311 316 0
-68 -310 316 0
-68 -316 311 310 0
-69 -316 311 0
-69 316 -311 0
-70 -316 311 0
-70 -316 312 0
-70 316 -311 -312 0
-77 -316 311 0
-77 316 -311 0
-61 -317 312 0
-61 317 -312 0
-62 -317 312 0
-62 317 -312 0
-63 -317 312 0
-63 317 -312 0
-64 -312 317 0
-64 -308 317 0
-64 -317 312 308 0
-65 -317 312 0
-65 317 -312 0
-66 -317 312 0
-66 317 -312 0
-67 -312 317 0
-67 -309 317 0
-67 -317 312 309 0
-68 -317 312 0
-68 317 -312 0
-69 -312 317 0
-69 -310 317 0
-69 -317 312 310 0
-70 -312 317 0
-70 -311 317 0
-70 -317 312 311 0
-77 -317 312 0
-77 317 -312 0
-318 0
-1 -323 318 0
-1 -323 319 0
-1 323 -318 -319 0
-2 -323 318 0
-2 -323 320 0
-2 323 -318 -320 0
-3 -323 318 0
-3 -323 321 0
-3 323 -318 -321 0
-4 -323 318 0
-4 -323 322 0
-4 323 -318 -322 0
-5 -323 318 0
-5 323 -318 0
-6 -323 318 0
-6 323 -318 0
-7 -323 318 0
-7 323 -318 0
-8 -323 318 0
-8 323 -318 0
-9 -323 318 0
-9 323 -318 0
-10 -323 318 0
-10 323 -318 0
-71 -323 318 0
-71 323 -318 0
319 0
-1 -319 324 0
-1 -318 324 0
-1 -324 319 318 0
-2 -324 319 0
-2 324 -319 0
-3 -324 319 0
-3 324 -319 0
-4 -324 319 0
-4 324 -319 0
-5 -324 319 0
-5 -324 320 0
-5 324 -319 -320 0
-6 -324 319 0
-6 -324 321 0
-6 324 -319 -321 0
-7 -324 319 0
-7 -324 322 0
-7 324 -319 -322 0
-8 -324 319 0
-8 324 -319 0
-9 -324 319 0
-9 324 -319 0
-10 -324 319 0
-10 324 -319 0
-71 -324 319 0
-71 324 -319 0
-320 0
-1 -325 320 0
-1 325 -320 0
-2 -320 325 0
-2 -318 325 0
-2 -325 320 318 0
-3 -325 320 0
-3 325 -320 0
-4 -325 320 0
-4 325 -320 0
-5 -320 325 0
-5 -319 325 0
-5 -325 320 319 0
-6 -325 320 0
-6 325 -320 0
-7 -325 320 0
-7 325 -320 0
-8 -325 320 0
-8 -325 321 0
-8 325 -320 -321 0
-9 -325 320 0
-9 -325 322 0
-9 325 -320 -322 0
-10 -325 320 0
-10 325 -320 0
-71 -325 320 0
-71 325 -320 0
321 0
-1 -326 321 0
-1 326 -321 0
-2 -326 321 0
-2 326 -321 0
-3 -321 326 0
-3 -318 326 0
-3 -326 321 318 0
-4 -326 321 0
-4 326 -321 0
-5 -326 321 0
-5 326 -321 0
-6 -321 326 0
-6 -319 326 0
-6 -326 321 319 0
-7 -326 321 0
-7 326 -321 0
-8 -321 326 0
-8 -320 326 0
-8 -326 321 320 0
-9 -326 321 0
-9 326 -321 0
-10 -326 321 0
-10 -326 322 0
-10 326 -321 -322 0
-71 -326 321 0
-71 326 -321 0
-322 0
-1 -327 322 0
-1 327 -322 0
-2 -327 322 0
-2 327 -322 0
-3 -327 322 0
-3 327 -322 0
-4 -322 327 0
-4 -318 327 0
-4 -327 322 318 0
-5 -327 322 0
-5 327 -322 0
-6 -327 322 0
-6 327 -322 0
-7 -322 327 0
-7 -319 327 0
-7 -327 322 319 0
-8 -327 322 0
-8 327 -322 0
-9 -322 327 0
-9 -320 327 0
-9 -327 322 320 0
-10 -322 327 0
-10 -321 327 0
-10 -327 322 321 0
-71 -327 322 0
-71 327 -322 0
-11 -328 323 0
-11 -328 324 0
-11 328 -323 -324 0
-12 -328 323 0
-12 -328 325 0
-12 328 -323 -325 0
-13 -328 323 0
-13 -328 326 0
-13 328 -323 -326 0
-14 -328 323 0
-14 -328 327 0
-14 328 -323 -327 0
-15 -328 323 0
-15 328 -323 0
-16 -328 323 0
-16 328 -323 0
-17 -328 323 0
-17 328 -323 0
-18 -328 323 0
-18 328 -323 0
-19 -328 323 0
-19 328 -323 0
-20 -328 323 0
-20 328 -323 0
-72 -328 323 0
-72 328 -323 0
-11 -324 329 0
-11 -323 329 0
-11 -329 324 323 0
-12 -329 324 0
-12 329 -324 0
-13 -329 324 0
-13 329 -324 0
-14 -329 324 0
-14 329 -324 0
-15 -329 324 0
-15 -329 325 0
-15 329 -324 -325 0
-16 -329 324 0
-16 -329 326 0
-16 329 -324 -326 0
-17 -329 324 0
-17 -329 327 0
-17 329 -324 -327 0
-18 -329 324 0
-18 329 -324 0
-19 -329 324 0
-19 329 -324 0
-20 -329 324 0
-20 329 -324 0
-72 -329 324 0
-72 329 -324 0
-11 -330 325 0
-11 330 -325 0
-12 -325 330 0
-12 -323 330 0
-12 -330 325 323 0
-13 -330 325 0
-13 330 -325 0
-14 -330 325 0
-14 330 -325 0
-15 -325 330 0
-15 -324 330 0
-15 -330 325 324 0
-16 -330 325 0
-16 330 -325 0
-17 -330 325 0
-17 330 -325 0
-18 -330 325 0
-18 -330 326 0
-18 330 -325 -326 0
-19 -330 325 0
-19 -330 327 0
-19 330 -325 -327 0
-20 -330 325 0
-20 330 -325 0
-72 -330 325 0
-72 330 -325 0
-11 -331 326 0
-11 331 -326 0
-12 -331 326 0
-12 331 -326 0
-13 -326 331 0
-13 -323 331 0
-13 -331 326 323 0
-14 -331 326 0
-14 331 -326 0
-15 -331 326 0
-15 331 -326 0
-16 -326 331 0
-16 -324 331 0
-16 -331 326 324 0
-17 -331 326 0
-17 331 -326 0
-18 -326 331 0
-18 -325 331 0
-18 -331 326 325 0
-19 -331 326 0
-19 331 -326 0
-20 -331 326 0
-20 -331 327 0
-20 331 -326 -327 0
-72 -331 326 0
-72 331 -326 0
-11 -332 327 0
-11 332 -327 0
-12 -332 327 0
-12 332 -327 0
-13 -332 327 0
-13 332 -327 0
-14 -327 332 0
-14 -323 332 0
-14 -332 327 323 0
-15 -332 327 0
-15 332 -327 0
-16 -332 327 0
-16 332 -327 0
-17 -327 332 0
-17 -324 332 0
-17 -332 327 324 0
-18 -332 327 0
-18 332 -327 0
-19 -327 332 0
-19 -325 332 0
-19 -332 327 325 0
-20 -327 332 0
-20 -326 332 0
-20 -332 327 326 0
-72 -332 327 0
-72 332 -327 0
-21 -333 328 0
-21 -333 329 0
-21 333 -328 -329 0
-22 -333 328 0
-22 -333 330 0
-22 333 -328 -330 0
-23 -333 328 0
-23 -333 331 0
-23 333 -328 -331 0
-24 -333 328 0
-24 -333 332 0
-24 333 -328 -332 0
-25 -333 328 0
-25 333 -328 0
-26 -333 328 0
-26 333 -328 0
-27 -333 328 0
-27 333 -328 0
-28 -333 328 0
-28 333 -328 0
-29 -333 328 0
-29 333 -328 0
-30 -333 328 0
-30 333 -328 0
-73 -333 328 0
-73 333 -328 0
-21 -329 334 0
-21 -328 334 0
-21 -334 329 328 0
-22 -334 329 0
-22 334 -329 0
-23 -334 329 0
-23 334 -329 0
-24 -334 329 0
-24 334 -329 0
-25 -334 329 0
-25 -334 330 0
-25 334 -329 -330 0
-26 -334 329 0
-26 -334 331 0
-26 334 -329 -331 0
-27 -334 329 0
-27 -334 332 0
-27 334 -329 -332 0
-28 -334 329 0
-28 334 -329 0
-29 -334 329 0
-29 334 -329 0
-30 -334 329 0
-30 334 -329 0
-73 -334 329 0
-73 334 -329 0
-21 -335 330 0
-21 335 -330 0
-22 -330 335 0
-22 -328 335 0
-22 -335 330 328 0
-23 -335 330 0
-23 335 -330 0
-24 -335 330 0
-24 335 -330 0
-25 -330 335 0
-25 -329 335 0
-25 -335 330 329 0
-26 -335 330 0
-26 335 -330 0
-27 -335 330 0
-27 335 -330 0
-28 -335 330 0
-28 -335 331 0
-28 335 -330 -331 0
-29 -335 330 0
-29 -335 332 0
-29 335 -330 -332 0
-30 -335 330 0
-30 335 -330 0
-73 -335 330 0
-73 335 -330 0
-21 -336 331 0
-21 336 -331 0
-22 -336 331 0
-22 336 -331 0
-23 -331 336 0
-23 -328 336 0
-23 -336 331 328 0
-24 -336 331 0
-24 336 -331 0
-25 -336 331 0
-25 336 -331 0
-26 -331 336 0
-26 -329 336 0
-26 -336 331 329 0
-27 -336 331 0
-27 336 -331 0
-28 -331 336 0
-28 -330 336 0
-28 -336 331 330 0
-29 -336 331 0
-29 336 -331 0
-30 -336 331 0
-30 -336 332 0
-30 336 -331 -332 0
-73 -336 331 0
-73 336 -331 0
-21 -337 332 0
-21 337 -332 0
-22 -337 332 0
-22 337 -332 0
-23 -337 332 0
-23 337 -332 0
-24 -332 337 0
-24 -328 337 0
-24 -337 332 328 0
-25 -337 332 0
-25 337 -332 0
-26 -337 332 0
-26 337 -332 0
-27 -332 337 0
-27 -329 337 0
-27 -337 332 329 0
-28 -337 332 0
-28 337 -332 0
-29 -332 337 0
-29 -330 337 0
-29 -337 332 330 0
-30 -332 337 0
-30 -331 337 0
-30 -337 332 331 0
-73 -337 332 0
-73 337 -332 0
-31 -338 333 0
-31 -338 334 0
-31 338 -333 -334 0
-32 -338 333 0
-32 -338 335 0
-32 338 -333 -335 0
-33 -338 333 0
-33 -338 336 0
-33 338 -333 -336 0
-34 -338 333 0
-34 -338 337 0
-34 338 -333 -337 0
-35 -338 333 0
-35 338 -333 0
-36 -338 333 0
-36 338 -333 0
-37 -338 333 0
-37 338 -333 0
-38 -338 333 0
-38 338 -333 0
-39 -338 333 0
-39 338 -333 0
-40 -338 333 0
-40 338 -333 0
-74 -338 333 0
-74 338 -333 0
-31 -334 339 0
-31 -333 339 0
-31 -339 334 333 0
-32 -339 334 0
-32 339 -334 0
-33 -339 334 0
-33 339 -334 0
-34 -339 334 0
-34 339 -334 0
-35 -339 334 0
-35 -339 335 0
-35 339 -334 -335 0
-36 -339 334 0
-36 -339 336 0
-36 339 -334 -336 0
-37 -339 334 0
-37 -339 337 0
-37 339 -334 -337 0
-38 -339 334 0
-38 339 -334 0
-39 -339 334 0
-39 339 -334 0
-40 -339 334 0
-40 339 -334 0
-74 -339 334 0
-74 339 -334 0
-31 -340 335 0
-31 340 -335 0
-32 -335 340 0
-32 -333 340 0
-32 -340 335 333 0
-33 -340 335 0
-33 340 -335 0
-34 -340 335 0
-34 340 -335 0
-35 -335 340 0
-35 -334 340 0
-35 -340 335 334 0
-36 -340 335 0
-36 340 -335 0
-37 -340 335 0
-37 340 -335 0
-38 -340 335 0
-38 -340 336 0
-38 340 -335 -336 0
-39 -340 335 0
-39 -340 337 0
-39 340 -335 -337 0
-40 -340 335 0
-40 340 -335 0
-74 -340 335 0
-74 340 -335 0
-31 -341 336 0
-31 341 -336 0
-32 -341 336 0
-32 341 -336 0
-33 -336 341 0
-33 -333 341 0
-33 -341 336 333 0
-34 -341 336 0
-34 341 -336 0
-35 -341 336 0
-35 341 -336 0
-36 -336 341 0
-36 -334 341 0
-36 -341 336 334 0
-37 -341 336 0
-37 341 -336 0
-38 -336 341 0
-38 -335 341 0
-38 -341 336 335 0
-39 -341 336 0
-39 341 -336 0
-40 -341 336 0
-40 -341 337 0
-40 341 -336 -337 0
-74 -341 336 0
-74 341 -336 0
-31 -342 337 0
-31 342 -337 0
-32 -342 337 0
-32 342 -337 0
-33 -342 337 0
-33 342 -337 0
-34 -337 342 0
-34 -333 342 0
-34 -342 337 333 0
-35 -342 337 0
-35 342 -337 0
-36 -342 337 0
-36 342 -337 0
-37 -337 342 0
-37 -334 342 0
-37 -342 337 334 0
-38 -342 337 0
-38 342 -337 0
-39 -337 342 0
-39 -335 342 0
-39 -342 337 335 0
-40 -337 342 0
-40 -336 342 0
-40 -342 337 336 0
-74 -342 337 0
-74 342 -337 0
-41 -343 338 0
-41 -343 339 0
-41 343 -338 -339 0
-42 -343 338 0
-42 -343 340 0
-42 343 -338 -340 0
-43 -343 338 0
-43 -343 341 0
-43 343 -338 -341 0
-44 -343 338 0
-44 -343 342 0
-44 343 -338 -342 0
-45 -343 338 0
-45 343 -338 0
-46 -343 338 0
-46 343 -338 0
-47 -343 338 0
-47 343 -338 0
-48 -343 338 0
-48 343 -338 0
-49 -343 338 0
-49 343 -338 0
-50 -343 338 0
-50 343 -338 0
-75 -343 338 0
-75 343 -338 0
-41 -339 344 0
-41 -338 344 0
-41 -344 339 338 0
-42 -344 339 0
-42 344 -339 0
-43 -344 339 0
-43 344 -339 0
-44 -344 339 0
-44 344 -339 0
-45 -344 339 0
-45 -344 340 0
-45 344 -339 -340 0
-46 -344 339 0
-46 -344 341 0
-46 344 -339 -341 0
-47 -344 339 0
-47 -344 342 0
-47 344 -339 -342 0
-48 -344 339 0
-48 344 -339 0
-49 -344 339 0
-49 344 -339 0
-50 -344 339 0
-50 344 -339 0
-75 -344 339 0
-75 344 -339 0
-41 -345 340 0
-41 345 -340 0
-42 -340 345 0
-42 -338 345 0
-42 -345 340 338 0
-43 -345 340 0
-43 345 -340 0
-44 -345 340 0
-44 345 -340 0
-45 -340 345 0
-45 -339 345 0
-45 -345 340 339 0
-46 -345 340 0
-46 345 -340 0
-47 -345 340 0
-47 345 -340 0
-48 -345 340 0
-48 -345 341 0
-48 345 -340 -341 0
-49 -345 340 0
-49 -345 342 0
-49 345 -340 -342 0
-50 -345 340 0
-50 345 -340 0
-75 -345 340 0
-75 345 -340 0
-41 -346 341 0
-41 346 -341 0
-42 -346 341 0
-42 346 -341 0
-43 -341 346 0
-43 -338 346 0
-43 -346 341 338 0
-44 -346 341 0
-44 346 -341 0
-45 -346 341 0
-45 346 -341 0
-46 -341 346 0
-46 -339 346 0
-46 -346 341 339 0
-47 -346 341 0
-47 346 -341 0
-48 -341 346 0
-48 -340 346 0
-48 -346 341 340 0
-49 -346 341 0
-49 346 -341 0
-50 -346 341 0
-50 -346 342 0
-50 346 -341 -342 0
-75 -346 341 0
-75 346 -341 0
-41 -347 342 0
-41 347 -342 0
-42 -347 342 0
-42 347 -342 0
-43 -347 342 0
-43 347 -342 0
-44 -342 347 0
-44 -338 347 0
-44 -347 342 338 0
-45 -347 342 0
-45 347 -342 0
-46 -347 342 0
-46 347 -342 0
-47 -342 347 0
-47 -339 347 0
-47 -347 342 339 0
-48 -347 342 0
-48 347 -342 0
-49 -342 347 0
-49 -340 347 0
-49 -347 342 340 0
-50 -342 347 0
-50 -341 347 0
-50 -347 342 341 0
-75 -347 342 0
-75 347 -342 0
-51 -348 343 0
-51 -348 344 0
-51 348 -343 -344 0
-52 -348 343 0
-52 -348 345 0
-52 348 -343 -345 0
-53 -348 343 0
-53 -348 346 0
-53 348 -343 -346 0
-54 -348 343 0
-54 -348 347 0
-54 348 -343 -347 0
-55 -348 343 0
-55 348 -343 0
-56 -348 343 0
-56 348 -343 0
-57 -348 343 0
-57 348 -343 0
-58 -348 343 0
-58 348 -343 0
-59 -348 343 0
-59 348 -343 0
-60 -348 343 0
-60 348 -343 0
-76 -348 343 0
-76 348 -343 0
-51 -344 349 0
-51 -343 349 0
-51 -349 344 343 0
-52 -349 344 0
-52 349 -344 0
-53 -349 344 0
-53 349 -344 0
-54 -349 344 0
-54 349 -344 0
-55 -349 344 0
-55 -349 345 0
-55 349 -344 -345 0
-56 -349 344 0
-56 -349 346 0
-56 349 -344 -346 0
-57 -349 344 0
-57 -349 347 0
-57 349 -344 -347 0
-58 -349 344 0
-58 349 -344 0
-59 -349 344 0
-59 349 -344 0
-60 -349 344 0
-60 349 -344 0
-76 -349 344 0
-76 349 -344 0
-51 -350 345 0
-51 350 -345 0
-52 -345 350 0
-52 -343 350 0
-52 -350 345 343 0
-53 -350 345 0
-53 350 -345 0
-54 -350 345 0
-54 350 -345 0
-55 -345 350 0
-55 -344 350 0
-55 -350 345 344 0
-56 -350 345 0
-56 350 -345 0
-57 -350 345 0
-57 350 -345 0
-58 -350 345 0
-58 -350 346 0
-58 350 -345 -346 0
-59 -350 345 0
-59 -350 347 0
-59 350 -345 -347 0
-60 -350 345 0
-60 350 -345 0
-76 -350 345 0
-76 350 -345 0
-51 -351 346 0
-51 351 -346 0
-52 -351 346 0
-52 351 -346 0
-53 -346 351 0
-53 -343 351 0
-53 -351 346 343 0
-54 -351 346 0
-54 351 -346 0
-55 -351 346 0
-55 351 -346 0
-56 -346 351 0
-56 -344 351 0
-56 -351 346 344 0
-57 -351 346 0
-57 351 -346 0
-58 -346 351 0
-58 -345 351 0
-58 -351 346 345 0
-59 -351 346 0
-59 351 -346 0
-60 -351 346 0
-60 -351 347 0
-60 351 -346 -347 0
-76 -351 346 0
-76 351 -346 0
-51 -352 347 0
-51 352 -347 0
-52 -352 347 0
-52 352 -347 0
-53 -352 347 0
-53 352 -347 0
-54 -347 352 0
-54 -343 352 0
-54 -352 347 343 0
-55 -352 347 0
-55 352 -347 0
-56 -352 347 0
-56 352 -347 0
-57 -347 352 0
-57 -344 352 0
-57 -352 347 344 0
-58 -352 347 0
-58 352 -347 0
-59 -347 352 0
-59 -345 352 0
-59 -352 347 345 0
-60 -347 352 0
-60 -346 352 0
-60 -352 347 346 0
-76 -352 347 0
-76 352 -347 0
-61 -353 348 0
-61 -353 349 0
-61 353 -348 -349 0
-62 -353 348 0
-62 -353 350 0
-62 353 -348 -350 0
-63 -353 348 0
-63 -353 351 0
-63 353 -348 -351 0
-64 -353 348 0
-64 -353 352 0
-64 353 -348 -352 0
-65 -353 348 0
-65 353 -348 0
-66 -353 348 0
-66 353 -348 0
-67 -353 348 0
-67 353 -348 0
-68 -353 348 0
-68 353 -348 0
-69 -353 348 0
-69 353 -348 0
-70 -353 348 0
-70 353 -348 0
-77 -353 348 0
-77 353 -348 0
-61 -349 354 0
-61 -348 354 0
-61 -354 349 348 0
-62 -354 349 0
-62 354 -349 0
-63 -354 349 0
-63 354 -349 0
-64 -354 349 0
-64 354 -349 0
-65 -354 349 0
-65 -354 350 0
-65 354 -349 -350 0
-66 -354 349 0
-66 -354 351 0
-66 354 -349 -351 0
-67 -354 349 0
-67 -354 352 0
-67 354 -349 -352 0
-68 -354 349 0
-68 354 -349 0
-69 -354 349 0
-69 354 -349 0
-70 -354 349 0
-70 354 -349 0
-77 -354 349 0
-77 354 -349 0
-61 -355 350 0
-61 355 -350 0
-62 -350 355 0
-62 -348 355 0
-62 -355 350 348 0
-63 -355 350 0
-63 355 -350 0
-64 -355 350 0
-64 355 -350 0
-65 -350 355 0
-65 -349 355 0
-65 -355 350 349 0
-66 -355 350 0
-66 355 -350 0
-67 -355 350 0
-67 355 -350 0
-68 -355 350 0
-68 -355 351 0
-68 355 -350 -351 0
-69 -355 350 0
-69 -355 352 0
-69 355 -350 -352 0
-70 -355 350 0
-70 355 -350 0
-77 -355 350 0
-77 355 -350 0
-61 -356 351 0
-61 356 -351 0
-62 -356 351 0
-62 356 -351 0
-63 -351 356 0
-63 -348 356 0
-63 -356 351 348 0
-64 -356 351 0
-64 356 -351 0
-65 -356 351 0
-65 356 -351 0
-66 -351 356 0
-66 -349 356 0
-66 -356 351 349 0
-67 -356 351 0
-67 356 -351 0
-68 -351 356 0
-68 -350 356 0
-68 -356 351 350 0
-69 -356 351 0
-69 356 -351 0
-70 -356 351 0
-70 -356 352 0
-70 356 -351 -352 0
-77 -356 351 0
-77 356 -351 0
-61 -357 352 0
-61 357 -352 0
-62 -357 352 0
-62 357 -352 0
-63 -357 352 0
-63 357 -352 0
-64 -352 357 0
-64 -348 357 0
-64 -357 352 348 0
-65 -357 352 0
-65 357 -352 0
-66 -357 352 0
-66 357 -352 0
-67 -352 357 0
-67 -349 357 0
-67 -357 352 349 0
-68 -357 352 0
-68 357 -352 0
-69 -352 357 0
-69 -350 357 0
-69 -357 352 350 0
-70 -352 357 0
-70 -351 357 0
-70 -357 352 351 0
-77 -357 352 0
-77 357 -352 0
-358 0
-1 -363 358 0
-1 -363 359 0
-1 363 -358 -359 0
-2 -363 358 0
-2 -363 360 0
-2 363 -358 -360 0
-3 -363 358 0
-3 -363 361 0
-3 363 -358 -361 0
-4 -363 358 0
-4 -363 362 0
-4 363 -358 -362 0
-5 -363 358 0
-5 363 -358 0
-6 -363 358 0
-6 363 -358 0
-7 -363 358 0
-7 363 -358 0
-8 -363 358 0
-8 363 -358 0
-9 -363 358 0
-9 363 -358 0
-10 -363 358 0
-10 363 -358 0
-71 -363 358 0
-71 363 -358 0
359 0
-1 -359 364 0
-1 -358 364 0
-1 -364 359 358 0
-2 -364 359 0
-2 364 -359 0
-3 -364 359 0
-3 364 -359 0
-4 -364 359 0
-4 364 -359 0
-5 -364 359 0
-5 -364 360 0
-5 364 -359 -360 0
-6 -364 359 0
-6 -364 361 0
-6 364 -359 -361 0
-7 -364 359 0
-7 -364 362 0
-7 364 -359 -362 0
-8 -364 359 0
-8 364 -359 0
-9 -364 359 0
-9 364 -359 0
-10 -364 359 0
-10 364 -359 0
-71 -364 359 0
-71 364 -359 0
-360 0
-1 -365 360 0
-1 365 -360 0
-2 -360 365 0
-2 -358 365 0
-2 -365 360 358 0
-3 -365 360 0
-3 365 -360 0
-4 -365 360 0
-4 365 -360 0
-5 -360 365 0
-5 -359 365 0
-5 -365 360 359 0
-6 -365 360 0
-6 365 -360 0
-7 -365 360 0
-7 365 -360 0
-8 -365 360 0
-8 -365 361 0
-8 365 -360 -361 0
-9 -365 360 0
-9 -365 362 0
-9 365 -360 -362 0
-10 -365 360 0
-10 365 -360 0
-71 -365 360 0
-71 365 -360 0
361 0
-1 -366 361 0
-1 366 -361 0
-2 -366 361 0
-2 366 -361 0
-3 -361 366 0
-3 -358 366 0
-3 -366 361 358 0
-4 -366 361 0
-4 366 -361 0
-5 -366 361 0
-5 366 -361 0
-6 -361 366 0
-6 -359 366 0
-6 -366 361 359 0
-7 -366 361 0
-7 366 -361 0
-8 -361 366 0
-8 -360 366 0
-8 -366 361 360 0
-9 -366 361 0
-9 366 -361 0
-10 -366 361 0
-10 -366 362 0
-10 366 -361 -362 0
-71 -366 361 0
-71 366 -361 0
362 0
-1 -367 362 0
-1 367 -362 0
-2 -367 362 0
-2 367 -362 0
-3 -367 362 0
-3 367 -362 0
-4 -362 367 0
-4 -358 367 0
-4 -367 362 358 0
-5 -367 362 0
-5 367 -362 0
-6 -367 362 0
-6 367 -362 0
-7 -362 367 0
-7 -359 367 0
-7 -367 362 359 0
-8 -367 362 0
-8 367 -362 0
-9 -362 367 0
-9 -360 367 0
-9 -367 362 360 0
-10 -362 367 0
-10 -361 367 0
-10 -367 362 361 0
-71 -367 362 0
-71 367 -362 0
-11 -368 363 0
-11 -368 364 0
-11 368 -363 -364 0
-12 -368 363 0
-12 -368 365 0
-12 368 -363 -365 0
-13 -368 363 0
-13 -368 366 0
-13 368 -363 -366 0
-14 -368 363 0
-14 -368 367 0
-14 368 -363 -367 0
-15 -368 363 0
-15 368 -363 0
-16 -368 363 0
-16 368 -363 0
-17 -368 363 0
-17 368 -363 0
-18 -368 363 0
-18 368 -363 0
-19 -368 363 0
-19 368 -363 0
-20 -368 363 0
-20 368 -363 0
-72 -368 363 0
-72 368 -363 0
-11 -364 369 0
-11 -363 369 0
-11 -369 364 363 0
-12 -369 364 0
-12 369 -364 0
-13 -369 364 0
-13 369 -364 0
-14 -369 364 0
-14 369 -364 0
-15 -369 364 0
-15 -369 365 0
-15 369 -364 -365 0
-16 -369 364 0
-16 -369 366 0
-16 369 -364 -366 0
-17 -369 364 0
-17 -369 367 0
-17 369 -364 -367 0
-18 -369 364 0
-18 369 -364 0
-19 -369 364 0
-19 369 -364 0
-20 -369 364 0
-20 369 -364 0
-72 -369 364 0
-72 369 -364 0
-11 -370 365 0
-11 370 -365 0
-12 -365 370 0
-12 -363 370 0
-12 -370 365 363 0
-13 -370 365 0
-13 370 -365 0
-14 -370 365 0
-14 370 -365 0
-15 -365 370 0
-15 -364 370 0
-15 -370 365 364 0
-16 -370 365 0
-16 370 -365 0
-17 -370 365 0
-17 370 -365 0
-18 -370 365 0
-18 -370 366 0
-18 370 -365 -366 0
-19 -370 365 0
-19 -370 367 0
-19 370 -365 -367 0
-20 -370 365 0
-20 370 -365 0
-72 -370 365 0
-72 370 -365 0
-11 -371 366 0
-11 371 -366 0
-12 -371 366 0
-12 371 -366 0
-13 -366 371 0
-13 -363 371 0
-13 -371 366 363 0
-14 -371 366 0
-14 371 -366 0
-15 -371 366 0
-15 371 -366 0
-16 -366 371 0
-16 -364 371 0
-16 -371 366 364 0
-17 -371 366 0
-17 371 -366 0
-18 -366 371 0
-18 -365 371 0
-18 -371 366 365 0
-19 -371 366 0
-19 371 -366 0
-20 -371 366 0
-20 -371 367 0
-20 371 -366 -367 0
-72 -371 366 0
-72 371 -366 0
-11 -372 367 0
-11 372 -367 0
-12 -372 367 0
-12 372 -367 0
-13 -372 367 0
-13 372 -367 0
-14 -367 372 0
-14 -363 372 0
-14 -372 367 363 0
-15 -372 367 0
-15 372 -367 0
-16 -372 367 0
-16 372 -367 0
-17 -367 372 0
-17 -364 372 0
-17 -372 367 364 0
-18 -372 367 0
-18 372 -367 0
-19 -367 372 0
-19 -365 372 0
-19 -372 367 365 0
-20 -367 372 0
-20 -366 372 0
-20 -372 367 366 0
-72 -372 367 0
-72 372 -367 0
-21 -373 368 0
-21 -373 369 0
-21 373 -368 -369 0
-22 -373 368 0
-22 -373 370 0
-22 373 -368 -370 0
-23 -373 368 0
-23 -373 371 0
-23 373 -368 -371 0
-24 -373 368 0
-24 -373 372 0
-24 373 -368 -372 0
-25 -373 368 0
-25 373 -368 0
-26 -373 368 0
-26 373 -368 0
-27 -373 368 0
-27 373 -368 0
-28 -373 368 0
-28 373 -368 0
-29 -373 368 0
-29 373 -368 0
-30 -373 368 0
-30 373 -368 0
-73 -373 368 0
-73 373 -368 0
-21 -369 374 0
-21 -368 374 0
-21 -374 369 368 0
-22 -374 369 0
-22 374 -369 0
-23 -374 369 0
-23 374 -369 0
-24 -374 369 0
-24 374 -369 0
-25 -374 369 0
-25 -374 370 0
-25 374 -369 -370 0
-26 -374 369 0
-26 -374 371 0
-26 374 -369 -371 0
-27 -374 369 0
-27 -374 372 0
-27 374 -369 -372 0
-28 -374 369 0
-28 374 -369 0
-29 -374 369 0
-29 374 -369 0
-30 -374 369 0
-30 374 -369 0
-73 -374 369 0
-73 374 -369 0
-21 -375 370 0
-21 375 -370 0
-22 -370 375 0
-22 -368 375 0
-22 -375 370 368 0
-23 -375 370 0
-23 375 -370 0
-24 -375 370 0
-24 375 -370 0
-25 -370 375 0
-25 -369 375 0
-25 -375 370 369 0
-26 -375 370 0
-26 375 -370 0
-27 -375 370 0
-27 375 -370 0
-28 -375 370 0
-28 -375 371 0
-28 375 -370 -371 0
-29 -375 370 0
-29 -375 372 0
-29 375 -370 -372 0
-30 -375 370 0
-30 375 -370 0
-73 -375 370 0
-73 375 -370 0
-21 -376 371 0
-21 376 -371 0
-22 -376 371 0
-22 376 -371 0
-23 -371 376 0
-23 -368 376 0
-23 -376 371 368 0
-24 -376 371 0
-24 376 -371 0
-25 -376 371 0
-25 376 -371 0
-26 -371 376 0
-26 -369 376 0
-26 -376 371 369 0
-27 -376 371 0
-27 376 -371 0
-28 -371 376 0
-28 -370 376 0
-28 -376 371 370 0
-29 -376 371 0
-29 376 -371 0
-30 -376 371 0
-30 -376 372 0
-30 376 -371 -372 0
-73 -376 371 0
-73 376 -371 0
-21 -377 372 0
-21 377 -372 0
-22 -377 372 0
-22 377 -372 0
-23 -377 372 0
-23 377 -372 0
-24 -372 377 0
-24 -368 377 0
-24 -377 372 368 0
-25 -377 372 0
-25 377 -372 0
-26 -377 372 0
-26 377 -372 0
-27 -372 377 0
-27 -369 377 0
-27 -377 372 369 0
-28 -377 372 0
-28 377 -372 0
-29 -372 377 0
-29 -370 377 0
-29 -377 372 370 0
-30 -372 377 0
-30 -371 377 0
-30 -377 372 371 0
-73 -377 372 0
-73 377 -372 0
-31 -378 373 0
-31 -378 374 0
-31 378 -373 -374 0
-32 -378 373 0
-32 -378 375 0
-32 378 -373 -375 0
-33 -378 373 0
-33 -378 376 0
-33 378 -373 -376 0
-34 -378 373 0
-34 -378 377 0
-34 378 -373 -377 0
-35 -378 373 0
-35 378 -373 0
-36 -378 373 0
-36 378 -373 0
-37 -378 373 0
-37 378 -373 0
-38 -378 373 0
-38 378 -373 0
-39 -378 373 0
-39 378 -373 0
-40 -378 373 0
-40 378 -373 0
-74 -378 373 0
-74 378 -373 0
-31 -374 379 0
-31 -373 379 0
-31 -379 374 373 0
-32 -379 374 0
-32 379 -374 0
-33 -379 374 0
-33 379 -374 0
-34 -379 374 0
-34 379 -374 0
-35 -379 374 0
-35 -379 375 0
-35 379 -374 -375 0
-36 -379 374 0
-36 -379 376 0
-36 379 -374 -376 0
-37 -379 374 0
-37 -379 377 0
-37 379 -374 -377 0
-38 -379 374 0
-38 379 -374 0
-39 -379 374 0
-39 379 -374 0
-40 -379 374 0
-40 379 -374 0
-74 -379 374 0
-74 379 -374 0
-31 -380 375 0
-31 380 -375 0
-32 -375 380 0
-32 -373 380 0
-32 -380 375 373 0
-33 -380 375 0
-33 380 -375 0
-34 -380 375 0
-34 380 -375 0
-35 -375 380 0
-35 -374 380 0
-35 -380 375 374 0
-36 -380 375 0
-36 380 -375 0
-37 -380 375 0
-37 380 -375 0
-38 -380 375 0
-38 -380 376 0
-38 380 -375 -376 0
-39 -380 375 0
-39 -380 377 0
-39 380 -375 -377 0
-40 -380 375 0
-40 380 -375 0
-74 -380 375 0
-74 380 -375 0
-31 -381 376 0
-31 381 -376 0
-32 -381 376 0
-32 381 -376 0
-33 -376 381 0
-33 -373 381 0
-33 -381 376 373 0
-34 -381 376 0
-34 381 -376 0
-35 -381 376 0
-35 381 -376 0
-36 -376 381 0
-36 -374 381 0
-36 -381 376 374 0
-37 -381 376 0
-37 381 -376 0
-38 -376 381 0
-38 -375 381 0
-38 -381 376 375 0
-39 -381 376 0
-39 381 -376 0
-40 -381 376 0
-40 -381 377 0
-40 381 -376 -377 0
-74 -381 376 0
-74 381 -376 0
-31 -382 377 0
-31 382 -377 0
-32 -382 377 0
-32 382 -377 0
-33 -382 377 0
-33 382 -377 0
-34 -377 382 0
-34 -373 382 0
-34 -382 377 373 0
-35 -382 377 0
-35 382 -377 0
-36 -382 377 0
-36 382 -377 0
-37 -377 382 0
-37 -374 382 0
-37 -382 377 374 0
-38 -382 377 0
-38 382 -377 0
-39 -377 382 0
-39 -375 382 0
-39 -382 377 375 0
-40 -377 382 0
-40 -376 382 0
-40 -382 377 376 0
-74 -382 377 0
-74 382 -377 0
-41 -383 378 0
-41 -383 379 0
-41 383 -378 -379 0
-42 -383 378 0
-42 -383 380 0
-42 383 -378 -380 0
-43 -383 378 0
-43 -383 381 0
-43 383 -378 -381 0
-44 -383 378 0
-44 -383 382 0
-44 383 -378 -382 0
-45 -383 378 0
-45 383 -378 0
-46 -383 378 0
-46 383 -378 0
-47 -383 378 0
-47 383 -378 0
-48 -383 378 0
-48 383 -378 0
-49 -383 378 0
-49 383 -378 0
-50 -383 378 0
-50 383 -378 0
-75 -383 378 0
-75 383 -378 0
-41 -379 384 0
-41 -378 384 0
-41 -384 379 378 0
-42 -384 379 0
-42 384 -379 0
-43 -384 379 0
-43 384 -379 0
-44 -384 379 0
-44 384 -379 0
-45 -384 379 0
-45 -384 380 0
-45 384 -379 -380 0
-46 -384 379 0
-46 -384 381 0
-46 384 -379 -381 0
-47 -384 379 0
-47 -384 382 0
-47 384 -379 -382 0
-48 -384 379 0
-48 384 -379 0
-49 -384 379 0
-49 384 -379 0
-50 -384 379 0
-50 384 -379 0
-75 -384 379 0
-75 384 -379 0
-41 -385 380 0
-41 385 -380 0
-42 -380 385 0
-42 -378 385 0
-42 -385 380 378 0
-43 -385 380 0
-43 385 -380 0
-44 -385 380 0
-44 385 -380 0
-45 -380 385 0
-45 -379 385 0
-45 -385 380 379 0
-46 -385 380 0
-46 385 -380 0
-47 -385 380 0
-47 385 -380 0
-48 -385 380 0
-48 -385 381 0
-48 385 -380 -381 0
-49 -385 380 0
-49 -385 382 0
-49 385 -380 -382 0
-50 -385 380 0
-50 385 -380 0
-75 -385 380 0
-75 385 -380 0
-41 -386 381 0
-41 386 -381 0
-42 -386 381 0
-42 386 -381 0
-43 -381 386 0
-43 -378 386 0
-43 -386 381 378 0
-44 -386 381 0
-44 386 -381 0
-45 -386 381 0
-45 386 -381 0
-46 -381 386 0
-46 -379 386 0
-46 -386 381 379 0
-47 -386 381 0
-47 386 -381 0
-48 -381 386 0
-48 -380 386 0
-48 -386 381 380 0
-49 -386 381 0
-49 386 -381 0
-50 -386 381 0
-50 -386 382 0
-50 386 -381 -382 0
-75 -386 381 0
-75 386 -381 0
-41 -387 382 0
-41 387 -382 0
-42 -387 382 0
-42 387 -382 0
-43 -387 382 0
-43 387 -382 0
-44 -382 387 0
-44 -378 387 0
-44 -387 382 378 0
-45 -387 382 0
-45 387 -382 0
-46 -387 382 0
-46 387 -382 0
-47 -382 387 0
-47 -379 387 0
-47 -387 382 379 0
-48 -387 382 0
-48 387 -382 0
-49 -382 387 0
-49 -380 387 0
-49 -387 382 380 0
-50 -382 387 0
-50 -381 387 0
-50 -387 382 381 0
-75 -387 382 0
-75 387 -382 0
-51 -388 383 0
-51 -388 384 0
-51 388 -383 -384 0
-52 -388 383 0
-52 -388 385 0
-52 388 -383 -385 0
-53 -388 383 0
-53 -388 386 0
-53 388 -383 -386 0
-54 -388 383 0
-54 -388 387 0
-54 388 -383 -387 0
-55 -388 383 0
-55 388 -383 0
-56 -388 383 0
-56 388 -383 0
-57 -388 383 0
-57 388 -383 0
-58 -388 383 0
-58 388 -383 0
-59 -388 383 0
-59 388 -383 0
-60 -388 383 0
-60 388 -383 0
-76 -388 383 0
-76 388 -383 0
-51 -384 389 0
-51 -383 389 0
-51 -389 384 383 0
-52 -389 384 0
-52 389 -384 0
-53 -389 384 0
-53 389 -384 0
-54 -389 384 0
-54 389 -384 0
-55 -389 384 0
-55 -389 385 0
-55 389 -384 -385 0
-56 -389 384 0
-56 -389 386 0
-56 389 -384 -386 0
-57 -389 384 0
-57 -389 387 0
-57 389 -384 -387 0
-58 -389 384 0
-58 389 -384 0
-59 -389 384 0
-59 389 -384 0
-60 -389 384 0
-60 389 -384 0
-76 -389 384 0
-76 389 -384 0
-51 -390 385 0
-51 390 -385 0
-52 -385 390 0
-52 -383 390 0
-52 -390 385 383 0
-53 -390 385 0
-53 390 -385 0
-54 -390 385 0
-54 390 -385 0
-55 -385 390 0
-55 -384 390 0
-55 -390 385 384 0
-56 -390 385 0
-56 390 -385 0
-57 -390 385 0
-57 390 -385 0
-58 -390 385 0
-58 -390 386 0
-58 390 -385 -386 0
-59 -390 385 0
-59 -390 387 0
-59 390 -385 -387 0
-60 -390 385 0
-60 390 -385 0
-76 -390 385 0
-76 390 -385 0
-51 -391 386 0
-51 391 -386 0
-52 -391 386 0
-52 391 -386 0
-53 -386 391 0
-53 -383 391 0
-53 -391 386 383 0
-54 -391 386 0
-54 391 -386 0
-55 -391 386 0
-55 391 -386 0
-56 -386 391 0
-56 -384 391 0
-56 -391 386 384 0
-57 -391 386 0
-57 391 -386 0
-58 -386 391 0
-58 -385 391 0
-58 -391 386 385 0
-59 -391 386 0
-59 391 -386 0
-60 -391 386 0
-60 -391 387 0
-60 391 -386 -387 0
-76 -391 386 0
-76 391 -386 0
-51 -392 387 0
-51 392 -387 0
-52 -392 387 0
-52 392 -387 0
-53 -392 387 0
-53 392 -387 0
-54 -387 392 0
-54 -383 392 0
-54 -392 387 383 0
-55 -392 387 0
-55 392 -387 0
-56 -392 387 0
-56 392 -387 0
-57 -387 392 0
-57 -384 392 0
-57 -392 387 384 0
-58 -392 387 0
-58 392 -387 0
-59 -387 392 0
-59 -385 392 0
-59 -392 387 385 0
-60 -387 392 0
-60 -386 392 0
-60 -392 387 386 0
-76 -392 387 0
-76 392 -387 0
-61 -393 388 0
-61 -393 389 0
-61 393 -388 -389 0
-62 -393 388 0
-62 -393 390 0
-62 393 -388 -390 0
-63 -393 388 0
-63 -393 391 0
-63 393 -388 -391 0
-64 -393 388 0
-64 -393 392 0
-64 393 -388 -392 0
-65 -393 388 0
-65 393 -388 0
-66 -393 388 0
-66 393 -388 0
-67 -393 388 0
-67 393 -388 0
-68 -393 388 0
-68 393 -388 0
-69 -393 388 0
-69 393 -388 0
-70 -393 388 0
-70 393 -388 0
-77 -393 388 0
-77 393 -388 0
-61 -389 394 0
-61 -388 394 0
-61 -394 389 388 0
-62 -394 389 0
-62 394 -389 0
-63 -394 389 0
-63 394 -389 0
-64 -394 389 0
-64 394 -389 0
-65 -394 389 0
-65 -394 390 0
-65 394 -389 -390 0
-66 -394 389 0
-66 -394 391 0
-66 394 -389 -391 0
-67 -394 389 0
-67 -394 392 0
-67 394 -389 -392 0
-68 -394 389 0
-68 394 -389 0
-69 -394 389 0
-69 394 -389 0
-70 -394 389 0
-70 394 -389 0
-77 -394 389 0
-77 394 -389 0
-61 -395 390 0
-61 395 -390 0
-62 -390 395 0
-62 -388 395 0
-62 -395 390 388 0
-63 -395 390 0
-63 395 -390 0
-64 -395 390 0
-64 395 -390 0
-65 -390 395 0
-65 -389 395 0
-65 -395 390 389 0
-66 -395 390 0
-66 395 -390 0
-67 -395 390 0
-67 395 -390 0
-68 -395 390 0
-68 -395 391 0
-68 395 -390 -391 0
-69 -395 390 0
-69 -395 392 0
-69 395 -390 -392 0
-70 -395 390 0
-70 395 -390 0
-77 -395 390 0
-77 395 -390 0
-61 -396 391 0
-61 396 -391 0
-62 -396 391 0
-62 396 -391 0
-63 -391 396 0
-63 -388 396 0
-63 -396 391 388 0
-64 -396 391 0
-64 396 -391 0
-65 -396 391 0
-65 396 -391 0
-66 -391 396 0
-66 -389 396 0
-66 -396 391 389 0
-67 -396 391 0
-67 396 -391 0
-68 -391 396 0
-68 -390 396 0
-68 -396 391 390 0
-69 -396 391 0
-69 396 -391 0
-70 -396 391 0
-70 -396 392 0
-70 396 -391 -392 0
-77 -396 391 0
-77 396 -391 0
-61 -397 392 0
-61 397 -392 0
-62 -397 392 0
-62 397 -392 0
-63 -397 392 0
-63 397 -392 0
-64 -392 397 0
-64 -388 397 0
-64 -397 392 388 0
-65 -397 392 0
-65 397 -392 0
-66 -397 392 0
-66 397 -392 0
-67 -392 397 0
-67 -389 397 0
-67 -397 392 389 0
-68 -397 392 0
-68 397 -392 0
-69 -392 397 0
-69 -390 397 0
-69 -397 392 390 0
-70 -392 397 0
-70 -391 397 0
-70 -397 392 391 0
-77 -397 392 0
-77 397 -392 0
-398 0
-1 -403 398 0
-1 -403 399 0
-1 403 -398 -399 0
-2 -403 398 0
-2 -403 400 0
-2 403 -398 -400 0
-3 -403 398 0
-3 -403 401 0
-3 403 -398 -401 0
-4 -403 398 0
-4 -403 402 0
-4 403 -398 -402 0
-5 -403 398 0
-5 403 -398 0
-6 -403 398 0
-6 403 -398 0
-7 -403 398 0
-7 403 -398 0
-8 -403 398 0
-8 403 -398 0
-9 -403 398 0
-9 403 -398 0
-10 -403 398 0
-10 403 -398 0
-71 -403 398 0
-71 403 -398 0
399 0
-1 -399 404 0
-1 -398 404 0
-1 -404 399 398 0
-2 -404 399 0
-2 404 -399 0
-3 -404 399 0
-3 404 -399 0
-4 -404 399 0
-4 404 -399 0
-5 -404 399 0
-5 -404 400 0
-5 404 -399 -400 0
-6 -404 399 0
-6 -404 401 0
-6 404 -399 -401 0
-7 -404 399 0
-7 -404 402 0
-7 404 -399 -402 0
-8 -404 399 0
-8 404 -399 0
-9 -404 399 0
-9 404 -399 0
-10 -404 399 0
-10 404 -399 0
-71 -404 399 0
-71 404 -399 0
400 0
-1 -405 400 0
-1 405 -400 0
-2 -400 405 0
-2 -398 405 0
-2 -405 400 398 0
-3 -405 400 0
-3 405 -400 0
-4 -405 400 0
-4 405 -400 0
-5 -400 405 0
-5 -399 405 0
-5 -405 400 399 0
-6 -405 400 0
-6 405 -400 0
-7 -405 400 0
-7 405 -400 0
-8 -405 400 0
-8 -405 401 0
-8 405 -400 -401 0
-9 -405 400 0
-9 -405 402 0
-9 405 -400 -402 0
-10 -405 400 0
-10 405 -400 0
-71 -405 400 0
-71 405 -400 0
-401 0
-1 -406 401 0
-1 406 -401 0
-2 -406 401 0
-2 406 -401 0
-3 -401 406 0
-3 -398 406 0
-3 -406 401 398 0
-4 -406 401 0
-4 406 -401 0
-5 -406 401 0
-5 406 -401 0
-6 -401 406 0
-6 -399 406 0
-6 -406 401 399 0
-7 -406 401 0
-7 406 -401 0
-8 -401 406 0
-8 -400 406 0
-8 -406 401 400 0
-9 -406 401 0
-9 406 -401 0
-10 -406 401 0
-10 -406 402 0
-10 406 -401 -402 0
-71 -406 401 0
-71 406 -401 0
-402 0
-1 -407 402 0
-1 407 -402 0
-2 -407 402 0
-2 407 -402 0
-3 -407 402 0
-3 407 -402 0
-4 -402 407 0
-4 -398 407 0
-4 -407 402 398 0
-5 -407 402 0
-5 407 -402 0
-6 -407 402 0
-6 407 -402 0
-7 -402 407 0
-7 -399 407 0
-7 -407 402 399 0
-8 -407 402 0
-8 407 -402 0
-9 -402 407 0
-9 -400 407 0
-9 -407 402 400 0
-10 -402 407 0
-10 -401 407 0
-10 -407 402 401 0
-71 -407 402 0
-71 407 -402 0
-11 -408 403 0
-11 -408 404 0
-11 408 -403 -404 0
-12 -408 403 0
-12 -408 405 0
-12 408 -403 -405 0
-13 -408 403 0
-13 -408 406 0
-13 408 -403 -406 0
-14 -408 403 0
-14 -408 407 0
-14 408 -403 -407 0
-15 -408 403 0
-15 408 -403 0
-16 -408 403 0
-16 408 -403 0
-17 -408 403 0
-17 408 -403 0
-18 -408 403 0
-18 408 -403 0
-19 -408 403 0
-19 408 -403 0
-20 -408 403 0
-20 408 -403 0
-72 -408 403 0
-72 408 -403 0
-11 -404 409 0
-11 -403 409 0
-11 -409 404 403 0
-12 -409 404 0
-12 409 -404 0
-13 -409 404 0
-13 409 -404 0
-14 -409 404 0
-14 409 -404 0
-15 -409 404 0
-15 -409 405 0
-15 409 -404 -405 0
-16 -409 404 0
-16 -409 406 0
-16 409 -404 -406 0
-17 -409 404 0
-17 -409 407 0
-17 409 -404 -407 0
-18 -409 404 0
-18 409 -404 0
-19 -409 404 0
-19 409 -404 0
-20 -409 404 0
-20 409 -404 0
-72 -409 404 0
-72 409 -404 0
-11 -410 405 0
-11 410 -405 0
-12 -405 410 0
-12 -403 410 0
-12 -410 405 403 0
-13 -410 405 0
-13 410 -405 0
-14 -410 405 0
-14 410 -405 0
-15 -405 410 0
-15 -404 410 0
-15 -410 405 404 0
-16 -410 405 0
-16 410 -405 0
-17 -410 405 0
-17 410 -405 0
-18 -410 405 0
-18 -410 406 0
-18 410 -405 -406 0
-19 -410 405 0
-19 -410 407 0
-19 410 -405 -407 0
-20 -410 405 0
-20 410 -405 0
-72 -410 405 0
-72 410 -405 0
-11 -411 406 0
-11 411 -406 0
-12 -411 406 0
-12 411 -406 0
-13 -406 411 0
-13 -403 411 0
-13 -411 406 403 0
-14 -411 406 0
-14 411 -406 0
-15 -411 406 0
-15 411 -406 0
-16 -406 411 0
-16 -404 411 0
-16 -411 406 404 0
-17 -411 406 0
-17 411 -406 0
-18 -406 411 0
-18 -405 411 0
-18 -411 406 405 0
-19 -411 406 0
-19 411 -406 0
-20 -411 406 0
-20 -411 407 0
-20 411 -406 -407 0
-72 -411 406 0
-72 411 -406 0
-11 -412 407 0
-11 412 -407 0
-12 -412 407 0
-12 412 -407 0
-13 -412 407 0
-13 412 -407 0
-14 -407 412 0
-14 -403 412 0
-14 -412 407 403 0
-15 -412 407 0
-15 412 -407 0
-16 -412 407 0
-16 412 -407 0
-17 -407 412 0
-17 -404 412 0
-17 -412 407 404 0
-18 -412 407 0
-18 412 -407 0
-19 -407 412 0
-19 -405 412 0
-19 -412 407 405 0
-20 -407 412 0
-20 -406 412 0
-20 -412 407 406 0
-72 -412 407 0
-72 412 -407 0
-21 -413 408 0
-21 -413 409 0
-21 413 -408 -409 0
-22 -413 408 0
-22 -413 410 0
-22 413 -408 -410 0
-23 -413 408 0
-23 -413 411 0
-23 413 -408 -411 0
-24 -413 408 0
-24 -413 412 0
-24 413 -408 -412 0
-25 -413 408 0
-25 413 -408 0
-26 -413 408 0
-26 413 -408 0
-27 -413 408 0
-27 413 -408 0
-28 -413 408 0
-28 413 -408 0
-29 -413 408 0
-29 413 -408 0
-30 -413 408 0
-30 413 -408 0
-73 -413 408 0
-73 413 -408 0
-21 -409 414 0
-21 -408 414 0
-21 -414 409 408 0
-22 -414 409 0
-22 414 -409 0
-23 -414 409 0
-23 414 -409 0
-24 -414 409 0
-24 414 -409 0
-25 -414 409 0
-25 -414 410 0
-25 414 -409 -410 0
-26 -414 409 0
-26 -414 411 0
-26 414 -409 -411 0
-27 -414 409 0
-27 -414 412 0
-27 414 -409 -412 0
-28 -414 409 0
-28 414 -409 0
-29 -414 409 0
-29 414 -409 0
-30 -414 409 0
-30 414 -409 0
-73 -414 409 0
-73 414 -409 0
-21 -415 410 0
-21 415 -410 0
-22 -410 415 0
-22 -408 415 0
-22 -415 410 408 0
-23 -415 410 0
-23 415 -410 0
-24 -415 410 0
-24 415 -410 0
-25 -410 415 0
-25 -409 415 0
-25 -415 410 409 0
-26 -415 410 0
-26 415 -410 0
-27 -415 410 0
-27 415 -410 0
-28 -415 410 0
-28 -415 411 0
-28 415 -410 -411 0
-29 -415 410 0
-29 -415 412 0
-29 415 -410 -412 0
-30 -415 410 0
-30 415 -410 0
-73 -415 410 0
-73 415 -410 0
-21 -416 411 0
-21 416 -411 0
-22 -416 411 0
-22 416 -411 0
-23 -411 416 0
-23 -408 416 0
-23 -416 411 408 0
-24 -416 411 0
-24 416 -411 0
-25 -416 411 0
-25 416 -411 0
-26 -411 416 0
-26 -409 416 0
-26 -416 411 409 0
-27 -416 411 0
-27 416 -411 0
-28 -411 416 0
-28 -410 416 0
-28 -416 411 410 0
-29 -416 411 0
-29 416 -411 0
-30 -416 411 0
-30 -416 412 0
-30 416 -411 -412 0
-73 -416 411 0
-73 416 -411 0
-21 -417 412 0
-21 417 -412 0
-22 -417 412 0
-22 417 -412 0
-23 -417 412 0
-23 417 -412 0
-24 -412 417 0
-24 -408 417 0
-24 -417 412 408 0
-25 -417 412 0
-25 417 -412 0
-26 -417 412 0
-26 417 -412 0
-27 -412 417 0
-27 -409 417 0
-27 -417 412 409 0
-28 -417 412 0
-28 417 -412 0
-29 -412 417 0
-29 -410 417 0
-29 -417 412 410 0
-30 -412 417 0
-30 -411 417 0
-30 -417 412 411 0
-73 -417 412 0
-73 417 -412 0
-31 -418 413 0
-31 -418 414 0
-31 418 -413 -414 0
-32 -418 413 0
-32 -418 415 0
-32 418 -413 -415 0
-33 -418 413 0
-33 -418 416 0
-33 418 -413 -416 0
-34 -418 413 0
-34 -418 417 0
-34 418 -413 -417 0
-35 -418 413 0
-35 418 -413 0
-36 -418 413 0
-36 418 -413 0
-37 -418 413 0
-37 418 -413 0
-38 -418 413 0
-38 418 -413 0
-39 -418 413 0
-39 418 -413 0
-40 -418 413 0
-40 418 -413 0
-74 -418 413 0
-74 418 -413 0
-31 -414 419 0
-31 -413 419 0
-31 -419 414 413 0
-32 -419 414 0
-32 419 -414 0
-33 -419 414 0
-33 419 -414 0
-34 -419 414 0
-34 419 -414 0
-35 -419 414 0
-35 -419 415 0
-35 419 -414 -415 0
-36 -419 414 0
-36 -419 416 0
-36 419 -414 -416 0
-37 -419 414 0
-37 -419 417 0
-37 419 -414 -417 0
-38 -419 414 0
-38 419 -414 0
-39 -419 414 0
-39 419 -414 0
-40 -419 414 0
-40 419 -414 0
-74 -419 414 0
-74 419 -414 0
-31 -420 415 0
-31 420 -415 0
-32 -415 420 0
-32 -413 420 0
-32 -420 415 413 0
-33 -420 415 0
-33 420 -415 0
-34 -420 415 0
-34 420 -415 0
-35 -415 420 0
-35 -414 420 0
-35 -420 415 414 0
-36 -420 415 0
-36 420 -415 0
-37 -420 415 0
-37 420 -415 0
-38 -420 415 0
-38 -420 416 0
-38 420 -415 -416 0
-39 -420 415 0
-39 -420 417 0
-39 420 -415 -417 0
-40 -420 415 0
-40 420 -415 0
-74 -420 415 0
-74 420 -415 0
-31 -421 416 0
-31 421 -416 0
-32 -421 416 0
-32 421 -416 0
-33 -416 421 0
-33 -413 421 0
-33 -421 416 413 0
-34 -421 416 0
-34 421 -416 0
-35 -421 416 0
-35 421 -416 0
-36 -416 421 0
-36 -414 421 0
-36 -421 416 414 0
-37 -421 416 0
-37 421 -416 0
-38 -416 421 0
-38 -415 421 0
-38 -421 416 415 0
-39 -421 416 0
-39 421 -416 0
-40 -421 416 0
-40 -421 417 0
-40 421 -416 -417 0
-74 -421 416 0
-74 421 -416 0
-31 -422 417 0
-31 422 -417 0
-32 -422 417 0
-32 422 -417 0
-33 -422 417 0
-33 422 -417 0
-34 -417 422 0
-34 -413 422 0
-34 -422 417 413 0
-35 -422 417 0
-35 422 -417 0
-36 -422 417 0
-36 422 -417 0
-37 -417 422 0
-37 -414 422 0
-37 -422 417 414 0
-38 -422 417 0
-38 422 -417 0
-39 -417 422 0
-39 -415 422 0
-39 -422 417 415 0
-40 -417 422 0
-40 -416 422 0
-40 -422 417 416 0
-74 -422 417 0
-74 422 -417 0
-41 -423 418 0
-41 -423 419 0
-41 423 -418 -419 0
-42 -423 418 0
-42 -423 420 0
-42 423 -418 -420 0
-43 -423 418 0
-43 -423 421 0
-43 423 -418 -421 0
-44 -423 418 0
-44 -423 422 0
-44 423 -418 -422 0
-45 -423 418 0
-45 423 -418 0
-46 -423 418 0
-46 423 -418 0
-47 -423 418 0
-47 423 -418 0
-48 -423 418 0
-48 423 -418 0
-49 -423 418 0
-49 423 -418 0
-50 -423 418 0
-50 423 -418 0
-75 -423 418 0
-75 423 -418 0
-41 -419 424 0
-41 -418 424 0
-41 -424 419 418 0
-42 -424 419 0
-42 424 -419 0
-43 -424 419 0
-43 424 -419 0
-44 -424 419 0
-44 424 -419 0
-45 -424 419 0
-45 -424 420 0
-45 424 -419 -420 0
-46 -424 419 0
-46 -424 421 0
-46 424 -419 -421 0
-47 -424 419 0
-47 -424 422 0
-47 424 -419 -422 0
-48 -424 419 0
-48 424 -419 0
-49 -424 419 0
-49 424 -419 0
-50 -424 419 0
-50 424 -419 0
-75 -424 419 0
-75 424 -419 0
-41 -425 420 0
-41 425 -420 0
-42 -420 425 0
-42 -418 425 0
-42 -425 420 418 0
-43 -425 420 0
-43 425 -420 0
-44 -425 420 0
-44 425 -420 0
-45 -420 425 0
-45 -419 425 0
-45 -425 420 419 0
-46 -425 420 0
-46 425 -420 0
-47 -425 420 0
-47 425 -420 0
-48 -425 420 0
-48 -425 421 0
-48 425 -420 -421 0
-49 -425 420 0
-49 -425 422 0
-49 425 -420 -422 0
-50 -425 420 0
-50 425 -420 0
-75 -425 420 0
-75 425 -420 0
-41 -426 421 0
-41 426 -421 0
-42 -426 421 0
-42 426 -421 0
-43 -421 426 0
-43 -418 426 0
-43 -426 421 418 0
-44 -426 421 0
-44 426 -421 0
-45 -426 421 0
-45 426 -421 0
-46 -421 426 0
-46 -419 426 0
-46 -426 421 419 0
-47 -426 421 0
-47 426 -421 0
-48 -421 426 0
-48 -420 426 0
-48 -426 421 420 0
-49 -426 421 0
-49 426 -421 0
-50 -426 421 0
-50 -426 422 0
-50 426 -421 -422 0
-75 -426 421 0
-75 426 -421 0
-41 -427 422 0
-41 427 -422 0
-42 -427 422 0
-42 427 -422 0
-43 -427 422 0
-43 427 -422 0
-44 -422 427 0
-44 -418 427 0
-44 -427 422 418 0
-45 -427 422 0
-45 427 -422 0
-46 -427 422 0
-46 427 -422 0
-47 -422 427 0
-47 -419 427 0
-47 -427 422 419 0
-48 -427 422 0
-48 427 -422 0
-49 -422 427 0
-49 -420 427 0
-49 -427 422 420 0
-50 -422 427 0
-50 -421 427 0
-50 -427 422 421 0
-75 -427 422 0
-75 427 -422 0
-51 -428 423 0
-51 -428 424 0
-51 428 -423 -424 0
-52 -428 423 0
-52 -428 425 0
-52 428 -423 -425 0
-53 -428 423 0
-53 -428 426 0
-53 428 -423 -426 0
-54 -428 423 0
-54 -428 427 0
-54 428 -423 -427 0
-55 -428 423 0
-55 428 -423 0
-56 -428 423 0
-56 428 -423 0
-57 -428 423 0
-57 428 -423 0
-58 -428 423 0
-58 428 -423 0
-59 -428 423 0
-59 428 -423 0
-60 -428 423 0
-60 428 -423 0
-76 -428 423 0
-76 428 -423 0
-51 -424 429 0
-51 -423 429 0
-51 -429 424 423 0
-52 -429 424 0
-52 429 -424 0
-53 -429 424 0
-53 429 -424 0
-54 -429 424 0
-54 429 -424 0
-55 -429 424 0
-55 -429 425 0
-55 429 -424 -425 0
-56 -429 424 0
-56 -429 426 0
-56 429 -424 -426 0
-57 -429 424 0
-57 -429 427 0
-57 429 -424 -427 0
-58 -429 424 0
-58 429 -424 0
-59 -429 424 0
-59 429 -424 0
-60 -429 424 0
-60 429 -424 0
-76 -429 424 0
-76 429 -424 0
-51 -430 425 0
-51 430 -425 0
-52 -425 430 0
-52 -423 430 0
-52 -430 425 423 0
-53 -430 425 0
-53 430 -425 0
-54 -430 425 0
-54 430 -425 0
-55 -425 430 0
-55 -424 430 0
-55 -430 425 424 0
-56 -430 425 0
-56 430 -425 0
-57 -430 425 0
-57 430 -425 0
-58 -430 425 0
-58 -430 426 0
-58 430 -425 -426 0
-59 -430 425 0
-59 -430 427 0
-59 430 -425 -427 0
-60 -430 425 0
-60 430 -425 0
-76 -430 425 0
-76 430 -425 0
-51 -431 426 0
-51 431 -426 0
-52 -431 426 0
-52 431 -426 0
-53 -426 431 0
-53 -423 431 0
-53 -431 426 423 0
-54 -431 426 0
-54 431 -426 0
-55 -431 426 0
-55 431 -426 0
-56 -426 431 0
-56 -424 431 0
-56 -431 426 424 0
-57 -431 426 0
-57 431 -426 0
-58 -426 431 0
-58 -425 431 0
-58 -431 426 425 0
-59 -431 426 0
-59 431 -426 0
-60 -431 426 0
-60 -431 427 0
-60 431 -426 -427 0
-76 -431 426 0
-76 431 -426 0
-51 -432 427 0
-51 432 -427 0
-52 -432 427 0
-52 432 -427 0
-53 -432 427 0
-53 432 -427 0
-54 -427 432 0
-54 -423 432 0
-54 -432 427 423 0
-55 -432 427 0
-55 432 -427 0
-56 -432 427 0
-56 432 -427 0
-57 -427 432 0
-57 -424 432 0
-57 -432 427 424 0
-58 -432 427 0
-58 432 -427 0
-59 -427 432 0
-59 -425 432 0
-59 -432 427 425 0
-60 -427 432 0
-60 -426 432 0
-60 -432 427 426 0
-76 -432 427 0
-76 432 -427 0
-61 -433 428 0
-61 -433 429 0
-61 433 -428 -429 0
-62 -433 428 0
-62 -433 430 0
-62 433 -428 -430 0
-63 -433 428 0
-63 -433 431 0
-63 433 -428 -431 0
-64 -433 428 0
-64 -433 432 0
-64 433 -428 -432 0
-65 -433 428 0
-65 433 -428 0
-66 -433 428 0
-66 433 -428 0
-67 -433 428 0
-67 433 -428 0
-68 -433 428 0
-68 433 -428 0
-69 -433 428 0
-69 433 -428 0
-70 -433 428 0
-70 433 -428 0
-77 -433 428 0
-77 433 -428 0
-61 -429 434 0
-61 -428 434 0
-61 -434 429 428 0
-62 -434 429 0
-62 434 -429 0
-63 -434 429 0
-63 434 -429 0
-64 -434 429 0
-64 434 -429 0
-65 -434 429 0
-65 -434 430 0
-65 434 -429 -430 0
-66 -434 429 0
-66 -434 431 0
-66 434 -429 -431 0
-67 -434 429 0
-67 -434 432 0
-67 434 -429 -432 0
-68 -434 429 0
-68 434 -429 0
-69 -434 429 0
-69 434 -429 0
-70 -434 429 0
-70 434 -429 0
-77 -434 429 0
-77 434 -429 0
-61 -435 430 0
-61 435 -430 0
-62 -430 435 0
-62 -428 435 0
-62 -435 430 428 0
-63 -435 430 0
-63 435 -430 0
-64 -435 430 0
-64 435 -430 0
-65 -430 435 0
-65 -429 435 0
-65 -435 430 429 0
-66 -435 430 0
-66 435 -430 0
-67 -435 430 0
-67 435 -430 0
-68 -435 430 0
-68 -435 431 0
-68 435 -430 -431 0
-69 -435 430 0
-69 -435 432 0
-69 435 -430 -432 0
-70 -435 430 0
-70 435 -430 0
-77 -435 430 0
-77 435 -430 0
-61 -436 431 0
-61 436 -431 0
-62 -436 431 0
-62 436 -431 0
-63 -431 436 0
-63 -428 436 0
-63 -436 431 428 0
-64 -436 431 0
-64 436 -431 0
-65 -436 431 0
-65 436 -431 0
-66 -431 436 0
-66 -429 436 0
-66 -436 431 429 0
-67 -436 431 0
-67 436 -431 0
-68 -431 436 0
-68 -430 436 0
-68 -436 431 430 0
-69 -436 431 0
-69 436 -431 0
-70 -436 431 0
-70 -436 432 0
-70 436 -431 -432 0
-77 -436 431 0
-77 436 -431 0
-61 -437 432 0
-61 437 -432 0
-62 -437 432 0
-62 437 -432 0
-63 -437 432 0
-63 437 -432 0
-64 -432 437 0
-64 -428 437 0
-64 -437 432 428 0
-65 -437 432 0
-65 437 -432 0
-66 -437 432 0
-66 437 -432 0
-67 -432 437 0
-67 -429 437 0
-67 -437 432 429 0
-68 -437 432 0
-68 437 -432 0
-69 -432 437 0
-69 -430 437 0
-69 -437 432 430 0
-70 -432 437 0
-70 -431 437 0
-70 -437 432 431 0
-77 -437 432 0
-77 437 -432 0
-438 0
-1 -443 438 0
-1 -443 439 0
-1 443 -438 -439 0
-2 -443 438 0
-2 -443 440 0
-2 443 -438 -440 0
-3 -443 438 0
-3 -443 441 0
-3 443 -438 -441 0
-4 -443 438 0
-4 -443 442 0
-4 443 -438 -442 0
-5 -443 438 0
-5 443 -438 0
-6 -443 438 0
-6 443 -438 0
-7 -443 438 0
-7 443 -438 0
-8 -443 438 0
-8 443 -438 0
-9 -443 438 0
-9 443 -438 0
-10 -443 438 0
-10 443 -438 0
-71 -443 438 0
-71 443 -438 0
439 0
-1 -439 444 0
-1 -438 444 0
-1 -444 439 438 0
-2 -444 439 0
-2 444 -439 0
-3 -444 439 0
-3 444 -439 0
-4 -444 439 0
-4 444 -439 0
-5 -444 439 0
-5 -444 440 0
-5 444 -439 -440 0
-6 -444 439 0
-6 -444 441 0
-6 444 -439 -441 0
-7 -444 439 0
-7 -444 442 0
-7 444 -439 -442 0
-8 -444 439 0
-8 444 -439 0
-9 -444 439 0
-9 444 -439 0
-10 -444 439 0
-10 444 -439 0
-71 -444 439 0
-71 444 -439 0
440 0
-1 -445 440 0
-1 445 -440 0
-2 -440 445 0
-2 -438 445 0
-2 -445 440 438 0
-3 -445 440 0
-3 445 -440 0
-4 -445 440 0
-4 445 -440 0
-5 -440 445 0
-5 -439 445 0
-5 -445 440 439 0
-6 -445 440 0
-6 445 -440 0
-7 -445 440 0
-7 445 -440 0
-8 -445 440 0
-8 -445 441 0
-8 445 -440 -441 0
-9 -445 440 0
-9 -445 442 0
-9 445 -440 -442 0
-10 -445 440 0
-10 445 -440 0
-71 -445 440 0
-71 445 -440 0
-441 0
-1 -446 441 0
-1 446 -441 0
-2 -446 441 0
-2 446 -441 0
-3 -441 446 0
-3 -438 446 0
-3 -446 441 438 0
-4 -446 441 0
-4 446 -441 0
-5 -446 441 0
-5 446 -441 0
-6 -441 446 0
-6 -439 446 0
-6 -446 441 439 0
-7 -446 441 0
-7 446 -441 0
-8 -441 446 0
-8 -440 446 0
-8 -446 441 440 0
-9 -446 441 0
-9 446 -441 0
-10 -446 441 0
-10 -446 442 0
-10 446 -441 -442 0
-71 -446 441 0
-71 446 -441 0
442 0
-1 -447 442 0
-1 447 -442 0
-2 -447 442 0
-2 447 -442 0
-3 -447 442 0
-3 447 -442 0
-4 -442 447 0
-4 -438 447 0
-4 -447 442 438 0
-5 -447 442 0
-5 447 -442 0
-6 -447 442 0
-6 447 -442 0
-7 -442 447 0
-7 -439 447 0
-7 -447 442 439 0
-8 -447 442 0
-8 447 -442 0
-9 -442 447 0
-9 -440 447 0
-9 -447 442 440 0
-10 -442 447 0
-10 -441 447 0
-10 -447 442 441 0
-71 -447 442 0
-71 447 -442 0
-11 -448 443 0
-11 -448 444 0
-11 448 -443 -444 0
-12 -448 443 0
-12 -448 445 0
-12 448 -443 -445 0
-13 -448 443 0
-13 -448 446 0
-13 448 -443 -446 0
-14 -448 443 0
-14 -448 447 0
-14 448 -443 -447 0
-15 -448 443 0
-15 448 -443 0
-16 -448 443 0
-16 448 -443 0
-17 -448 443 0
-17 448 -443 0
-18 -448 443 0
-18 448 -443 0
-19 -448 443 0
-19 448 -443 0
-20 -448 443 0
-20 448 -443 0
-72 -448 443 0
-72 448 -443 0
-11 -444 449 0
-11 -443 449 0
-11 -449 444 443 0
-12 -449 444 0
-12 449 -444 0
-13 -449 444 0
-13 449 -444 0
-14 -449 444 0
-14 449 -444 0
-15 -449 444 0
-15 -449 445 0
-15 449 -444 -445 0
-16 -449 444 0
-16 -449 446 0
-16 449 -444 -446 0
-17 -449 444 0
-17 -449 447 0
-17 449 -444 -447 0
-18 -449 444 0
-18 449 -444 0
-19 -449 444 0
-19 449 -444 0
-20 -449 444 0
-20 449 -444 0
-72 -449 444 0
-72 449 -444 0
-11 -450 445 0
-11 450 -445 0
-12 -445 450 0
-12 -443 450 0
-12 -450 445 443 0
-13 -450 445 0
-13 450 -445 0
-14 -450 445 0
-14 450 -445 0
-15 -445 450 0
-15 -444 450 0
-15 -450 445 444 0
-16 -450 445 0
-16 450 -445 0
-17 -450 445 0
-17 450 -445 0
-18 -450 445 0
-18 -450 446 0
-18 450 -445 -446 0
-19 -450 445 0
-19 -450 447 0
-19 450 -445 -447 0
-20 -450 445 0
-20 450 -445 0
-72 -450 445 0
-72 450 -445 0
-11 -451 446 0
-11 451 -446 0
-12 -451 446 0
-12 451 -446 0
-13 -446 451 0
-13 -443 451 0
-13 -451 446 443 0
-14 -451 446 0
-14 451 -446 0
-15 -451 446 0
-15 451 -446 0
-16 -446 451 0
-16 -444 451 0
-16 -451 446 444 0
-17 -451 446 0
-17 451 -446 0
-18 -446 451 0
-18 -445 451 0
-18 -451 446 445 0
-19 -451 446 0
-19 451 -446 0
-20 -451 446 0
-20 -451 447 0
-20 451 -446 -447 0
-72 -451 446 0
-72 451 -446 0
-11 -452 447 0
-11 452 -447 0
-12 -452 447 0
-12 452 -447 0
-13 -452 447 0
-13 452 -447 0
-14 -447 452 0
-14 -443 452 0
-14 -452 447 443 0
-15 -452 447 0
-15 452 -447 0
-16 -452 447 0
-16 452 -447 0
-17 -447 452 0
-17 -444 452 0
-17 -452 447 444 0
-18 -452 447 0
-18 452 -447 0
-19 -447 452 0
-19 -445 452 0
-19 -452 447 445 0
-20 -447 452 0
-20 -446 452 0
-20 -452 447 446 0
-72 -452 447 0
-72 452 -447 0
-21 -453 448 0
-21 -453 449 0
-21 453 -448 -449 0
-22 -453 448 0
-22 -453 450 0
-22 453 -448 -450 0
-23 -453 448 0
-23 -453 451 0
-23 453 -448 -451 0
-24 -453 448 0
-24 -453 452 0
-24 453 -448 -452 0
-25 -453 448 0
-25 453 -448 0
-26 -453 448 0
-26 453 -448 0
-27 -453 448 0
-27 453 -448 0
-28 -453 448 0
-28 453 -448 0
-29 -453 448 0
-29 453 -448 0
-30 -453 448 0
-30 453 -448 0
-73 -453 448 0
-73 453 -448 0
-21 -449 454 0
-21 -448 454 0
-21 -454 449 448 0
-22 -454 449 0
-22 454 -449 0
-23 -454 449 0
-23 454 -449 0
-24 -454 449 0
-24 454 -449 0
-25 -454 449 0
-25 -454 450 0
-25 454 -449 -450 0
-26 -454 449 0
-26 -454 451 0
-26 454 -449 -451 0
-27 -454 449 0
-27 -454 452 0
-27 454 -449 -452 0
-28 -454 449 0
-28 454 -449 0
-29 -454 449 0
-29 454 -449 0
-30 -454 449 0
-30 454 -449 0
-73 -454 449 0
-73 454 -449 0
-21 -455 450 0
-21 455 -450 0
-22 -450 455 0
-22 -448 455 0
-22 -455 450 448 0
-23 -455 450 0
-23 455 -450 0
-24 -455 450 0
-24 455 -450 0
-25 -450 455 0
-25 -449 455 0
-25 -455 450 449 0
-26 -455 450 0
-26 455 -450 0
-27 -455 450 0
-27 455 -450 0
-28 -455 450 0
-28 -455 451 0
-28 455 -450 -451 0
-29 -455 450 0
-29 -455 452 0
-29 455 -450 -452 0
-30 -455 450 0
-30 455 -450 0
-73 -455 450 0
-73 455 -450 0
-21 -456 451 0
-21 456 -451 0
-22 -456 451 0
-22 456 -451 0
-23 -451 456 0
-23 -448 456 0
-23 -456 451 448 0
-24 -456 451 0
-24 456 -451 0
-25 -456 451 0
-25 456 -451 0
-26 -451 456 0
-26 -449 456 0
-26 -456 451 449 0
-27 -456 451 0
-27 456 -451 0
-28 -451 456 0
-28 -450 456 0
-28 -456 451 450 0
-29 -456 451 0
-29 456 -451 0
-30 -456 451 0
-30 -456 452 0
-30 456 -451 -452 0
-73 -456 451 0
-73 456 -451 0
-21 -457 452 0
-21 457 -452 0
-22 -457 452 0
-22 457 -452 0
-23 -457 452 0
-23 457 -452 0
-24 -452 457 0
-24 -448 457 0
-24 -457 452 448 0
-25 -457 452 0
-25 457 -452 0
-26 -457 452 0
-26 457 -452 0
-27 -452 457 0
-27 -449 457 0
-27 -457 452 449 0
-28 -457 452 0
-28 457 -452 0
-29 -452 457 0
-29 -450 457 0
-29 -457 452 450 0
-30 -452 457 0
-30 -451 457 0
-30 -457 452 451 0
-73 -457 452 0
-73 457 -452 0
-31 -458 453 0
-31 -458 454 0
-31 458 -453 -454 0
-32 -458 453 0
-32 -458 455 0
-32 458 -453 -455 0
-33 -458 453 0
-33 -458 456 0
-33 458 -453 -456 0
-34 -458 453 0
-34 -458 457 0
-34 458 -453 -457 0
-35 -458 453 0
-35 458 -453 0
-36 -458 453 0
-36 458 -453 0
-37 -458 453 0
-37 458 -453 0
-38 -458 453 0
-38 458 -453 0
-39 -458 453 0
-39 458 -453 0
-40 -458 453 0
-40 458 -453 0
-74 -458 453 0
-74 458 -453 0
-31 -454 459 0
-31 -453 459 0
-31 -459 454 453 0
-32 -459 454 0
-32 459 -454 0
-33 -459 454 0
-33 459 -454 0
-34 -459 454 0
-34 459 -454 0
-35 -459 454 0
-35 -459 455 0
-35 459 -454 -455 0
-36 -459 454 0
-36 -459 456 0
-36 459 -454 -456 0
-37 -459 454 0
-37 -459 457 0
-37 459 -454 -457 0
-38 -459 454 0
-38 459 -454 0
-39 -459 454 0
-39 459 -454 0
-40 -459 454 0
-40 459 -454 0
-74 -459 454 0
-74 459 -454 0
-31 -460 455 0
-31 460 -455 0
-32 -455 460 0
-32 -453 460 0
-32 -460 455 453 0
-33 -460 455 0
-33 460 -455 0
-34 -460 455 0
-34 460 -455 0
-35 -455 460 0
-35 -454 460 0
-35 -460 455 454 0
-36 -460 455 0
-36 460 -455 0
-37 -460 455 0
-37 460 -455 0
-38 -460 455 0
-38 -460 456 0
-38 460 -455 -456 0
-39 -460 455 0
-39 -460 457 0
-39 460 -455 -457 0
-40 -460 455 0
-40 460 -455 0
-74 -460 455 0
-74 460 -455 0
-31 -461 456 0
-31 461 -456 0
-32 -461 456 0
-32 461 -456 0
-33 -456 461 0
-33 -453 461 0
-33 -461 456 453 0
-34 -461 456 0
-34 461 -456 0
-35 -461 456 0
-35 461 -456 0
-36 -456 461 0
-36 -454 461 0
-36 -461 456 454 0
-37 -461 456 0
-37 461 -456 0
-38 -456 461 0
-38 -455 461 0
-38 -461 456 455 0
-39 -461 456 0
-39 461 -456 0
-40 -461 456 0
-40 -461 457 0
-40 461 -456 -457 0
-74 -461 456 0
-74 461 -456 0
-31 -462 457 0
-31 462 -457 0
-32 -462 457 0
-32 462 -457 0
-33 -462 457 0
-33 462 -457 0
-34 -457 462 0
-34 -453 462 0
-34 -462 457 453 0
-35 -462 457 0
-35 462 -457 0
-36 -462 457 0
-36 462 -457 0
-37 -457 462 0
-37 -454 462 0
-37 -462 457 454 0
-38 -462 457 0
-38 462 -457 0
-39 -457 462 0
-39 -455 462 0
-39 -462 457 455 0
-40 -457 462 0
-40 -456 462 0
-40 -462 457 456 0
-74 -462 457 0
-74 462 -457 0
-41 -463 458 0
-41 -463 459 0
-41 463 -458 -459 0
-42 -463 458 0
-42 -463 460 0
-42 463 -458 -460 0
-43 -463 458 0
-43 -463 461 0
-43 463 -458 -461 0
-44 -463 458 0
-44 -463 462 0
-44 463 -458 -462 0
-45 -463 458 0
-45 463 -458 0
-46 -463 458 0
-46 463 -458 0
-47 -463 458 0
-47 463 -458 0
-48 -463 458 0
-48 463 -458 0
-49 -463 458 0
-49 463 -458 0
-50 -463 458 0
-50 463 -458 0
-75 -463 458 0
-75 463 -458 0
-41 -459 464 0
-41 -458 464 0
-41 -464 459 458 0
-42 -464 459 0
-42 464 -459 0
-43 -464 459 0
-43 464 -459 0
-44 -464 459 0
-44 464 -459 0
-45 -464 459 0
-45 -464 460 0
-45 464 -459 -460 0
-46 -464 459 0
-46 -464 461 0
-46 464 -459 -461 0
-47 -464 459 0
-47 -464 462 0
-47 464 -459 -462 0
-48 -464 459 0
-48 464 -459 0
-49 -464 459 0
-49 464 -459 0
-50 -464 459 0
-50 464 -459 0
-75 -464 459 0
-75 464 -459 0
-41 -465 460 0
-41 465 -460 0
-42 -460 465 0
-42 -458 465 0
-42 -465 460 458 0
-43 -465 460 0
-43 465 -460 0
-44 -465 460 0
-44 465 -460 0
-45 -460 465 0
-45 -459 465 0
-45 -465 460 459 0
-46 -465 460 0
-46 465 -460 0
-47 -465 460 0
-47 465 -460 0
-48 -465 460 0
-48 -465 461 0
-48 465 -460 -461 0
-49 -465 460 0
-49 -465 462 0
-49 465 -460 -462 0
-50 -465 460 0
-50 465 -460 0
-75 -465 460 0
-75 465 -460 0
-41 -466 461 0
-41 466 -461 0
-42 -466 461 0
-42 466 -461 0
-43 -461 466 0
-43 -458 466 0
-43 -466 461 458 0
-44 -466 461 0
-44 466 -461 0
-45 -466 461 0
-45 466 -461 0
-46 -461 466 0
-46 -459 466 0
-46 -466 461 459 0
-47 -466 461 0
-47 466 -461 0
-48 -461 466 0
-48 -460 466 0
-48 -466 461 460 0
-49 -466 461 0
-49 466 -461 0
-50 -466 461 0
-50 -466 462 0
-50 466 -461 -462 0
-75 -466 461 0
-75 466 -461 0
-41 -467 462 0
-41 467 -462 0
-42 -467 462 0
-42 467 -462 0
-43 -467 462 0
-43 467 -462 0
-44 -462 467 0
-44 -458 467 0
-44 -467 462 458 0
-45 -467 462 0
-45 467 -462 0
-46 -467 462 0
-46 467 -462 0
-47 -462 467 0
-47 -459 467 0
-47 -467 462 459 0
-48 -467 462 0
-48 467 -462 0
-49 -462 467 0
-49 -460 467 0
-49 -467 462 460 0
-50 -462 467 0
-50 -461 467 0
-50 -467 462 461 0
-75 -467 462 0
-75 467 -462 0
-51 -468 463 0
-51 -468 464 0
-51 468 -463 -464 0
-52 -468 463 0
-52 -468 465 0
-52 468 -463 -465 0
-53 -468 463 0
-53 -468 466 0
-53 468 -463 -466 0
-54 -468 463 0
-54 -468 467 0
-54 468 -463 -467 0
-55 -468 463 0
-55 468 -463 0
-56 -468 463 0
-56 468 -463 0
-57 -468 463 0
-57 468 -463 0
-58 -468 463 0
-58 468 -463 0
-59 -468 463 0
-59 468 -463 0
-60 -468 463 0
-60 468 -463 0
-76 -468 463 0
-76 468 -463 0
-51 -464 469 0
-51 -463 469 0
-51 -469 464 463 0
-52 -469 464 0
-52 469 -464 0
-53 -469 464 0
-53 469 -464 0
-54 -469 464 0
-54 469 -464 0
-55 -469 464 0
-55 -469 465 0
-55 469 -464 -465 0
-56 -469 464 0
-56 -469 466 0
-56 469 -464 -466 0
-57 -469 464 0
-57 -469 467 0
-57 469 -464 -467 0
-58 -469 464 0
-58 469 -464 0
-59 -469 464 0
-59 469 -464 0
-60 -469 464 0
-60 469 -464 0
-76 -469 464 0
-76 469 -464 0
-51 -470 465 0
-51 470 -465 0
-52 -465 470 0
-52 -463 470 0
-52 -470 465 463 0
-53 -470 465 0
-53 470 -465 0
-54 -470 465 0
-54 470 -465 0
-55 -465 470 0
-55 -464 470 0
-55 -470 465 464 0
-56 -470 465 0
-56 470 -465 0
-57 -470 465 0
-57 470 -465 0
-58 -470 465 0
-58 -470 466 0
-58 470 -465 -466 0
-59 -470 465 0
-59 -470 467 0
-59 470 -465 -467 0
-60 -470 465 0
-60 470 -465 0
-76 -470 465 0
-76 470 -465 0
-51 -471 466 0
-51 471 -466 0
-52 -471 466 0
-52 471 -466 0
-53 -466 471 0
-53 -463 471 0
-53 -471 466 463 0
-54 -471 466 0
-54 471 -466 0
-55 -471 466 0
-55 471 -466 0
-56 -466 471 0
-56 -464 471 0
-56 -471 466 464 0
-57 -471 466 0
-57 471 -466 0
-58 -466 471 0
-58 -465 471 0
-58 -471 466 465 0
-59 -471 466 0
-59 471 -466 0
-60 -471 466 0
-60 -471 467 0
-60 471 -466 -467 0
-76 -471 466 0
-76 471 -466 0
-51 -472 467 0
-51 472 -467 0
-52 -472 467 0
-52 472 -467 0
-53 -472 467 0
-53 472 -467 0
-54 -467 472 0
-54 -463 472 0
-54 -472 467 463 0
-55 -472 467 0
-55 472 -467 0
-56 -472 467 0
-56 472 -467 0
-57 -467 472 0
-57 -464 472 0
-57 -472 467 464 0
-58 -472 467 0
-58 472 -467 0
-59 -467 472 0
-59 -465 472 0
-59 -472 467 465 0
-60 -467 472 0
-60 -466 472 0
-60 -472 467 466 0
-76 -472 467 0
-76 472 -467 0
-61 -473 468 0
-61 -473 469 0
-61 473 -468 -469 0
-62 -473 468 0
-62 -473 470 0
-62 473 -468 -470 0
-63 -473 468 0
-63 -473 471 0
-63 473 -468 -471 0
-64 -473 468 0
-64 -473 472 0
-64 473 -468 -472 0
-65 -473 468 0
-65 473 -468 0
-66 -473 468 0
-66 473 -468 0
-67 -473 468 0
-67 473 -468 0
-68 -473 468 0
-68 473 -468 0
-69 -473 468 0
-69 473 -468 0
-70 -473 468 0
-70 473 -468 0
-77 -473 468 0
-77 473 -468 0
-61 -469 474 0
-61 -468 474 0
-61 -474 469 468 0
-62 -474 469 0
-62 474 -469 0
-63 -474 469 0
-63 474 -469 0
-64 -474 469 0
-64 474 -469 0
-65 -474 469 0
-65 -474 470 0
-65 474 -469 -470 0
-66 -474 469 0
-66 -474 471 0
-66 474 -469 -471 0
-67 -474 469 0
-67 -474 472 0
-67 474 -469 -472 0
-68 -474 469 0
-68 474 -469 0
-69 -474 469 0
-69 474 -469 0
-70 -474 469 0
-70 474 -469 0
-77 -474 469 0
-77 474 -469 0
-61 -475 470 0
-61 475 -470 0
-62 -470 475 0
-62 -468 475 0
-62 -475 470 468 0
-63 -475 470 0
-63 475 -470 0
-64 -475 470 0
-64 475 -470 0
-65 -470 475 0
-65 -469 475 0
-65 -475 470 469 0
-66 -475 470 0
-66 475 -470 0
-67 -475 470 0
-67 475 -470 0
-68 -475 470 0
-68 -475 471 0
-68 475 -470 -471 0
-69 -475 470 0
-69 -475 472 0
-69 475 -470 -472 0
-70 -475 470 0
-70 475 -470 0
-77 -475 470 0
-77 475 -470 0
-61 -476 471 0
-61 476 -471 0
-62 -476 471 0
-62 476 -471 0
-63 -471 476 0
-63 -468 476 0
-63 -476 471 468 0
-64 -476 471 0
-64 476 -471 0
-65 -476 471 0
-65 476 -471 0
-66 -471 476 0
-66 -469 476 0
-66 -476 471 469 0
-67 -476 471 0
-67 476 -471 0
-68 -471 476 0
-68 -470 476 0
-68 -476 471 470 0
-69 -476 471 0
-69 476 -471 0
-70 -476 471 0
-70 -476 472 0
-70 476 -471 -472 0
-77 -476 471 0
-77 476 -471 0
-61 -477 472 0
-61 477 -472 0
-62 -477 472 0
-62 477 -472 0
-63 -477 472 0
-63 477 -472 0
-64 -472 477 0
-64 -468 477 0
-64 -477 472 468 0
-65 -477 472 0
-65 477 -472 0
-66 -477 472 0
-66 477 -472 0
-67 -472 477 0
-67 -469 477 0
-67 -477 472 469 0
-68 -477 472 0
-68 477 -472 0
-69 -472 477 0
-69 -470 477 0
-69 -477 472 470 0
-70 -472 477 0
-70 -471 477 0
-70 -477 472 471 0
-77 -477 472 0
-77 477 -472 0
-478 0
-1 -483 478 0
-1 -483 479 0
-1 483 -478 -479 0
-2 -483 478 0
-2 -483 480 0
-2 483 -478 -480 0
-3 -483 478 0
-3 -483 481 0
-3 483 -478 -481 0
-4 -483 478 0
-4 -483 482 0
-4 483 -478 -482 0
-5 -483 478 0
-5 483 -478 0
-6 -483 478 0
-6 483 -478 0
-7 -483 478 0
-7 483 -478 0
-8 -483 478 0
-8 483 -478 0
-9 -483 478 0
-9 483 -478 0
-10 -483 478 0
-10 483 -478 0
-71 -483 478 0
-71 483 -478 0
479 0
-1 -479 484 0
-1 -478 484 0
-1 -484 479 478 0
-2 -484 479 0
-2 484 -479 0
-3 -484 479 0
-3 484 -479 0
-4 -484 479 0
-4 484 -479 0
-5 -484 479 0
-5 -484 480 0
-5 484 -479 -480 0
-6 -484 479 0
-6 -484 481 0
-6 484 -479 -481 0
-7 -484 479 0
-7 -484 482 0
-7 484 -479 -482 0
-8 -484 479 0
-8 484 -479 0
-9 -484 479 0
-9 484 -479 0
-10 -484 479 0
-10 484 -479 0
-71 -484 479 0
-71 484 -479 0
480 0
-1 -485 480 0
-1 485 -480 0
-2 -480 485 0
-2 -478 485 0
-2 -485 480 478 0
-3 -485 480 0
-3 485 -480 0
-4 -485 480 0
-4 485 -480 0
-5 -480 485 0
-5 -479 485 0
-5 -485 480 479 0
-6 -485 480 0
-6 485 -480 0
-7 -485 480 0
-7 485 -480 0
-8 -485 480 0
-8 -485 481 0
-8 485 -480 -481 0
-9 -485 480 0
-9 -485 482 0
-9 485 -480 -482 0
-10 -485 480 0
-10 485 -480 0
-71 -485 480 0
-71 485 -480 0
481 0
-1 -486 481 0
-1 486 -481 0
-2 -486 481 0
-2 486 -481 0
-3 -481 486 0
-3 -478 486 0
-3 -486 481 478 0
-4 -486 481 0
-4 486 -481 0
-5 -486 481 0
-5 486 -481 0
-6 -481 486 0
-6 -479 486 0
-6 -486 481 479 0
-7 -486 481 0
-7 486 -481 0
-8 -481 486 0
-8 -480 486 0
-8 -486 481 480 0
-9 -486 481 0
-9 486 -481 0
-10 -486 481 0
-10 -486 482 0
-10 486 -481 -482 0
-71 -486 481 0
-71 486 -481 0
-482 0
-1 -487 482 0
-1 487 -482 0
-2 -487 482 0
-2 487 -482 0
-3 -487 482 0
-3 487 -482 0
-4 -482 487 0
-4 -478 487 0
-4 -487 482 478 0
-5 -487 482 0
-5 487 -482 0
-6 -487 482 0
-6 487 -482 0
-7 -482 487 0
-7 -479 487 0
-7 -487 482 479 0
-8 -487 482 0
-8 487 -482 0
-9 -482 487 0
-9 -480 487 0
-9 -487 482 480 0
-10 -482 487 0
-10 -481 487 0
-10 -487 482 481 0
-71 -487 482 0
-71 487 -482 0
-11 -488 483 0
-11 -488 484 0
-11 488 -483 -484 0
-12 -488 483 0
-12 -488 485 0
-12 488 -483 -485 0
-13 -488 483 0
-13 -488 486 0
-13 488 -483 -486 0
-14 -488 483 0
-14 -488 487 0
-14 488 -483 -487 0
-15 -488 483 0
-15 488 -483 0
-16 -488 483 0
-16 488 -483 0
-17 -488 483 0
-17 488 -483 0
-18 -488 483 0
-18 488 -483 0
-19 -488 483 0
-19 488 -483 0
-20 -488 483 0
-20 488 -483 0
-72 -488 483 0
-72 488 -483 0
-11 -484 489 0
-11 -483 489 0
-11 -489 484 483 0
-12 -489 484 0
-12 489 -484 0
-13 -489 484 0
-13 489 -484 0
-14 -489 484 0
-14 489 -484 0
-15 -489 484 0
-15 -489 485 0
-15 489 -484 -485 0
-16 -489 484 0
-16 -489 486 0
-16 489 -484 -486 0
-17 -489 484 0
-17 -489 487 0
-17 489 -484 -487 0
-18 -489 484 0
-18 489 -484 0
-19 -489 484 0
-19 489 -484 0
-20 -489 484 0
-20 489 -484 0
-72 -489 484 0
-72 489 -484 0
-11 -490 485 0
-11 490 -485 0
-12 -485 490 0
-12 -483 490 0
-12 -490 485 483 0
-13 -490 485 0
-13 490 -485 0
-14 -490 485 0
-14 490 -485 0
-15 -485 490 0
-15 -484 490 0
-15 -490 485 484 0
-16 -490 485 0
-16 490 -485 0
-17 -490 485 0
-17 490 -485 0
-18 -490 485 0
-18 -490 486 0
-18 490 -485 -486 0
-19 -490 485 0
-19 -490 487 0
-19 490 -485 -487 0
-20 -490 485 0
-20 490 -485 0
-72 -490 485 0
-72 490 -485 0
-11 -491 486 0
-11 491 -486 0
-12 -491 486 0
-12 491 -486 0
-13 -486 491 0
-13 -483 491 0
-13 -491 486 483 0
-14 -491 486 0
-14 491 -486 0
-15 -491 486 0
-15 491 -486 0
-16 -486 491 0
-16 -484 491 0
-16 -491 486 484 0
-17 -491 486 0
-17 491 -486 0
-18 -486 491 0
-18 -485 491 0
-18 -491 486 485 0
-19 -491 486 0
-19 491 -486 0
-20 -491 486 0
-20 -491 487 0
-20 491 -486 -487 0
-72 -491 486 0
-72 491 -486 0
-11 -492 487 0
-11 492 -487 0
-12 -492 487 0
-12 492 -487 0
-13 -492 487 0
-13 492 -487 0
-14 -487 492 0
-14 -483 492 0
-14 -492 487 483 0
-15 -492 487 0
-15 492 -487 0
-16 -492 487 0
-16 492 -487 0
-17 -487 492 0
-17 -484 492 0
-17 -492 487 484 0
-18 -492 487 0
-18 492 -487 0
-19 -487 492 0
-19 -485 492 0
-19 -492 487 485 0
-20 -487 492 0
-20 -486 492 0
-20 -492 487 486 0
-72 -492 487 0
-72 492 -487 0
-21 -493 488 0
-21 -493 489 0
-21 493 -488 -489 0
-22 -493 488 0
-22 -493 490 0
-22 493 -488 -490 0
-23 -493 488 0
-23 -493 491 0
-23 493 -488 -491 0
-24 -493 488 0
-24 -493 492 0
-24 493 -488 -492 0
-25 -493 488 0
-25 493 -488 0
-26 -493 488 0
-26 493 -488 0
-27 -493 488 0
-27 493 -488 0
-28 -493 488 0
-28 493 -488 0
-29 -493 488 0
-29 493 -488 0
-30 -493 488 0
-30 493 -488 0
-73 -493 488 0
-73 493 -488 0
-21 -489 494 0
-21 -488 494 0
-21 -494 489 488 0
-22 -494 489 0
-22 494 -489 0
-23 -494 489 0
-23 494 -489 0
-24 -494 489 0
-24 494 -489 0
-25 -494 489 0
-25 -494 490 0
-25 494 -489 -490 0
-26 -494 489 0
-26 -494 491 0
-26 494 -489 -491 0
-27 -494 489 0
-27 -494 492 0
-27 494 -489 -492 0
-28 -494 489 0
-28 494 -489 0
-29 -494 489 0
-29 494 -489 0
-30 -494 489 0
-30 494 -489 0
-73 -494 489 0
-73 494 -489 0
-21 -495 490 0
-21 495 -490 0
-22 -490 495 0
-22 -488 495 0
-22 -495 490 488 0
-23 -495 490 0
-23 495 -490 0
-24 -495 490 0
-24 495 -490 0
-25 -490 495 0
-25 -489 495 0
-25 -495 490 489 0
-26 -495 490 0
-26 495 -490 0
-27 -495 490 0
-27 495 -490 0
-28 -495 490 0
-28 -495 491 0
-28 495 -490 -491 0
-29 -495 490 0
-29 -495 492 0
-29 495 -490 -492 0
-30 -495 490 0
-30 495 -490 0
-73 -495 490 0
-73 495 -490 0
-21 -496 491 0
-21 496 -491 0
-22 -496 491 0
-22 496 -491 0
-23 -491 496 0
-23 -488 496 0
-23 -496 491 488 0
-24 -496 491 0
-24 496 -491 0
-25 -496 491 0
-25 496 -491 0
-26 -491 496 0
-26 -489 496 0
-26 -496 491 489 0
-27 -496 491 0
-27 496 -491 0
-28 -491 496 0
-28 -490 496 0
-28 -496 491 490 0
-29 -496 491 0
-29 496 -491 0
-30 -496 491 0
-30 -496 492 0
-30 496 -491 -492 0
-73 -496 491 0
-73 496 -491 0
-21 -497 492 0
-21 497 -492 0
-22 -497 492 0
-22 497 -492 0
-23 -497 492 0
-23 497 -492 0
-24 -492 497 0
-24 -488 497 0
-24 -497 492 488 0
-25 -497 492 0
-25 497 -492 0
-26 -497 492 0
-26 497 -492 0
-27 -492 497 0
-27 -489 497 0
-27 -497 492 489 0
-28 -497 492 0
-28 497 -492 0
-29 -492 497 0
-29 -490 497 0
-29 -497 492 490 0
-30 -492 497 0
-30 -491 497 0
-30 -497 492 491 0
-73 -497 492 0
-73 497 -492 0
-31 -498 493 0
-31 -498 494 0
-31 498 -493 -494 0
-32 -498 493 0
-32 -498 495 0
-32 498 -493 -495 0
-33 -498 493 0
-33 -498 496 0
-33 498 -493 -496 0
-34 -498 493 0
-34 -498 497 0
-34 498 -493 -497 0
-35 -498 493 0
-35 498 -493 0
-36 -498 493 0
-36 498 -493 0
-37 -498 493 0
-37 498 -493 0
-38 -498 493 0
-38 498 -493 0
-39 -498 493 0
-39 498 -493 0
-40 -498 493 0
-40 498 -493 0
-74 -498 493 0
-74 498 -493 0
-31 -494 499 0
-31 -493 499 0
-31 -499 494 493 0
-32 -499 494 0
-32 499 -494 0
-33 -499 494 0
-33 499 -494 0
-34 -499 494 0
-34 499 -494 0
-35 -499 494 0
-35 -499 495 0
-35 499 -494 -495 0
-36 -499 494 0
-36 -499 496 0
-36 499 -494 -496 0
-37 -499 494 0
-37 -499 497 0
-37 499 -494 -497 0
-38 -499 494 0
-38 499 -494 0
-39 -499 494 0
-39 499 -494 0
-40 -499 494 0
-40 499 -494 0
-74 -499 494 0
-74 499 -494 0
-31 -500 495 0
-31 500 -495 0
-32 -495 500 0
-32 -493 500 0
-32 -500 495 493 0
-33 -500 495 0
-33 500 -495 0
-34 -500 495 0
-34 500 -495 0
-35 -495 500 0
-35 -494 500 0
-35 -500 495 494 0
-36 -500 495 0
-36 500 -495 0
-37 -500 495 0
-37 500 -495 0
-38 -500 495 0
-38 -500 496 0
-38 500 -495 -496 0
-39 -500 495 0
-39 -500 497 0
-39 500 -495 -497 0
-40 -500 495 0
-40 500 -495 0
-74 -500 495 0
-74 500 -495 0
-31 -501 496 0
-31 501 -496 0
-32 -501 496 0
-32 501 -496 0
-33 -496 501 0
-33 -493 501 0
-33 -501 496 493 0
-34 -501 496 0
-34 501 -496 0
-35 -501 496 0
-35 501 -496 0
-36 -496 501 0
-36 -494 501 0
-36 -501 496 494 0
-37 -501 496 0
-37 501 -496 0
-38 -496 501 0
-38 -495 501 0
-38 -501 496 495 0
-39 -501 496 0
-39 501 -496 0
-40 -501 496 0
-40 -501 497 0
-40 501 -496 -497 0
-74 -501 496 0
-74 501 -496 0
-31 -502 497 0
-31 502 -497 0
-32 -502 497 0
-32 502 -497 0
-33 -502 497 0
-33 502 -497 0
-34 -497 502 0
-34 -493 502 0
-34 -502 497 493 0
-35 -502 497 0
-35 502 -497 0
-36 -502 497 0
-36 502 -497 0
-37 -497 502 0
-37 -494 502 0
-37 -502 497 494 0
-38 -502 497 0
-38 502 -497 0
-39 -497 502 0
-39 -495 502 0
-39 -502 497 495 0
-40 -497 502 0
-40 -496 502 0
-40 -502 497 496 0
-74 -502 497 0
-74 502 -497 0
-41 -503 498 0
-41 -503 499 0
-41 503 -498 -499 0
-42 -503 498 0
-42 -503 500 0
-42 503 -498 -500 0
-43 -503 498 0
-43 -503 501 0
-43 503 -498 -501 0
-44 -503 498 0
-44 -503 502 0
-44 503 -498 -502 0
-45 -503 498 0
-45 503 -498 0
-46 -503 498 0
-46 503 -498 0
-47 -503 498 0
-47 503 -498 0
-48 -503 498 0
-48 503 -498 0
-49 -503 498 0
-49 503 -498 0
-50 -503 498 0
-50 503 -498 0
-75 -503 498 0
-75 503 -498 0
-41 -499 504 0
-41 -498 504 0
-41 -504 499 498 0
-42 -504 499 0
-42 504 -499 0
-43 -504 499 0
-43 504 -499 0
-44 -504 499 0
-44 504 -499 0
-45 -504 499 0
-45 -504 500 0
-45 504 -499 -500 0
-46 -504 499 0
-46 -504 501 0
-46 504 -499 -501 0
-47 -504 499 0
-47 -504 502 0
-47 504 -499 -502 0
-48 -504 499 0
-48 504 -499 0
-49 -504 499 0
-49 504 -499 0
-50 -504 499 0
-50 504 -499 0
-75 -504 499 0
-75 504 -499 0
-41 -505 500 0
-41 505 -500 0
-42 -500 505 0
-42 -498 505 0
-42 -505 500 498 0
-43 -505 500 0
-43 505 -500 0
-44 -505 500 0
-44 505 -500 0
-45 -500 505 0
-45 -499 505 0
-45 -505 500 499 0
-46 -505 500 0
-46 505 -500 0
-47 -505 500 0
-47 505 -500 0
-48 -505 500 0
-48 -505 501 0
-48 505 -500 -501 0
-49 -505 500 0
-49 -505 502 0
-49 505 -500 -502 0
-50 -505 500 0
-50 505 -500 0
-75 -505 500 0
-75 505 -500 0
-41 -506 501 0
-41 506 -501 0
-42 -506 501 0
-42 506 -501 0
-43 -501 506 0
-43 -498 506 0
-43 -506 501 498 0
-44 -506 501 0
-44 506 -501 0
-45 -506 501 0
-45 506 -501 0
-46 -501 506 0
-46 -499 506 0
-46 -506 501 499 0
-47 -506 501 0
-47 506 -501 0
-48 -501 506 0
-48 -500 506 0
-48 -506 501 500 0
-49 -506 501 0
-49 506 -501 0
-50 -506 501 0
-50 -506 502 0
-50 506 -501 -502 0
-75 -506 501 0
-75 506 -501 0
-41 -507 502 0
-41 507 -502 0
-42 -507 502 0
-42 507 -502 0
-43 -507 502 0
-43 507 -502 0
-44 -502 507 0
-44 -498 507 0
-44 -507 502 498 0
-45 -507 502 0
-45 507 -502 0
-46 -507 502 0
-46 507 -502 0
-47 -502 507 0
-47 -499 507 0
-47 -507 502 499 0
-48 -507 502 0
-48 507 -502 0
-49 -502 507 0
-49 -500 507 0
-49 -507 502 500 0
-50 -502 507 0
-50 -501 507 0
-50 -507 502 501 0
-75 -507 502 0
-75 507 -502 0
-51 -508 503 0
-51 -508 504 0
-51 508 -503 -504 0
-52 -508 503 0
-52 -508 505 0
-52 508 -503 -505 0
-53 -508 503 0
-53 -508 506 0
-53 508 -503 -506 0
-54 -508 503 0
-54 -508 507 0
-54 508 -503 -507 0
-55 -508 503 0
-55 508 -503 0
-56 -508 503 0
-56 508 -503 0
-57 -508 503 0
-57 508 -503 0
-58 -508 503 0
-58 508 -503 0
-59 -508 503 0
-59 508 -503 0
-60 -508 503 0
-60 508 -503 0
-76 -508 503 0
-76 508 -503 0
-51 -504 509 0
-51 -503 509 0
-51 -509 504 503 0
-52 -509 504 0
-52 509 -504 0
-53 -509 504 0
-53 509 -504 0
-54 -509 504 0
-54 509 -504 0
-55 -509 504 0
-55 -509 505 0
-55 509 -504 -505 0
-56 -509 504 0
-56 -509 506 0
-56 509 -504 -506 0
-57 -509 504 0
-57 -509 507 0
-57 509 -504 -507 0
-58 -509 504 0
-58 509 -504 0
-59 -509 504 0
-59 509 -504 0
-60 -509 504 0
-60 509 -504 0
-76 -509 504 0
-76 509 -504 0
-51 -510 505 0
-51 510 -505 0
-52 -505 510 0
-52 -503 510 0
-52 -510 505 503 0
-53 -510 505 0
-53 510 -505 0
-54 -510 505 0
-54 510 -505 0
-55 -505 510 0
-55 -504 510 0
-55 -510 505 504 0
-56 -510 505 0
-56 510 -505 0
-57 -510 505 0
-57 510 -505 0
-58 -510 505 0
-58 -510 506 0
-58 510 -505 -506 0
-59 -510 505 0
-59 -510 507 0
-59 510 -505 -507 0
-60 -510 505 0
-60 510 -505 0
-76 -510 505 0
-76 510 -505 0
-51 -511 506 0
-51 511 -506 0
-52 -511 506 0
-52 511 -506 0
-53 -506 511 0
-53 -503 511 0
-53 -511 506 503 0
-54 -511 506 0
-54 511 -506 0
-55 -511 506 0
-55 511 -506 0
-56 -506 511 0
-56 -504 511 0
-56 -511 506 504 0
-57 -511 506 0
-57 511 -506 0
-58 -506 511 0
-58 -505 511 0
-58 -511 506 505 0
-59 -511 506 0
-59 511 -506 0
-60 -511 506 0
-60 -511 507 0
-60 511 -506 -507 0
-76 -511 506 0
-76 511 -506 0
-51 -512 507 0
-51 512 -507 0
-52 -512 507 0
-52 512 -507 0
-53 -512 507 0
-53 512 -507 0
-54 -507 512 0
-54 -503 512 0
-54 -512 507 503 0
-55 -512 507 0
-55 512 -507 0
-56 -512 507 0
-56 512 -507 0
-57 -507 512 0
-57 -504 512 0
-57 -512 507 504 0
-58 -512 507 0
-58 512 -507 0
-59 -507 512 0
-59 -505 512 0
-59 -512 507 505 0
-60 -507 512 0
-60 -506 512 0
-60 -512 507 506 0
-76 -512 507 0
-76 512 -507 0
-61 -513 508 0
-61 -513 509 0
-61 513 -508 -509 0
-62 -513 508 0
-62 -513 510 0
-62 513 -508 -510 0
-63 -513 508 0
-63 -513 511 0
-63 513 -508 -511 0
-64 -513 508 0
-64 -513 512 0
-64 513 -508 -512 0
-65 -513 508 0
-65 513 -508 0
-66 -513 508 0
-66 513 -508 0
-67 -513 508 0
-67 513 -508 0
-68 -513 508 0
-68 513 -508 0
-69 -513 508 0
-69 513 -508 0
-70 -513 508 0
-70 513 -508 0
-77 -513 508 0
-77 513 -508 0
-61 -509 514 0
-61 -508 514 0
-61 -514 509 508 0
-62 -514 509 0
-62 514 -509 0
-63 -514 509 0
-63 514 -509 0
-64 -514 509 0
-64 514 -509 0
-65 -514 509 0
-65 -514 510 0
-65 514 -509 -510 0
-66 -514 509 0
-66 -514 511 0
-66 514 -509 -511 0
-67 -514 509 0
-67 -514 512 0
-67 514 -509 -512 0
-68 -514 509 0
-68 514 -509 0
-69 -514 509 0
-69 514 -509 0
-70 -514 509 0
-70 514 -509 0
-77 -514 509 0
-77 514 -509 0
-61 -515 510 0
-61 515 -510 0
-62 -510 515 0
-62 -508 515 0
-62 -515 510 508 0
-63 -515 510 0
-63 515 -510 0
-64 -515 510 0
-64 515 -510 0
-65 -510 515 0
-65 -509 515 0
-65 -515 510 509 0
-66 -515 510 0
-66 515 -510 0
-67 -515 510 0
-67 515 -510 0
-68 -515 510 0
-68 -515 511 0
-68 515 -510 -511 0
-69 -515 510 0
-69 -515 512 0
-69 515 -510 -512 0
-70 -515 510 0
-70 515 -510 0
-77 -515 510 0
-77 515 -510 0
-61 -516 511 0
-61 516 -511 0
-62 -516 511 0
-62 516 -511 0
-63 -511 516 0
-63 -508 516 0
-63 -516 511 508 0
-64 -516 511 0
-64 516 -511 0
-65 -516 511 0
-65 516 -511 0
-66 -511 516 0
-66 -509 516 0
-66 -516 511 509 0
-67 -516 511 0
-67 516 -511 0
-68 -511 516 0
-68 -510 516 0
-68 -516 511 510 0
-69 -516 511 0
-69 516 -511 0
-70 -516 511 0
-70 -516 512 0
-70 516 -511 -512 0
-77 -516 511 0
-77 516 -511 0
-61 -517 512 0
-61 517 -512 0
-62 -517 512 0
-62 517 -512 0
-63 -517 512 0
-63 517 -512 0
-64 -512 517 0
-64 -508 517 0
-64 -517 512 508 0
-65 -517 512 0
-65 517 -512 0
-66 -517 512 0
-66 517 -512 0
-67 -512 517 0
-67 -509 517 0
-67 -517 512 509 0
-68 -517 512 0
-68 517 -512 0
-69 -512 517 0
-69 -510 517 0
-69 -517 512 510 0
-70 -512 517 0
-70 -511 517 0
-70 -517 512 511 0
-77 -517 512 0
-77 517 -512 0
518 0
-1 -523 518 0
-1 -523 519 0
-1 523 -518 -519 0
-2 -523 518 0
-2 -523 520 0
-2 523 -518 -520 0
-3 -523 518 0
-3 -523 521 0
-3 523 -518 -521 0
-4 -523 518 0
-4 -523 522 0
-4 523 -518 -522 0
-5 -523 518 0
-5 523 -518 0
-6 -523 518 0
-6 523 -518 0
-7 -523 518 0
-7 523 -518 0
-8 -523 518 0
-8 523 -518 0
-9 -523 518 0
-9 523 -518 0
-10 -523 518 0
-10 523 -518 0
-71 -523 518 0
-71 523 -518 0
-519 0
-1 -519 524 0
-1 -518 524 0
-1 -524 519 518 0
-2 -524 519 0
-2 524 -519 0
-3 -524 519 0
-3 524 -519 0
-4 -524 519 0
-4 524 -519 0
-5 -524 519 0
-5 -524 520 0
-5 524 -519 -520 0
-6 -524 519 0
-6 -524 521 0
-6 524 -519 -521 0
-7 -524 519 0
-7 -524 522 0
-7 524 -519 -522 0
-8 -524 519 0
-8 524 -519 0
-9 -524 519 0
-9 524 -519 0
-10 -524 519 0
-10 524 -519 0
-71 -524 519 0
-71 524 -519 0
-520 0
-1 -525 520 0
-1 525 -520 0
-2 -520 525 0
-2 -518 525 0
-2 -525 520 518 0
-3 -525 520 0
-3 525 -520 0
-4 -525 520 0
-4 525 -520 0
-5 -520 525 0
-5 -519 525 0
-5 -525 520 519 0
-6 -525 520 0
-6 525 -520 0
-7 -525 520 0
-7 525 -520 0
-8 -525 520 0
-8 -525 521 0
-8 525 -520 -521 0
-9 -525 520 0
-9 -525 522 0
-9 525 -520 -522 0
-10 -525 520 0
-10 525 -520 0
-71 -525 520 0
-71 525 -520 0
-521 0
-1 -526 521 0
-1 526 -521 0
-2 -526 521 0
-2 526 -521 0
-3 -521 526 0
-3 -518 526 0
-3 -526 521 518 0
-4 -526 521 0
-4 526 -521 0
-5 -526 521 0
-5 526 -521 0
-6 -521 526 0
-6 -519 526 0
-6 -526 521 519 0
-7 -526 521 0
-7 526 -521 0
-8 -521 526 0
-8 -520 526 0
-8 -526 521 520 0
-9 -526 521 0
-9 526 -521 0
-10 -526 521 0
-10 -526 522 0
-10 526 -521 -522 0
-71 -526 521 0
-71 526 -521 0
-522 0
-1 -527 522 0
-1 527 -522 0
-2 -527 522 0
-2 527 -522 0
-3 -527 522 0
-3 527 -522 0
-4 -522 527 0
-4 -518 527 0
-4 -527 522 518 0
-5 -527 522 0
-5 527 -522 0
-6 -527 522 0
-6 527 -522 0
-7 -522 527 0
-7 -519 527 0
-7 -527 522 519 0
-8 -527 522 0
-8 527 -522 0
-9 -522 527 0
-9 -520 527 0
-9 -527 522 520 0
-10 -522 527 0
-10 -521 527 0
-10 -527 522 521 0
-71 -527 522 0
-71 527 -522 0
-11 -528 523 0
-11 -528 524 0
-11 528 -523 -524 0
-12 -528 523 0
-12 -528 525 0
-12 528 -523 -525 0
-13 -528 523 0
-13 -528 526 0
-13 528 -523 -526 0
-14 -528 523 0
-14 -528 527 0
-14 528 -523 -527 0
-15 -528 523 0
-15 528 -523 0
-16 -528 523 0
-16 528 -523 0
-17 -528 523 0
-17 528 -523 0
-18 -528 523 0
-18 528 -523 0
-19 -528 523 0
-19 528 -523 0
-20 -528 523 0
-20 528 -523 0
-72 -528 523 0
-72 528 -523 0
-11 -524 529 0
-11 -523 529 0
-11 -529 524 523 0
-12 -529 524 0
-12 529 -524 0
-13 -529 524 0
-13 529 -524 0
-14 -529 524 0
-14 529 -524 0
-15 -529 524 0
-15 -529 525 0
-15 529 -524 -525 0
-16 -529 524 0
-16 -529 526 0
-16 529 -524 -526 0
-17 -529 524 0
-17 -529 527 0
-17 529 -524 -527 0
-18 -529 524 0
-18 529 -524 0
-19 -529 524 0
-19 529 -524 0
-20 -529 524 0
-20 529 -524 0
-72 -529 524 0
-72 529 -524 0
-11 -530 525 0
-11 530 -525 0
-12 -525 530 0
-12 -523 530 0
-12 -530 525 523 0
-13 -530 525 0
-13 530 -525 0
-14 -530 525 0
-14 530 -525 0
-15 -525 530 0
-15 -524 530 0
-15 -530 525 524 0
-16 -530 525 0
-16 530 -525 0
-17 -530 525 0
-17 530 -525 0
-18 -530 525 0
-18 -530 526 0
-18 530 -525 -526 0
-19 -530 525 0
-19 -530 527 0
-19 530 -525 -527 0
-20 -530 525 0
-20 530 -525 0
-72 -530 525 0
-72 530 -525 0
-11 -531 526 0
-11 531 -526 0
-12 -531 526 0
-12 531 -526 0
-13 -526 531 0
-13 -523 531 0
-13 -531 526 523 0
-14 -531 526 0
-14 531 -526 0
-15 -531 526 0
-15 531 -526 0
-16 -526 531 0
-16 -524 531 0
-16 -531 526 524 0
-17 -531 526 0
-17 531 -526 0
-18 -526 531 0
-18 -525 531 0
-18 -531 526 525 0
-19 -531 526 0
-19 531 -526 0
-20 -531 526 0
-20 -531 527 0
-20 531 -526 -527 0
-72 -531 526 0
-72 531 -526 0
-11 -532 527 0
-11 532 -527 0
-12 -532 527 0
-12 532 -527 0
-13 -532 527 0
-13 532 -527 0
-14 -527 532 0
-14 -523 532 0
-14 -532 527 523 0
-15 -532 527 0
-15 532 -527 0
-16 -532 527 0
-16 532 -527 0
-17 -527 532 0
-17 -524 532 0
-17 -532 527 524 0
-18 -532 527 0
-18 532 -527 0
-19 -527 532 0
-19 -525 532 0
-19 -532 527 525 0
-20 -527 532 0
-20 -526 532 0
-20 -532 527 526 0
-72 -532 527 0
-72 532 -527 0
-21 -533 528 0
-21 -533 529 0
-21 533 -528 -529 0
-22 -533 528 0
-22 -533 530 0
-22 533 -528 -530 0
-23 -533 528 0
-23 -533 531 0
-23 533 -528 -531 0
-24 -533 528 0
-24 -533 532 0
-24 533 -528 -532 0
-25 -533 528 0
-25 533 -528 0
-26 -533 528 0
-26 533 -528 0
-27 -533 528 0
-27 533 -528 0
-28 -533 528 0
-28 533 -528 0
-29 -533 528 0
-29 533 -528 0
-30 -533 528 0
-30 533 -528 0
-73 -533 528 0
-73 533 -528 0
-21 -529 534 0
-21 -528 534 0
-21 -534 529 528 0
-22 -534 529 0
-22 534 -529 0
-23 -534 529 0
-23 534 -529 0
-24 -534 529 0
-24 534 -529 0
-25 -534 529 0
-25 -534 530 0
-25 534 -529 -530 0
-26 -534 529 0
-26 -534 531 0
-26 534 -529 -531 0
-27 -534 529 0
-27 -534 532 0
-27 534 -529 -532 0
-28 -534 529 0
-28 534 -529 0
-29 -534 529 0
-29 534 -529 0
-30 -534 529 0
-30 534 -529 0
-73 -534 529 0
-73 534 -529 0
-21 -535 530 0
-21 535 -530 0
-22 -530 535 0
-22 -528 535 0
-22 -535 530 528 0
-23 -535 530 0
-23 535 -530 0
-24 -535 530 0
-24 535 -530 0
-25 -530 535 0
-25 -529 535 0
-25 -535 530 529 0
-26 -535 530 0
-26 535 -530 0
-27 -535 530 0
-27 535 -530 0
-28 -535 530 0
-28 -535 531 0
-28 535 -530 -531 0
-29 -535 530 0
-29 -535 532 0
-29 535 -530 -532 0
-30 -535 530 0
-30 535 -530 0
-73 -535 530 0
-73 535 -530 0
-21 -536 531 0
-21 536 -531 0
-22 -536 531 0
-22 536 -531 0
-23 -531 536 0
-23 -528 536 0
-23 -536 531 528 0
-24 -536 531 0
-24 536 -531 0
-25 -536 531 0
-25 536 -531 0
-26 -531 536 0
-26 -529 536 0
-26 -536 531 529 0
-27 -536 531 0
-27 536 -531 0
-28 -531 536 0
-28 -530 536 0
-28 -536 531 530 0
-29 -536 531 0
-29 536 -531 0
-30 -536 531 0
-30 -536 532 0
-30 536 -531 -532 0
-73 -536 531 0
-73 536 -531 0
-21 -537 532 0
-21 537 -532 0
-22 -537 532 0
-22 537 -532 0
-23 -537 532 0
-23 537 -532 0
-24 -532 537 0
-24 -528 537 0
-24 -537 532 528 0
-25 -537 532 0
-25 537 -532 0
-26 -537 532 0
-26 537 -532 0
-27 -532 537 0
-27 -529 537 0
-27 -537 532 529 0
-28 -537 532 0
-28 537 -532 0
-29 -532 537 0
-29 -530 537 0
-29 -537 532 530 0
-30 -532 537 0
-30 -531 537 0
-30 -537 532 531 0
-73 -537 532 0
-73 537 -532 0
-31 -538 533 0
-31 -538 534 0
-31 538 -533 -534 0
-32 -538 533 0
-32 -538 535 0
-32 538 -533 -535 0
-33 -538 533 0
-33 -538 536 0
-33 538 -533 -536 0
-34 -538 533 0
-34 -538 537 0
-34 538 -533 -537 0
-35 -538 533 0
-35 538 -533 0
-36 -538 533 0
-36 538 -533 0
-37 -538 533 0
-37 538 -533 0
-38 -538 533 0
-38 538 -533 0
-39 -538 533 0
-39 538 -533 0
-40 -538 533 0
-40 538 -533 0
-74 -538 533 0
-74 538 -533 0
-31 -534 539 0
-31 -533 539 0
-31 -539 534 533 0
-32 -539 534 0
-32 539 -534 0
-33 -539 534 0
-33 539 -534 0
-34 -539 534 0
-34 539 -534 0
-35 -539 534 0
-35 -539 535 0
-35 539 -534 -535 0
-36 -539 534 0
-36 -539 536 0
-36 539 -534 -536 0
-37 -539 534 0
-37 -539 537 0
-37 539 -534 -537 0
-38 -539 534 0
-38 539 -534 0
-39 -539 534 0
-39 539 -534 0
-40 -539 534 0
-40 539 -534 0
-74 -539 534 0
-74 539 -534 0
-31 -540 535 0
-31 540 -535 0
-32 -535 540 0
-32 -533 540 0
-32 -540 535 533 0
-33 -540 535 0
-33 540 -535 0
-34 -540 535 0
-34 540 -535 0
-35 -535 540 0
-35 -534 540 0
-35 -540 535 534 0
-36 -540 535 0
-36 540 -535 0
-37 -540 535 0
-37 540 -535 0
-38 -540 535 0
-38 -540 536 0
-38 540 -535 -536 0
-39 -540 535 0
-39 -540 537 0
-39 540 -535 -537 0
-40 -540 535 0
-40 540 -535 0
-74 -540 535 0
-74 540 -535 0
-31 -541 536 0
-31 541 -536 0
-32 -541 536 0
-32 541 -536 0
-33 -536 541 0
-33 -533 541 0
-33 -541 536 533 0
-34 -541 536 0
-34 541 -536 0
-35 -541 536 0
-35 541 -536 0
-36 -536 541 0
-36 -534 541 0
-36 -541 536 534 0
-37 -541 536 0
-37 541 -536 0
-38 -536 541 0
-38 -535 541 0
-38 -541 536 535 0
-39 -541 536 0
-39 541 -536 0
-40 -541 536 0
-40 -541 537 0
-40 541 -536 -537 0
-74 -541 536 0
-74 541 -536 0
-31 -542 537 0
-31 542 -537 0
-32 -542 537 0
-32 542 -537 0
-33 -542 537 0
-33 542 -537 0
-34 -537 542 0
-34 -533 542 0
-34 -542 537 533 0
-35 -542 537 0
-35 542 -537 0
-36 -542 537 0
-36 542 -537 0
-37 -537 542 0
-37 -534 542 0
-37 -542 537 534 0
-38 -542 537 0
-38 542 -537 0
-39 -537 542 0
-39 -535 542 0
-39 -542 537 535 0
-40 -537 542 0
-40 -536 542 0
-40 -542 537 536 0
-74 -542 537 0
-74 542 -537 0
-41 -543 538 0
-41 -543 539 0
-41 543 -538 -539 0
-42 -543 538 0
-42 -543 540 0
-42 543 -538 -540 0
-43 -543 538 0
-43 -543 541 0
-43 543 -538 -541 0
-44 -543 538 0
-44 -543 542 0
-44 543 -538 -542 0
-45 -543 538 0
-45 543 -538 0
-46 -543 538 0
-46 543 -538 0
-47 -543 538 0
-47 543 -538 0
-48 -543 538 0
-48 543 -538 0
-49 -543 538 0
-49 543 -538 0
-50 -543 538 0
-50 543 -538 0
-75 -543 538 0
-75 543 -538 0
-41 -539 544 0
-41 -538 544 0
-41 -544 539 538 0
-42 -544 539 0
-42 544 -539 0
-43 -544 539 0
-43 544 -539 0
-44 -544 539 0
-44 544 -539 0
-45 -544 539 0
-45 -544 540 0
-45 544 -539 -540 0
-46 -544 539 0
-46 -544 541 0
-46 544 -539 -541 0
-47 -544 539 0
-47 -544 542 0
-47 544 -539 -542 0
-48 -544 539 0
-48 544 -539 0
-49 -544 539 0
-49 544 -539 0
-50 -544 539 0
-50 544 -539 0
-75 -544 539 0
-75 544 -539 0
-41 -545 540 0
-41 545 -540 0
-42 -540 545 0
-42 -538 545 0
-42 -545 540 538 0
-43 -545 540 0
-43 545 -540 0
-44 -545 540 0
-44 545 -540 0
-45 -540 545 0
-45 -539 545 0
-45 -545 540 539 0
-46 -545 540 0
-46 545 -540 0
-47 -545 540 0
-47 545 -540 0
-48 -545 540 0
-48 -545 541 0
-48 545 -540 -541 0
-49 -545 540 0
-49 -545 542 0
-49 545 -540 -542 0
-50 -545 540 0
-50 545 -540 0
-75 -545 540 0
-75 545 -540 0
-41 -546 541 0
-41 546 -541 0
-42 -546 541 0
-42 546 -541 0
-43 -541 546 0
-43 -538 546 0
-43 -546 541 538 0
-44 -546 541 0
-44 546 -541 0
-45 -546 541 0
-45 546 -541 0
-46 -541 546 0
-46 -539 546 0
-46 -546 541 539 0
-47 -546 541 0
-47 546 -541 0
-48 -541 546 0
-48 -540 546 0
-48 -546 541 540 0
-49 -546 541 0
-49 546 -541 0
-50 -546 541 0
-50 -546 542 0
-50 546 -541 -542 0
-75 -546 541 0
-75 546 -541 0
-41 -547 542 0
-41 547 -542 0
-42 -547 542 0
-42 547 -542 0
-43 -547 542 0
-43 547 -542 0
-44 -542 547 0
-44 -538 547 0
-44 -547 542 538 0
-45 -547 542 0
-45 547 -542 0
-46 -547 542 0
-46 547 -542 0
-47 -542 547 0
-47 -539 547 0
-47 -547 542 539 0
-48 -547 542 0
-48 547 -542 0
-49 -542 547 0
-49 -540 547 0
-49 -547 542 540 0
-50 -542 547 0
-50 -541 547 0
-50 -547 542 541 0
-75 -547 542 0
-75 547 -542 0
-51 -548 543 0
-51 -548 544 0
-51 548 -543 -544 0
-52 -548 543 0
-52 -548 545 0
-52 548 -543 -545 0
-53 -548 543 0
-53 -548 546 0
-53 548 -543 -546 0
-54 -548 543 0
-54 -548 547 0
-54 548 -543 -547 0
-55 -548 543 0
-55 548 -543 0
-56 -548 543 0
-56 548 -543 0
-57 -548 543 0
-57 548 -543 0
-58 -548 543 0
-58 548 -543 0
-59 -548 543 0
-59 548 -543 0
-60 -548 543 0
-60 548 -543 0
-76 -548 543 0
-76 548 -543 0
-51 -544 549 0
-51 -543 549 0
-51 -549 544 543 0
-52 -549 544 0
-52 549 -544 0
-53 -549 544 0
-53 549 -544 0
-54 -549 544 0
-54 549 -544 0
-55 -549 544 0
-55 -549 545 0
-55 549 -544 -545 0
-56 -549 544 0
-56 -549 546 0
-56 549 -544 -546 0
-57 -549 544 0
-57 -549 547 0
-57 549 -544 -547 0
-58 -549 544 0
-58 549 -544 0
-59 -549 544 0
-59 549 -544 0
-60 -549 544 0
-60 549 -544 0
-76 -549 544 0
-76 549 -544 0
-51 -550 545 0
-51 550 -545 0
-52 -545 550 0
-52 -543 550 0
-52 -550 545 543 0
-53 -550 545 0
-53 550 -545 0
-54 -550 545 0
-54 550 -545 0
-55 -545 550 0
-55 -544 550 0
-55 -550 545 544 0
-56 -550 545 0
-56 550 -545 0
-57 -550 545 0
-57 550 -545 0
-58 -550 545 0
-58 -550 546 0
-58 550 -545 -546 0
-59 -550 545 0
-59 -550 547 0
-59 550 -545 -547 0
-60 -550 545 0
-60 550 -545 0
-76 -550 545 0
-76 550 -545 0
-51 -551 546 0
-51 551 -546 0
-52 -551 546 0
-52 551 -546 0
-53 -546 551 0
-53 -543 551 0
-53 -551 546 543 0
-54 -551 546 0
-54 551 -546 0
-55 -551 546 0
-55 551 -546 0
-56 -546 551 0
-56 -544 551 0
-56 -551 546 544 0
-57 -551 546 0
-57 551 -546 0
-58 -546 551 0
-58 -545 551 0
-58 -551 546 545 0
-59 -551 546 0
-59 551 -546 0
-60 -551 546 0
-60 -551 547 0
-60 551 -546 -547 0
-76 -551 546 0
-76 551 -546 0
-51 -552 547 0
-51 552 -547 0
-52 -552 547 0
-52 552 -547 0
-53 -552 547 0
-53 552 -547 0
-54 -547 552 0
-54 -543 552 0
-54 -552 547 543 0
-55 -552 547 0
-55 552 -547 0
-56 -552 547 0
-56 552 -547 0
-57 -547 552 0
-57 -544 552 0
-57 -552 547 544 0
-58 -552 547 0
-58 552 -547 0
-59 -547 552 0
-59 -545 552 0
-59 -552 547 545 0
-60 -547 552 0
-60 -546 552 0
-60 -552 547 546 0
-76 -552 547 0
-76 552 -547 0
-61 -553 548 0
-61 -553 549 0
-61 553 -548 -549 0
-62 -553 548 0
-62 -553 550 0
-62 553 -548 -550 0
-63 -553 548 0
-63 -553 551 0
-63 553 -548 -551 0
-64 -553 548 0
-64 -553 552 0
-64 553 -548 -552 0
-65 -553 548 0
-65 553 -548 0
-66 -553 548 0
-66 553 -548 0
-67 -553 548 0
-67 553 -548 0
-68 -553 548 0
-68 553 -548 0
-69 -553 548 0
-69 553 -548 0
-70 -553 548 0
-70 553 -548 0
-77 -553 548 0
-77 553 -548 0
-61 -549 554 0
-61 -548 554 0
-61 -554 549 548 0
-62 -554 549 0
-62 554 -549 0
-63 -554 549 0
-63 554 -549 0
-64 -554 549 0
-64 554 -549 0
-65 -554 549 0
-65 -554 550 0
-65 554 -549 -550 0
-66 -554 549 0
-66 -554 551 0
-66 554 -549 -551 0
-67 -554 549 0
-67 -554 552 0
-67 554 -549 -552 0
-68 -554 549 0
-68 554 -549 0
-69 -554 549 0
-69 554 -549 0
-70 -554 549 0
-70 554 -549 0
-77 -554 549 0
-77 554 -549 0
-61 -555 550 0
-61 555 -550 0
-62 -550 555 0
-62 -548 555 0
-62 -555 550 548 0
-63 -555 550 0
-63 555 -550 0
-64 -555 550 0
-64 555 -550 0
-65 -550 555 0
-65 -549 555 0
-65 -555 550 549 0
-66 -555 550 0
-66 555 -550 0
-67 -555 550 0
-67 555 -550 0
-68 -555 550 0
-68 -555 551 0
-68 555 -550 -551 0
-69 -555 550 0
-69 -555 552 0
-69 555 -550 -552 0
-70 -555 550 0
-70 555 -550 0
-77 -555 550 0
-77 555 -550 0
-61 -556 551 0
-61 556 -551 0
-62 -556 551 0
-62 556 -551 0
-63 -551 556 0
-63 -548 556 0
-63 -556 551 548 0
-64 -556 551 0
-64 556 -551 0
-65 -556 551 0
-65 556 -551 0
-66 -551 556 0
-66 -549 556 0
-66 -556 551 549 0
-67 -556 551 0
-67 556 -551 0
-68 -551 556 0
-68 -550 556 0
-68 -556 551 550 0
-69 -556 551 0
-69 556 -551 0
-70 -556 551 0
-70 -556 552 0
-70 556 -551 -552 0
-77 -556 551 0
-77 556 -551 0
-61 -557 552 0
-61 557 -552 0
-62 -557 552 0
-62 557 -552 0
-63 -557 552 0
-63 557 -552 0
-64 -552 557 0
-64 -548 557 0
-64 -557 552 548 0
-65 -557 552 0
-65 557 -552 0
-66 -557 552 0
-66 557 -552 0
-67 -552 557 0
-67 -549 557 0
-67 -557 552 549 0
-68 -557 552 0
-68 557 -552 0
-69 -552 557 0
-69 -550 557 0
-69 -557 552 550 0
-70 -552 557 0
-70 -551 557 0
-70 -557 552 551 0
-77 -557 552 0
-77 557 -552 0
558 0
-1 -563 558 0
-1 -563 559 0
-1 563 -558 -559 0
-2 -563 558 0
-2 -563 560 0
-2 563 -558 -560 0
-3 -563 558 0
-3 -563 561 0
-3 563 -558 -561 0
-4 -563 558 0
-4 -563 562 0
-4 563 -558 -562 0
-5 -563 558 0
-5 563 -558 0
-6 -563 558 0
-6 563 -558 0
-7 -563 558 0
-7 563 -558 0
-8 -563 558 0
-8 563 -558 0
-9 -563 558 0
-9 563 -558 0
-10 -563 558 0
-10 563 -558 0
-71 -563 558 0
-71 563 -558 0
-559 0
-1 -559 564 0
-1 -558 564 0
-1 -564 559 558 0
-2 -564 559 0
-2 564 -559 0
-3 -564 559 0
-3 564 -559 0
-4 -564 559 0
-4 564 -559 0
-5 -564 559 0
-5 -564 560 0
-5 564 -559 -560 0
-6 -564 559 0
-6 -564 561 0
-6 564 -559 -561 0
-7 -564 559 0
-7 -564 562 0
-7 564 -559 -562 0
-8 -564 559 0
-8 564 -559 0
-9 -564 559 0
-9 564 -559 0
-10 -564 559 0
-10 564 -559 0
-71 -564 559 0
-71 564 -559 0
-560 0
-1 -565 560 0
-1 565 -560 0
-2 -560 565 0
-2 -558 565 0
-2 -565 560 558 0
-3 -565 560 0
-3 565 -560 0
-4 -565 560 0
-4 565 -560 0
-5 -560 565 0
-5 -559 565 0
-5 -565 560 559 0
-6 -565 560 0
-6 565 -560 0
-7 -565 560 0
-7 565 -560 0
-8 -565 560 0
-8 -565 561 0
-8 565 -560 -561 0
-9 -565 560 0
-9 -565 562 0
-9 565 -560 -562 0
-10 -565 560 0
-10 565 -560 0
-71 -565 560 0
-71 565 -560 0
-561 0
-1 -566 561 0
-1 566 -561 0
-2 -566 561 0
-2 566 -561 0
-3 -561 566 0
-3 -558 566 0
-3 -566 561 558 0
-4 -566 561 0
-4 566 -561 0
-5 -566 561 0
-5 566 -561 0
-6 -561 566 0
-6 -559 566 0
-6 -566 561 559 0
-7 -566 561 0
-7 566 -561 0
-8 -561 566 0
-8 -560 566 0
-8 -566 561 560 0
-9 -566 561 0
-9 566 -561 0
-10 -566 561 0
-10 -566 562 0
-10 566 -561 -562 0
-71 -566 561 0
-71 566 -561 0
562 0
-1 -567 562 0
-1 567 -562 0
-2 -567 562 0
-2 567 -562 0
-3 -567 562 0
-3 567 -562 0
-4 -562 567 0
-4 -558 567 0
-4 -567 562 558 0
-5 -567 562 0
-5 567 -562 0
-6 -567 562 0
-6 567 -562 0
-7 -562 567 0
-7 -559 567 0
-7 -567 562 559 0
-8 -567 562 0
-8 567 -562 0
-9 -562 567 0
-9 -560 567 0
-9 -567 562 560 0
-10 -562 567 0
-10 -561 567 0
-10 -567 562 561 0
-71 -567 562 0
-71 567 -562 0
-11 -568 563 0
-11 -568 564 0
-11 568 -563 -564 0
-12 -568 563 0
-12 -568 565 0
-12 568 -563 -565 0
-13 -568 563 0
-13 -568 566 0
-13 568 -563 -566 0
-14 -568 563 0
-14 -568 567 0
-14 568 -563 -567 0
-15 -568 563 0
-15 568 -563 0
-16 -568 563 0
-16 568 -563 0
-17 -568 563 0
-17 568 -563 0
-18 -568 563 0
-18 568 -563 0
-19 -568 563 0
-19 568 -563 0
-20 -568 563 0
-20 568 -563 0
-72 -568 563 0
-72 568 -563 0
-11 -564 569 0
-11 -563 569 0
-11 -569 564 563 0
-12 -569 564 0
-12 569 -564 0
-13 -569 564 0
-13 569 -564 0
-14 -569 564 0
-14 569 -564 0
-15 -569 564 0
-15 -569 565 0
-15 569 -564 -565 0
-16 -569 564 0
-16 -569 566 0
-16 569 -564 -566 0
-17 -569 564 0
-17 -569 567 0
-17 569 -564 -567 0
-18 -569 564 0
-18 569 -564 0
-19 -569 564 0
-19 569 -564 0
-20 -569 564 0
-20 569 -564 0
-72 -569 564 0
-72 569 -564 0
-11 -570 565 0
-11 570 -565 0
-12 -565 570 0
-12 -563 570 0
-12 -570 565 563 0
-13 -570 565 0
-13 570 -565 0
-14 -570 565 0
-14 570 -565 0
-15 -565 570 0
-15 -564 570 0
-15 -570 565 564 0
-16 -570 565 0
-16 570 -565 0
-17 -570 565 0
-17 570 -565 0
-18 -570 565 0
-18 -570 566 0
-18 570 -565 -566 0
-19 -570 565 0
-19 -570 567 0
-19 570 -565 -567 0
-20 -570 565 0
-20 570 -565 0
-72 -570 565 0
-72 570 -565 0
-11 -571 566 0
-11 571 -566 0
-12 -571 566 0
-12 571 -566 0
-13 -566 571 0
-13 -563 571 0
-13 -571 566 563 0
-14 -571 566 0
-14 571 -566 0
-15 -571 566 0
-15 571 -566 0
-16 -566 571 0
-16 -564 571 0
-16 -571 566 564 0
-17 -571 566 0
-17 571 -566 0
-18 -566 571 0
-18 -565 571 0
-18 -571 566 565 0
-19 -571 566 0
-19 571 -566 0
-20 -571 566 0
-20 -571 567 0
-20 571 -566 -567 0
-72 -571 566 0
-72 571 -566 0
-11 -572 567 0
-11 572 -567 0
-12 -572 567 0
-12 572 -567 0
-13 -572 567 0
-13 572 -567 0
-14 -567 572 0
-14 -563 572 0
-14 -572 567 563 0
-15 -572 567 0
-15 572 -567 0
-16 -572 567 0
-16 572 -567 0
-17 -567 572 0
-17 -564 572 0
-17 -572 567 564 0
-18 -572 567 0
-18 572 -567 0
-19 -567 572 0
-19 -565 572 0
-19 -572 567 565 0
-20 -567 572 0
-20 -566 572 0
-20 -572 567 566 0
-72 -572 567 0
-72 572 -567 0
-21 -573 568 0
-21 -573 569 0
-21 573 -568 -569 0
-22 -573 568 0
-22 -573 570 0
-22 573 -568 -570 0
-23 -573 568 0
-23 -573 571 0
-23 573 -568 -571 0
-24 -573 568 0
-24 -573 572 0
-24 573 -568 -572 0
-25 -573 568 0
-25 573 -568 0
-26 -573 568 0
-26 573 -568 0
-27 -573 568 0
-27 573 -568 0
-28 -573 568 0
-28 573 -568 0
-29 -573 568 0
-29 573 -568 0
-30 -573 568 0
-30 573 -568 0
-73 -573 568 0
-73 573 -568 0
-21 -569 574 0
-21 -568 574 0
-21 -574 569 568 0
-22 -574 569 0
-22 574 -569 0
-23 -574 569 0
-23 574 -569 0
-24 -574 569 0
-24 574 -569 0
-25 -574 569 0
-25 -574 570 0
-25 574 -569 -570 0
-26 -574 569 0
-26 -574 571 0
-26 574 -569 -571 0
-27 -574 569 0
-27 -574 572 0
-27 574 -569 -572 0
-28 -574 569 0
-28 574 -569 0
-29 -574 569 0
-29 574 -569 0
-30 -574 569 0
-30 574 -569 0
-73 -574 569 0
-73 574 -569 0
-21 -575 570 0
-21 575 -570 0
-22 -570 575 0
-22 -568 575 0
-22 -575 570 568 0
-23 -575 570 0
-23 575 -570 0
-24 -575 570 0
-24 575 -570 0
-25 -570 575 0
-25 -569 575 0
-25 -575 570 569 0
-26 -575 570 0
-26 575 -570 0
-27 -575 570 0
-27 575 -570 0
-28 -575 570 0
-28 -575 571 0
-28 575 -570 -571 0
-29 -575 570 0
-29 -575 572 0
-29 575 -570 -572 0
-30 -575 570 0
-30 575 -570 0
-73 -575 570 0
-73 575 -570 0
-21 -576 571 0
-21 576 -571 0
-22 -576 571 0
-22 576 -571 0
-23 -571 576 0
-23 -568 576 0
-23 -576 571 568 0
-24 -576 571 0
-24 576 -571 0
-25 -576 571 0
-25 576 -571 0
-26 -571 576 0
-26 -569 576 0
-26 -576 571 569 0
-27 -576 571 0
-27 576 -571 0
-28 -571 576 0
-28 -570 576 0
-28 -576 571 570 0
-29 -576 571 0
-29 576 -571 0
-30 -576 571 0
-30 -576 572 0
-30 576 -571 -572 0
-73 -576 571 0
-73 576 -571 0
-21 -577 572 0
-21 577 -572 0
-22 -577 572 0
-22 577 -572 0
-23 -577 572 0
-23 577 -572 0
-24 -572 577 0
-24 -568 577 0
-24 -577 572 568 0
-25 -577 572 0
-25 577 -572 0
-26 -577 572 0
-26 577 -572 0
-27 -572 577 0
-27 -569 577 0
-27 -577 572 569 0
-28 -577 572 0
-28 577 -572 0
-29 -572 577 0
-29 -570 577 0
-29 -577 572 570 0
-30 -572 577 0
-30 -571 577 0
-30 -577 572 571 0
-73 -577 572 0
-73 577 -572 0
-31 -578 573 0
-31 -578 574 0
-31 578 -573 -574 0
-32 -578 573 0
-32 -578 575 0
-32 578 -573 -575 0
-33 -578 573 0
-33 -578 576 0
-33 578 -573 -576 0
-34 -578 573 0
-34 -578 577 0
-34 578 -573 -577 0
-35 -578 573 0
-35 578 -573 0
-36 -578 573 0
-36 578 -573 0
-37 -578 573 0
-37 578 -573 0
-38 -578 573 0
-38 578 -573 0
-39 -578 573 0
-39 578 -573 0
-40 -578 573 0
-40 578 -573 0
-74 -578 573 0
-74 578 -573 0
-31 -574 579 0
-31 -573 579 0
-31 -579 574 573 0
-32 -579 574 0
-32 579 -574 0
-33 -579 574 0
-33 579 -574 0
-34 -579 574 0
-34 579 -574 0
-35 -579 574 0
-35 -579 575 0
-35 579 -574 -575 0
-36 -579 574 0
-36 -579 576 0
-36 579 -574 -576 0
-37 -579 574 0
-37 -579 577 0
-37 579 -574 -577 0
-38 -579 574 0
-38 579 -574 0
-39 -579 574 0
-39 579 -574 0
-40 -579 574 0
-40 579 -574 0
-74 -579 574 0
-74 579 -574 0
-31 -580 575 0
-31 580 -575 0
-32 -575 580 0
-32 -573 580 0
-32 -580 575 573 0
-33 -580 575 0
-33 580 -575 0
-34 -580 575 0
-34 580 -575 0
-35 -575 580 0
-35 -574 580 0
-35 -580 575 574 0
-36 -580 575 0
-36 580 -575 0
-37 -580 575 0
-37 580 -575 0
-38 -580 575 0
-38 -580 576 0
-38 580 -575 -576 0
-39 -580 575 0
-39 -580 577 0
-39 580 -575 -577 0
-40 -580 575 0
-40 580 -575 0
-74 -580 575 0
-74 580 -575 0
-31 -581 576 0
-31 581 -576 0
-32 -581 576 0
-32 581 -576 0
-33 -576 581 0
-33 -573 581 0
-33 -581 576 573 0
-34 -581 576 0
-34 581 -576 0
-35 -581 576 0
-35 581 -576 0
-36 -576 581 0
-36 -574 581 0
-36 -581 576 574 0
-37 -581 576 0
-37 581 -576 0
-38 -576 581 0
-38 -575 581 0
-38 -581 576 575 0
-39 -581 576 0
-39 581 -576 0
-40 -581 576 0
-40 -581 577 0
-40 581 -576 -577 0
-74 -581 576 0
-74 581 -576 0
-31 -582 577 0
-31 582 -577 0
-32 -582 577 0
-32 582 -577 0
-33 -582 577 0
-33 582 -577 0
-34 -577 582 0
-34 -573 582 0
-34 -582 577 573 0
-35 -582 577 0
-35 582 -577 0
-36 -582 577 0
-36 582 -577 0
-37 -577 582 0
-37 -574 582 0
-37 -582 577 574 0
-38 -582 577 0
-38 582 -577 0
-39 -577 582 0
-39 -575 582 0
-39 -582 577 575 0
-40 -577 582 0
-40 -576 582 0
-40 -582 577 576 0
-74 -582 577 0
-74 582 -577 0
-41 -583 578 0
-41 -583 579 0
-41 583 -578 -579 0
-42 -583 578 0
-42 -583 580 0
-42 583 -578 -580 0
-43 -583 578 0
-43 -583 581 0
-43 583 -578 -581 0
-44 -583 578 0
-44 -583 582 0
-44 583 -578 -582 0
-45 -583 578 0
-45 583 -578 0
-46 -583 578 0
-46 583 -578 0
-47 -583 578 0
-47 583 -578 0
-48 -583 578 0
-48 583 -578 0
-49 -583 578 0
-49 583 -578 0
-50 -583 578 0
-50 583 -578 0
-75 -583 578 0
-75 583 -578 0
-41 -579 584 0
-41 -578 584 0
-41 -584 579 578 0
-42 -584 579 0
-42 584 -579 0
-43 -584 579 0
-43 584 -579 0
-44 -584 579 0
-44 584 -579 0
-45 -584 579 0
-45 -584 580 0
-45 584 -579 -580 0
-46 -584 579 0
-46 -584 581 0
-46 584 -579 -581 0
-47 -584 579 0
-47 -584 582 0
-47 584 -579 -582 0
-48 -584 579 0
-48 584 -579 0
-49 -584 579 0
-49 584 -579 0
-50 -584 579 0
-50 584 -579 0
-75 -584 579 0
-75 584 -579 0
-41 -585 580 0
-41 585 -580 0
-42 -580 585 0
-42 -578 585 0
-42 -585 580 578 0
-43 -585 580 0
-43 585 -580 0
-44 -585 580 0
-44 585 -580 0
-45 -580 585 0
-45 -579 585 0
-45 -585 580 579 0
-46 -585 580 0
-46 585 -580 0
-47 -585 580 0
-47 585 -580 0
-48 -585 580 0
-48 -585 581 0
-48 585 -580 -581 0
-49 -585 580 0
-49 -585 582 0
-49 585 -580 -582 0
-50 -585 580 0
-50 585 -580 0
-75 -585 580 0
-75 585 -580 0
-41 -586 581 0
-41 586 -581 0
-42 -586 581 0
-42 586 -581 0
-43 -581 586 0
-43 -578 586 0
-43 -586 581 578 0
-44 -586 581 0
-44 586 -581 0
-45 -586 581 0
-45 586 -581 0
-46 -581 586 0
-46 -579 586 0
-46 -586 581 579 0
-47 -586 581 0
-47 586 -581 0
-48 -581 586 0
-48 -580 586 0
-48 -586 581 580 0
-49 -586 581 0
-49 586 -581 0
-50 -586 581 0
-50 -586 582 0
-50 586 -581 -582 0
-75 -586 581 0
-75 586 -581 0
-41 -587 582 0
-41 587 -582 0
-42 -587 582 0
-42 587 -582 0
-43 -587 582 0
-43 587 -582 0
-44 -582 587 0
-44 -578 587 0
-44 -587 582 578 0
-45 -587 582 0
-45 587 -582 0
-46 -587 582 0
-46 587 -582 0
-47 -582 587 0
-47 -579 587 0
-47 -587 582 579 0
-48 -587 582 0
-48 587 -582 0
-49 -582 587 0
-49 -580 587 0
-49 -587 582 580 0
-50 -582 587 0
-50 -581 587 0
-50 -587 582 581 0
-75 -587 582 0
-75 587 -582 0
-51 -588 583 0
-51 -588 584 0
-51 588 -583 -584 0
-52 -588 583 0
-52 -588 585 0
-52 588 -583 -585 0
-53 -588 583 0
-53 -588 586 0
-53 588 -583 -586 0
-54 -588 583 0
-54 -588 587 0
-54 588 -583 -587 0
-55 -588 583 0
-55 588 -583 0
-56 -588 583 0
-56 588 -583 0
-57 -588 583 0
-57 588 -583 0
-58 -588 583 0
-58 588 -583 0
-59 -588 583 0
-59 588 -583 0
-60 -588 583 0
-60 588 -583 0
-76 -588 583 0
-76 588 -583 0
-51 -584 589 0
-51 -583 589 0
-51 -589 584 583 0
-52 -589 584 0
-52 589 -584 0
-53 -589 584 0
-53 589 -584 0
-54 -589 584 0
-54 589 -584 0
-55 -589 584 0
-55 -589 585 0
-55 589 -584 -585 0
-56 -589 584 0
-56 -589 586 0
-56 589 -584 -586 0
-57 -589 584 0
-57 -589 587 0
-57 589 -584 -587 0
-58 -589 584 0
-58 589 -584 0
-59 -589 584 0
-59 589 -584 0
-60 -589 584 0
-60 589 -584 0
-76 -589 584 0
-76 589 -584 0
-51 -590 585 0
-51 590 -585 0
-52 -585 590 0
-52 -583 590 0
-52 -590 585 583 0
-53 -590 585 0
-53 590 -585 0
-54 -590 585 0
-54 590 -585 0
-55 -585 590 0
-55 -584 590 0
-55 -590 585 584 0
-56 -590 585 0
-56 590 -585 0
-57 -590 585 0
-57 590 -585 0
-58 -590 585 0
-58 -590 586 0
-58 590 -585 -586 0
-59 -590 585 0
-59 -590 587 0
-59 590 -585 -587 0
-60 -590 585 0
-60 590 -585 0
-76 -590 585 0
-76 590 -585 0
-51 -591 586 0
-51 591 -586 0
-52 -591 586 0
-52 591 -586 0
-53 -586 591 0
-53 -583 591 0
-53 -591 586 583 0
-54 -591 586 0
-54 591 -586 0
-55 -591 586 0
-55 591 -586 0
-56 -586 591 0
-56 -584 591 0
-56 -591 586 584 0
-57 -591 586 0
-57 591 -586 0
-58 -586 591 0
-58 -585 591 0
-58 -591 586 585 0
-59 -591 586 0
-59 591 -586 0
-60 -591 586 0
-60 -591 587 0
-60 591 -586 -587 0
-76 -591 586 0
-76 591 -586 0
-51 -592 587 0
-51 592 -587 0
-52 -592 587 0
-52 592 -587 0
-53 -592 587 0
-53 592 -587 0
-54 -587 592 0
-54 -583 592 0
-54 -592 587 583 0
-55 -592 587 0
-55 592 -587 0
-56 -592 587 0
-56 592 -587 0
-57 -587 592 0
-57 -584 592 0
-57 -592 587 584 0
-58 -592 587 0
-58 592 -587 0
-59 -587 592 0
-59 -585 592 0
-59 -592 587 585 0
-60 -587 592 0
-60 -586 592 0
-60 -592 587 586 0
-76 -592 587 0
-76 592 -587 0
-61 -593 588 0
-61 -593 589 0
-61 593 -588 -589 0
-62 -593 588 0
-62 -593 590 0
-62 593 -588 -590 0
-63 -593 588 0
-63 -593 591 0
-63 593 -588 -591 0
-64 -593 588 0
-64 -593 592 0
-64 593 -588 -592 0
-65 -593 588 0
-65 593 -588 0
-66 -593 588 0
-66 593 -588 0
-67 -593 588 0
-67 593 -588 0
-68 -593 588 0
-68 593 -588 0
-69 -593 588 0
-69 593 -588 0
-70 -593 588 0
-70 593 -588 0
-77 -593 588 0
-77 593 -588 0
-61 -589 594 0
-61 -588 594 0
-61 -594 589 588 0
-62 -594 589 0
-62 594 -589 0
-63 -594 589 0
-63 594 -589 0
-64 -594 589 0
-64 594 -589 0
-65 -594 589 0
-65 -594 590 0
-65 594 -589 -590 0
-66 -594 589 0
-66 -594 591 0
-66 594 -589 -591 0
-67 -594 589 0
-67 -594 592 0
-67 594 -589 -592 0
-68 -594 589 0
-68 594 -589 0
-69 -594 589 0
-69 594 -589 0
-70 -594 589 0
-70 594 -589 0
-77 -594 589 0
-77 594 -589 0
-61 -595 590 0
-61 595 -590 0
-62 -590 595 0
-62 -588 595 0
-62 -595 590 588 0
-63 -595 590 0
-63 595 -590 0
-64 -595 590 0
-64 595 -590 0
-65 -590 595 0
-65 -589 595 0
-65 -595 590 589 0
-66 -595 590 0
-66 595 -590 0
-67 -595 590 0
-67 595 -590 0
-68 -595 590 0
-68 -595 591 0
-68 595 -590 -591 0
-69 -595 590 0
-69 -595 592 0
-69 595 -590 -592 0
-70 -595 590 0
-70 595 -590 0
-77 -595 590 0
-77 595 -590 0
-61 -596 591 0
-61 596 -591 0
-62 -596 591 0
-62 596 -591 0
-63 -591 596 0
-63 -588 596 0
-63 -596 591 588 0
-64 -596 591 0
-64 596 -591 0
-65 -596 591 0
-65 596 -591 0
-66 -591 596 0
-66 -589 596 0
-66 -596 591 589 0
-67 -596 591 0
-67 596 -591 0
-68 -591 596 0
-68 -590 596 0
-68 -596 591 590 0
-69 -596 591 0
-69 596 -591 0
-70 -596 591 0
-70 -596 592 0
-70 596 -591 -592 0
-77 -596 591 0
-77 596 -591 0
-61 -597 592 0
-61 597 -592 0
-62 -597 592 0
-62 597 -592 0
-63 -597 592 0
-63 597 -592 0
-64 -592 597 0
-64 -588 597 0
-64 -597 592 588 0
-65 -597 592 0
-65 597 -592 0
-66 -597 592 0
-66 597 -592 0
-67 -592 597 0
-67 -589 597 0
-67 -597 592 589 0
-68 -597 592 0
-68 597 -592 0
-69 -592 597 0
-69 -590 597 0
-69 -597 592 590 0
-70 -592 597 0
-70 -591 597 0
-70 -597 592 591 0
-77 -597 592 0
-77 597 -592 0
598 0
-1 -603 598 0
-1 -603 599 0
-1 603 -598 -599 0
-2 -603 598 0
-2 -603 600 0
-2 603 -598 -600 0
-3 -603 598 0
-3 -603 601 0
-3 603 -598 -601 0
-4 -603 598 0
-4 -603 602 0
-4 603 -598 -602 0
-5 -603 598 0
-5 603 -598 0
-6 -603 598 0
-6 603 -598 0
-7 -603 598 0
-7 603 -598 0
-8 -603 598 0
-8 603 -598 0
-9 -603 598 0
-9 603 -598 0
-10 -603 598 0
-10 603 -598 0
-71 -603 598 0
-71 603 -598 0
-599 0
-1 -599 604 0
-1 -598 604 0
-1 -604 599 598 0
-2 -604 599 0
-2 604 -599 0
-3 -604 599 0
-3 604 -599 0
-4 -604 599 0
-4 604 -599 0
-5 -604 599 0
-5 -604 600 0
-5 604 -599 -600 0
-6 -604 599 0
-6 -604 601 0
-6 604 -599 -601 0
-7 -604 599 0
-7 -604 602 0
-7 604 -599 -602 0
-8 -604 599 0
-8 604 -599 0
-9 -604 599 0
-9 604 -599 0
-10 -604 599 0
-10 604 -599 0
-71 -604 599 0
-71 604 -599 0
-600 0
-1 -605 600 0
-1 605 -600 0
-2 -600 605 0
-2 -598 605 0
-2 -605 600 598 0
-3 -605 600 0
-3 605 -600 0
-4 -605 600 0
-4 605 -600 0
-5 -600 605 0
-5 -599 605 0
-5 -605 600 599 0
-6 -605 600 0
-6 605 -600 0
-7 -605 600 0
-7 605 -600 0
-8 -605 600 0
-8 -605 601 0
-8 605 -600 -601 0
-9 -605 600 0
-9 -605 602 0
-9 605 -600 -602 0
-10 -605 600 0
-10 605 -600 0
-71 -605 600 0
-71 605 -600 0
601 0
-1 -606 601 0
-1 606 -601 0
-2 -606 601 0
-2 606 -601 0
-3 -601 606 0
-3 -598 606 0
-3 -606 601 598 0
-4 -606 601 0
-4 606 -601 0
-5 -606 601 0
-5 606 -601 0
-6 -601 606 0
-6 -599 606 0
-6 -606 601 599 0
-7 -606 601 0
-7 606 -601 0
-8 -601 606 0
-8 -600 606 0
-8 -606 601 600 0
-9 -606 601 0
-9 606 -601 0
-10 -606 601 0
-10 -606 602 0
-10 606 -601 -602 0
-71 -606 601 0
-71 606 -601 0
-602 0
-1 -607 602 0
-1 607 -602 0
-2 -607 602 0
-2 607 -602 0
-3 -607 602 0
-3 607 -602 0
-4 -602 607 0
-4 -598 607 0
-4 -607 602 598 0
-5 -607 602 0
-5 607 -602 0
-6 -607 602 0
-6 607 -602 0
-7 -602 607 0
-7 -599 607 0
-7 -607 602 599 0
-8 -607 602 0
-8 607 -602 0
-9 -602 607 0
-9 -600 607 0
-9 -607 602 600 0
-10 -602 607 0
-10 -601 607 0
-10 -607 602 601 0
-71 -607 602 0
-71 607 -602 0
-11 -608 603 0
-11 -608 604 0
-11 608 -603 -604 0
-12 -608 603 0
-12 -608 605 0
-12 608 -603 -605 0
-13 -608 603 0
-13 -608 606 0
-13 608 -603 -606 0
-14 -608 603 0
-14 -608 607 0
-14 608 -603 -607 0
-15 -608 603 0
-15 608 -603 0
-16 -608 603 0
-16 608 -603 0
-17 -608 603 0
-17 608 -603 0
-18 -608 603 0
-18 608 -603 0
-19 -608 603 0
-19 608 -603 0
-20 -608 603 0
-20 608 -603 0
-72 -608 603 0
-72 608 -603 0
-11 -604 609 0
-11 -603 609 0
-11 -609 604 603 0
-12 -609 604 0
-12 609 -604 0
-13 -609 604 0
-13 609 -604 0
-14 -609 604 0
-14 609 -604 0
-15 -609 604 0
-15 -609 605 0
-15 609 -604 -605 0
-16 -609 604 0
-16 -609 606 0
-16 609 -604 -606 0
-17 -609 604 0
-17 -609 607 0
-17 609 -604 -607 0
-18 -609 604 0
-18 609 -604 0
-19 -609 604 0
-19 609 -604 0
-20 -609 604 0
-20 609 -604 0
-72 -609 604 0
-72 609 -604 0
-11 -610 605 0
-11 610 -605 0
-12 -605 610 0
-12 -603 610 0
-12 -610 605 603 0
-13 -610 605 0
-13 610 -605 0
-14 -610 605 0
-14 610 -605 0
-15 -605 610 0
-15 -604 610 0
-15 -610 605 604 0
-16 -610 605 0
-16 610 -605 0
-17 -610 605 0
-17 610 -605 0
-18 -610 605 0
-18 -610 606 0
-18 610 -605 -606 0
-19 -610 605 0
-19 -610 607 0
-19 610 -605 -607 0
-20 -610 605 0
-20 610 -605 0
-72 -610 605 0
-72 610 -605 0
-11 -611 606 0
-11 611 -606 0
-12 -611 606 0
-12 611 -606 0
-13 -606 611 0
-13 -603 611 0
-13 -611 606 603 0
-14 -611 606 0
-14 611 -606 0
-15 -611 606 0
-15 611 -606 0
-16 -606 611 0
-16 -604 611 0
-16 -611 606 604 0
-17 -611 606 0
-17 611 -606 0
-18 -606 611 0
-18 -605 611 0
-18 -611 606 605 0
-19 -611 606 0
-19 611 -606 0
-20 -611 606 0
-20 -611 607 0
-20 611 -606 -607 0
-72 -611 606 0
-72 611 -606 0
-11 -612 607 0
-11 612 -607 0
-12 -612 607 0
-12 612 -607 0
-13 -612 607 0
-13 612 -607 0
-14 -607 612 0
-14 -603 612 0
-14 -612 607 603 0
-15 -612 607 0
-15 612 -607 0
-16 -612 607 0
-16 612 -607 0
-17 -607 612 0
-17 -604 612 0
-17 -612 607 604 0
-18 -612 607 0
-18 612 -607 0
-19 -607 612 0
-19 -605 612 0
-19 -612 607 605 0
-20 -607 612 0
-20 -606 612 0
-20 -612 607 606 0
-72 -612 607 0
-72 612 -607 0
-21 -613 608 0
-21 -613 609 0
-21 613 -608 -609 0
-22 -613 608 0
-22 -613 610 0
-22 613 -608 -610 0
-23 -613 608 0
-23 -613 611 0
-23 613 -608 -611 0
-24 -613 608 0
-24 -613 612 0
-24 613 -608 -612 0
-25 -613 608 0
-25 613 -608 0
-26 -613 608 0
-26 613 -608 0
-27 -613 608 0
-27 613 -608 0
-28 -613 608 0
-28 613 -608 0
-29 -613 608 0
-29 613 -608 0
-30 -613 608 0
-30 613 -608 0
-73 -613 608 0
-73 613 -608 0
-21 -609 614 0
-21 -608 614 0
-21 -614 609 608 0
-22 -614 609 0
-22 614 -609 0
-23 -614 609 0
-23 614 -609 0
-24 -614 609 0
-24 614 -609 0
-25 -614 609 0
-25 -614 610 0
-25 614 -609 -610 0
-26 -614 609 0
-26 -614 611 0
-26 614 -609 -611 0
-27 -614 609 0
-27 -614 612 0
-27 614 -609 -612 0
-28 -614 609 0
-28 614 -609 0
-29 -614 609 0
-29 614 -609 0
-30 -614 609 0
-30 614 -609 0
-73 -614 609 0
-73 614 -609 0
-21 -615 610 0
-21 615 -610 0
-22 -610 615 0
-22 -608 615 0
-22 -615 610 608 0
-23 -615 610 0
-23 615 -610 0
-24 -615 610 0
-24 615 -610 0
-25 -610 615 0
-25 -609 615 0
-25 -615 610 609 0
-26 -615 610 0
-26 615 -610 0
-27 -615 610 0
-27 615 -610 0
-28 -615 610 0
-28 -615 611 0
-28 615 -610 -611 0
-29 -615 610 0
-29 -615 612 0
-29 615 -610 -612 0
-30 -615 610 0
-30 615 -610 0
-73 -615 610 0
-73 615 -610 0
-21 -616 611 0
-21 616 -611 0
-22 -616 611 0
-22 616 -611 0
-23 -611 616 0
-23 -608 616 0
-23 -616 611 608 0
-24 -616 611 0
-24 616 -611 0
-25 -616 611 0
-25 616 -611 0
-26 -611 616 0
-26 -609 616 0
-26 -616 611 609 0
-27 -616 611 0
-27 616 -611 0
-28 -611 616 0
-28 -610 616 0
-28 -616 611 610 0
-29 -616 611 0
-29 616 -611 0
-30 -616 611 0
-30 -616 612 0
-30 616 -611 -612 0
-73 -616 611 0
-73 616 -611 0
-21 -617 612 0
-21 617 -612 0
-22 -617 612 0
-22 617 -612 0
-23 -617 612 0
-23 617 -612 0
-24 -612 617 0
-24 -608 617 0
-24 -617 612 608 0
-25 -617 612 0
-25 617 -612 0
-26 -617 612 0
-26 617 -612 0
-27 -612 617 0
-27 -609 617 0
-27 -617 612 609 0
-28 -617 612 0
-28 617 -612 0
-29 -612 617 0
-29 -610 617 0
-29 -617 612 610 0
-30 -612 617 0
-30 -611 617 0
-30 -617 612 611 0
-73 -617 612 0
-73 617 -612 0
-31 -618 613 0
-31 -618 614 0
-31 618 -613 -614 0
-32 -618 613 0
-32 -618 615 0
-32 618 -613 -615 0
-33 -618 613 0
-33 -618 616 0
-33 618 -613 -616 0
-34 -618 613 0
-34 -618 617 0
-34 618 -613 -617 0
-35 -618 613 0
-35 618 -613 0
-36 -618 613 0
-36 618 -613 0
-37 -618 613 0
-37 618 -613 0
-38 -618 613 0
-38 618 -613 0
-39 -618 613 0
-39 618 -613 0
-40 -618 613 0
-40 618 -613 0
-74 -618 613 0
-74 618 -613 0
-31 -614 619 0
-31 -613 619 0
-31 -619 614 613 0
-32 -619 614 0
-32 619 -614 0
-33 -619 614 0
-33 619 -614 0
-34 -619 614 0
-34 619 -614 0
-35 -619 614 0
-35 -619 615 0
-35 619 -614 -615 0
-36 -619 614 0
-36 -619 616 0
-36 619 -614 -616 0
-37 -619 614 0
-37 -619 617 0
-37 619 -614 -617 0
-38 -619 614 0
-38 619 -614 0
-39 -619 614 0
-39 619 -614 0
-40 -619 614 0
-40 619 -614 0
-74 -619 614 0
-74 619 -614 0
-31 -620 615 0
-31 620 -615 0
-32 -615 620 0
-32 -613 620 0
-32 -620 615 613 0
-33 -620 615 0
-33 620 -615 0
-34 -620 615 0
-34 620 -615 0
-35 -615 620 0
-35 -614 620 0
-35 -620 615 614 0
-36 -620 615 0
-36 620 -615 0
-37 -620 615 0
-37 620 -615 0
-38 -620 615 0
-38 -620 616 0
-38 620 -615 -616 0
-39 -620 615 0
-39 -620 617 0
-39 620 -615 -617 0
-40 -620 615 0
-40 620 -615 0
-74 -620 615 0
-74 620 -615 0
-31 -621 616 0
-31 621 -616 0
-32 -621 616 0
-32 621 -616 0
-33 -616 621 0
-33 -613 621 0
-33 -621 616 613 0
-34 -621 616 0
-34 621 -616 0
-35 -621 616 0
-35 621 -616 0
-36 -616 621 0
-36 -614 621 0
-36 -621 616 614 0
-37 -621 616 0
-37 621 -616 0
-38 -616 621 0
-38 -615 621 0
-38 -621 616 615 0
-39 -621 616 0
-39 621 -616 0
-40 -621 616 0
-40 -621 617 0
-40 621 -616 -617 0
-74 -621 616 0
-74 621 -616 0
-31 -622 617 0
-31 622 -617 0
-32 -622 617 0
-32 622 -617 0
-33 -622 617 0
-33 622 -617 0
-34 -617 622 0
-34 -613 622 0
-34 -622 617 613 0
-35 -622 617 0
-35 622 -617 0
-36 -622 617 0
-36 622 -617 0
-37 -617 622 0
-37 -614 622 0
-37 -622 617 614 0
-38 -622 617 0
-38 622 -617 0
-39 -617 622 0
-39 -615 622 0
-39 -622 617 615 0
-40 -617 622 0
-40 -616 622 0
-40 -622 617 616 0
-74 -622 617 0
-74 622 -617 0
-41 -623 618 0
-41 -623 619 0
-41 623 -618 -619 0
-42 -623 618 0
-42 -623 620 0
-42 623 -618 -620 0
-43 -623 618 0
-43 -623 621 0
-43 623 -618 -621 0
-44 -623 618 0
-44 -623 622 0
-44 623 -618 -622 0
-45 -623 618 0
-45 623 -618 0
-46 -623 618 0
-46 623 -618 0
-47 -623 618 0
-47 623 -618 0
-48 -623 618 0
-48 623 -618 0
-49 -623 618 0
-49 623 -618 0
-50 -623 618 0
-50 623 -618 0
-75 -623 618 0
-75 623 -618 0
-41 -619 624 0
-41 -618 624 0
-41 -624 619 618 0
-42 -624 619 0
-42 624 -619 0
-43 -624 619 0
-43 624 -619 0
-44 -624 619 0
-44 624 -619 0
-45 -624 619 0
-45 -624 620 0
-45 624 -619 -620 0
-46 -624 619 0
-46 -624 621 0
-46 624 -619 -621 0
-47 -624 619 0
-47 -624 622 0
-47 624 -619 -622 0
-48 -624 619 0
-48 624 -619 0
-49 -624 619 0
-49 624 -619 0
-50 -624 619 0
-50 624 -619 0
-75 -624 619 0
-75 624 -619 0
-41 -625 620 0
-41 625 -620 0
-42 -620 625 0
-42 -618 625 0
-42 -625 620 618 0
-43 -625 620 0
-43 625 -620 0
-44 -625 620 0
-44 625 -620 0
-45 -620 625 0
-45 -619 625 0
-45 -625 620 619 0
-46 -625 620 0
-46 625 -620 0
-47 -625 620 0
-47 625 -620 0
-48 -625 620 0
-48 -625 621 0
-48 625 -620 -621 0
-49 -625 620 0
-49 -625 622 0
-49 625 -620 -622 0
-50 -625 620 0
-50 625 -620 0
-75 -625 620 0
-75 625 -620 0
-41 -626 621 0
-41 626 -621 0
-42 -626 621 0
-42 626 -621 0
-43 -621 626 0
-43 -618 626 0
-43 -626 621 618 0
-44 -626 621 0
-44 626 -621 0
-45 -626 621 0
-45 626 -621 0
-46 -621 626 0
-46 -619 626 0
-46 -626 621 619 0
-47 -626 621 0
-47 626 -621 0
-48 -621 626 0
-48 -620 626 0
-48 -626 621 620 0
-49 -626 621 0
-49 626 -621 0
-50 -626 621 0
-50 -626 622 0
-50 626 -621 -622 0
-75 -626 621 0
-75 626 -621 0
-41 -627 622 0
-41 627 -622 0
-42 -627 622 0
-42 627 -622 0
-43 -627 622 0
-43 627 -622 0
-44 -622 627 0
-44 -618 627 0
-44 -627 622 618 0
-45 -627 622 0
-45 627 -622 0
-46 -627 622 0
-46 627 -622 0
-47 -622 627 0
-47 -619 627 0
-47 -627 622 619 0
-48 -627 622 0
-48 627 -622 0
-49 -622 627 0
-49 -620 627 0
-49 -627 622 620 0
-50 -622 627 0
-50 -621 627 0
-50 -627 622 621 0
-75 -627 622 0
-75 627 -622 0
-51 -628 623 0
-51 -628 624 0
-51 628 -623 -624 0
-52 -628 623 0
-52 -628 625 0
-52 628 -623 -625 0
-53 -628 623 0
-53 -628 626 0
-53 628 -623 -626 0
-54 -628 623 0
-54 -628 627 0
-54 628 -623 -627 0
-55 -628 623 0
-55 628 -623 0
-56 -628 623 0
-56 628 -623 0
-57 -628 623 0
-57 628 -623 0
-58 -628 623 0
-58 628 -623 0
-59 -628 623 0
-59 628 -623 0
-60 -628 623 0
-60 628 -623 0
-76 -628 623 0
-76 628 -623 0
-51 -624 629 0
-51 -623 629 0
-51 -629 624 623 0
-52 -629 624 0
-52 629 -624 0
-53 -629 624 0
-53 629 -624 0
-54 -629 624 0
-54 629 -624 0
-55 -629 624 0
-55 -629 625 0
-55 629 -624 -625 0
-56 -629 624 0
-56 -629 626 0
-56 629 -624 -626 0
-57 -629 624 0
-57 -629 627 0
-57 629 -624 -627 0
-58 -629 624 0
-58 629 -624 0
-59 -629 624 0
-59 629 -624 0
-60 -629 624 0
-60 629 -624 0
-76 -629 624 0
-76 629 -624 0
-51 -630 625 0
-51 630 -625 0
-52 -625 630 0
-52 -623 630 0
-52 -630 625 623 0
-53 -630 625 0
-53 630 -625 0
-54 -630 625 0
-54 630 -625 0
-55 -625 630 0
-55 -624 630 0
-55 -630 625 624 0
-56 -630 625 0
-56 630 -625 0
-57 -630 625 0
-57 630 -625 0
-58 -630 625 0
-58 -630 626 0
-58 630 -625 -626 0
-59 -630 625 0
-59 -630 627 0
-59 630 -625 -627 0
-60 -630 625 0
-60 630 -625 0
-76 -630 625 0
-76 630 -625 0
-51 -631 626 0
-51 631 -626 0
-52 -631 626 0
-52 631 -626 0
-53 -626 631 0
-53 -623 631 0
-53 -631 626 623 0
-54 -631 626 0
-54 631 -626 0
-55 -631 626 0
-55 631 -626 0
-56 -626 631 0
-56 -624 631 0
-56 -631 626 624 0
-57 -631 626 0
-57 631 -626 0
-58 -626 631 0
-58 -625 631 0
-58 -631 626 625 0
-59 -631 626 0
-59 631 -626 0
-60 -631 626 0
-60 -631 627 0
-60 631 -626 -627 0
-76 -631 626 0
-76 631 -626 0
-51 -632 627 0
-51 632 -627 0
-52 -632 627 0
-52 632 -627 0
-53 -632 627 0
-53 632 -627 0
-54 -627 632 0
-54 -623 632 0
-54 -632 627 623 0
-55 -632 627 0
-55 632 -627 0
-56 -632 627 0
-56 632 -627 0
-57 -627 632 0
-57 -624 632 0
-57 -632 627 624 0
-58 -632 627 0
-58 632 -627 0
-59 -627 632 0
-59 -625 632 0
-59 -632 627 625 0
-60 -627 632 0
-60 -626 632 0
-60 -632 627 626 0
-76 -632 627 0
-76 632 -627 0
-61 -633 628 0
-61 -633 629 0
-61 633 -628 -629 0
-62 -633 628 0
-62 -633 630 0
-62 633 -628 -630 0
-63 -633 628 0
-63 -633 631 0
-63 633 -628 -631 0
-64 -633 628 0
-64 -633 632 0
-64 633 -628 -632 0
-65 -633 628 0
-65 633 -628 0
-66 -633 628 0
-66 633 -628 0
-67 -633 628 0
-67 633 -628 0
-68 -633 628 0
-68 633 -628 0
-69 -633 628 0
-69 633 -628 0
-70 -633 628 0
-70 633 -628 0
-77 -633 628 0
-77 633 -628 0
-61 -629 634 0
-61 -628 634 0
-61 -634 629 628 0
-62 -634 629 0
-62 634 -629 0
-63 -634 629 0
-63 634 -629 0
-64 -634 629 0
-64 634 -629 0
-65 -634 629 0
-65 -634 630 0
-65 634 -629 -630 0
-66 -634 629 0
-66 -634 631 0
-66 634 -629 -631 0
-67 -634 629 0
-67 -634 632 0
-67 634 -629 -632 0
-68 -634 629 0
-68 634 -629 0
-69 -634 629 0
-69 634 -629 0
-70 -634 629 0
-70 634 -629 0
-77 -634 629 0
-77 634 -629 0
-61 -635 630 0
-61 635 -630 0
-62 -630 635 0
-62 -628 635 0
-62 -635 630 628 0
-63 -635 630 0
-63 635 -630 0
-64 -635 630 0
-64 635 -630 0
-65 -630 635 0
-65 -629 635 0
-65 -635 630 629 0
-66 -635 630 0
-66 635 -630 0
-67 -635 630 0
-67 635 -630 0
-68 -635 630 0
-68 -635 631 0
-68 635 -630 -631 0
-69 -635 630 0
-69 -635 632 0
-69 635 -630 -632 0
-70 -635 630 0
-70 635 -630 0
-77 -635 630 0
-77 635 -630 0
-61 -636 631 0
-61 636 -631 0
-62 -636 631 0
-62 636 -631 0
-63 -631 636 0
-63 -628 636 0
-63 -636 631 628 0
-64 -636 631 0
-64 636 -631 0
-65 -636 631 0
-65 636 -631 0
-66 -631 636 0
-66 -629 636 0
-66 -636 631 629 0
-67 -636 631 0
-67 636 -631 0
-68 -631 636 0
-68 -630 636 0
-68 -636 631 630 0
-69 -636 631 0
-69 636 -631 0
-70 -636 631 0
-70 -636 632 0
-70 636 -631 -632 0
-77 -636 631 0
-77 636 -631 0
-61 -637 632 0
-61 637 -632 0
-62 -637 632 0
-62 637 -632 0
-63 -637 632 0
-63 637 -632 0
-64 -632 637 0
-64 -628 637 0
-64 -637 632 628 0
-65 -637 632 0
-65 637 -632 0
-66 -637 632 0
-66 637 -632 0
-67 -632 637 0
-67 -629 637 0
-67 -637 632 629 0
-68 -637 632 0
-68 637 -632 0
-69 -632 637 0
-69 -630 637 0
-69 -637 632 630 0
-70 -632 637 0
-70 -631 637 0
-70 -637 632 631 0
-77 -637 632 0
-77 637 -632 0
638 0
-1 -643 638 0
-1 -643 639 0
-1 643 -638 -639 0
-2 -643 638 0
-2 -643 640 0
-2 643 -638 -640 0
-3 -643 638 0
-3 -643 641 0
-3 643 -638 -641 0
-4 -643 638 0
-4 -643 642 0
-4 643 -638 -642 0
-5 -643 638 0
-5 643 -638 0
-6 -643 638 0
-6 643 -638 0
-7 -643 638 0
-7 643 -638 0
-8 -643 638 0
-8 643 -638 0
-9 -643 638 0
-9 643 -638 0
-10 -643 638 0
-10 643 -638 0
-71 -643 638 0
-71 643 -638 0
-639 0
-1 -639 644 0
-1 -638 644 0
-1 -644 639 638 0
-2 -644 639 0
-2 644 -639 0
-3 -644 639 0
-3 644 -639 0
-4 -644 639 0
-4 644 -639 0
-5 -644 639 0
-5 -644 640 0
-5 644 -639 -640 0
-6 -644 639 0
-6 -644 641 0
-6 644 -639 -641 0
-7 -644 639 0
-7 -644 642 0
-7 644 -639 -642 0
-8 -644 639 0
-8 644 -639 0
-9 -644 639 0
-9 644 -639 0
-10 -644 639 0
-10 644 -639 0
-71 -644 639 0
-71 644 -639 0
-640 0
-1 -645 640 0
-1 645 -640 0
-2 -640 645 0
-2 -638 645 0
-2 -645 640 638 0
-3 -645 640 0
-3 645 -640 0
-4 -645 640 0
-4 645 -640 0
-5 -640 645 0
-5 -639 645 0
-5 -645 640 639 0
-6 -645 640 0
-6 645 -640 0
-7 -645 640 0
-7 645 -640 0
-8 -645 640 0
-8 -645 641 0
-8 645 -640 -641 0
-9 -645 640 0
-9 -645 642 0
-9 645 -640 -642 0
-10 -645 640 0
-10 645 -640 0
-71 -645 640 0
-71 645 -640 0
641 0
-1 -646 641 0
-1 646 -641 0
-2 -646 641 0
-2 646 -641 0
-3 -641 646 0
-3 -638 646 0
-3 -646 641 638 0
-4 -646 641 0
-4 646 -641 0
-5 -646 641 0
-5 646 -641 0
-6 -641 646 0
-6 -639 646 0
-6 -646 641 639 0
-7 -646 641 0
-7 646 -641 0
-8 -641 646 0
-8 -640 646 0
-8 -646 641 640 0
-9 -646 641 0
-9 646 -641 0
-10 -646 641 0
-10 -646 642 0
-10 646 -641 -642 0
-71 -646 641 0
-71 646 -641 0
642 0
-1 -647 642 0
-1 647 -642 0
-2 -647 642 0
-2 647 -642 0
-3 -647 642 0
-3 647 -642 0
-4 -642 647 0
-4 -638 647 0
-4 -647 642 638 0
-5 -647 642 0
-5 647 -642 0
-6 -647 642 0
-6 647 -642 0
-7 -642 647 0
-7 -639 647 0
-7 -647 642 639 0
-8 -647 642 0
-8 647 -642 0
-9 -642 647 0
-9 -640 647 0
-9 -647 642 640 0
-10 -642 647 0
-10 -641 647 0
-10 -647 642 641 0
-71 -647 642 0
-71 647 -642 0
-11 -648 643 0
-11 -648 644 0
-11 648 -643 -644 0
-12 -648 643 0
-12 -648 645 0
-12 648 -643 -645 0
-13 -648 643 0
-13 -648 646 0
-13 648 -643 -646 0
-14 -648 643 0
-14 -648 647 0
-14 648 -643 -647 0
-15 -648 643 0
-15 648 -643 0
-16 -648 643 0
-16 648 -643 0
-17 -648 643 0
-17 648 -643 0
-18 -648 643 0
-18 648 -643 0
-19 -648 643 0
-19 648 -643 0
-20 -648 643 0
-20 648 -643 0
-72 -648 643 0
-72 648 -643 0
-11 -644 649 0
-11 -643 649 0
-11 -649 644 643 0
-12 -649 644 0
-12 649 -644 0
-13 -649 644 0
-13 649 -644 0
-14 -649 644 0
-14 649 -644 0
-15 -649 644 0
-15 -649 645 0
-15 649 -644 -645 0
-16 -649 644 0
-16 -649 646 0
-16 649 -644 -646 0
-17 -649 644 0
-17 -649 647 0
-17 649 -644 -647 0
-18 -649 644 0
-18 649 -644 0
-19 -649 644 0
-19 649 -644 0
-20 -649 644 0
-20 649 -644 0
-72 -649 644 0
-72 649 -644 0
-11 -650 645 0
-11 650 -645 0
-12 -645 650 0
-12 -643 650 0
-12 -650 645 643 0
-13 -650 645 0
-13 650 -645 0
-14 -650 645 0
-14 650 -645 0
-15 -645 650 0
-15 -644 650 0
-15 -650 645 644 0
-16 -650 645 0
-16 650 -645 0
-17 -650 645 0
-17 650 -645 0
-18 -650 645 0
-18 -650 646 0
-18 650 -645 -646 0
-19 -650 645 0
-19 -650 647 0
-19 650 -645 -647 0
-20 -650 645 0
-20 650 -645 0
-72 -650 645 0
-72 650 -645 0
-11 -651 646 0
-11 651 -646 0
-12 -651 646 0
-12 651 -646 0
-13 -646 651 0
-13 -643 651 0
-13 -651 646 643 0
-14 -651 646 0
-14 651 -646 0
-15 -651 646 0
-15 651 -646 0
-16 -646 651 0
-16 -644 651 0
-16 -651 646 644 0
-17 -651 646 0
-17 651 -646 0
-18 -646 651 0
-18 -645 651 0
-18 -651 646 645 0
-19 -651 646 0
-19 651 -646 0
-20 -651 646 0
-20 -651 647 0
-20 651 -646 -647 0
-72 -651 646 0
-72 651 -646 0
-11 -652 647 0
-11 652 -647 0
-12 -652 647 0
-12 652 -647 0
-13 -652 647 0
-13 652 -647 0
-14 -647 652 0
-14 -643 652 0
-14 -652 647 643 0
-15 -652 647 0
-15 652 -647 0
-16 -652 647 0
-16 652 -647 0
-17 -647 652 0
-17 -644 652 0
-17 -652 647 644 0
-18 -652 647 0
-18 652 -647 0
-19 -647 652 0
-19 -645 652 0
-19 -652 647 645 0
-20 -647 652 0
-20 -646 652 0
-20 -652 647 646 0
-72 -652 647 0
-72 652 -647 0
-21 -653 648 0
-21 -653 649 0
-21 653 -648 -649 0
-22 -653 648 0
-22 -653 650 0
-22 653 -648 -650 0
-23 -653 648 0
-23 -653 651 0
-23 653 -648 -651 0
-24 -653 648 0
-24 -653 652 0
-24 653 -648 -652 0
-25 -653 648 0
-25 653 -648 0
-26 -653 648 0
-26 653 -648 0
-27 -653 648 0
-27 653 -648 0
-28 -653 648 0
-28 653 -648 0
-29 -653 648 0
-29 653 -648 0
-30 -653 648 0
-30 653 -648 0
-73 -653 648 0
-73 653 -648 0
-21 -649 654 0
-21 -648 654 0
-21 -654 649 648 0
-22 -654 649 0
-22 654 -649 0
-23 -654 649 0
-23 654 -649 0
-24 -654 649 0
-24 654 -649 0
-25 -654 649 0
-25 -654 650 0
-25 654 -649 -650 0
-26 -654 649 0
-26 -654 651 0
-26 654 -649 -651 0
-27 -654 649 0
-27 -654 652 0
-27 654 -649 -652 0
-28 -654 649 0
-28 654 -649 0
-29 -654 649 0
-29 654 -649 0
-30 -654 649 0
-30 654 -649 0
-73 -654 649 0
-73 654 -649 0
-21 -655 650 0
-21 655 -650 0
-22 -650 655 0
-22 -648 655 0
-22 -655 650 648 0
-23 -655 650 0
-23 655 -650 0
-24 -655 650 0
-24 655 -650 0
-25 -650 655 0
-25 -649 655 0
-25 -655 650 649 0
-26 -655 650 0
-26 655 -650 0
-27 -655 650 0
-27 655 -650 0
-28 -655 650 0
-28 -655 651 0
-28 655 -650 -651 0
-29 -655 650 0
-29 -655 652 0
-29 655 -650 -652 0
-30 -655 650 0
-30 655 -650 0
-73 -655 650 0
-73 655 -650 0
-21 -656 651 0
-21 656 -651 0
-22 -656 651 0
-22 656 -651 0
-23 -651 656 0
-23 -648 656 0
-23 -656 651 648 0
-24 -656 651 0
-24 656 -651 0
-25 -656 651 0
-25 656 -651 0
-26 -651 656 0
-26 -649 656 0
-26 -656 651 649 0
-27 -656 651 0
-27 656 -651 0
-28 -651 656 0
-28 -650 656 0
-28 -656 651 650 0
-29 -656 651 0
-29 656 -651 0
-30 -656 651 0
-30 -656 652 0
-30 656 -651 -652 0
-73 -656 651 0
-73 656 -651 0
-21 -657 652 0
-21 657 -652 0
-22 -657 652 0
-22 657 -652 0
-23 -657 652 0
-23 657 -652 0
-24 -652 657 0
-24 -648 657 0
-24 -657 652 648 0
-25 -657 652 0
-25 657 -652 0
-26 -657 652 0
-26 657 -652 0
-27 -652 657 0
-27 -649 657 0
-27 -657 652 649 0
-28 -657 652 0
-28 657 -652 0
-29 -652 657 0
-29 -650 657 0
-29 -657 652 650 0
-30 -652 657 0
-30 -651 657 0
-30 -657 652 651 0
-73 -657 652 0
-73 657 -652 0
-31 -658 653 0
-31 -658 654 0
-31 658 -653 -654 0
-32 -658 653 0
-32 -658 655 0
-32 658 -653 -655 0
-33 -658 653 0
-33 -658 656 0
-33 658 -653 -656 0
-34 -658 653 0
-34 -658 657 0
-34 658 -653 -657 0
-35 -658 653 0
-35 658 -653 0
-36 -658 653 0
-36 658 -653 0
-37 -658 653 0
-37 658 -653 0
-38 -658 653 0
-38 658 -653 0
-39 -658 653 0
-39 658 -653 0
-40 -658 653 0
-40 658 -653 0
-74 -658 653 0
-74 658 -653 0
-31 -654 659 0
-31 -653 659 0
-31 -659 654 653 0
-32 -659 654 0
-32 659 -654 0
-33 -659 654 0
-33 659 -654 0
-34 -659 654 0
-34 659 -654 0
-35 -659 654 0
-35 -659 655 0
-35 659 -654 -655 0
-36 -659 654 0
-36 -659 656 0
-36 659 -654 -656 0
-37 -659 654 0
-37 -659 657 0
-37 659 -654 -657 0
-38 -659 654 0
-38 659 -654 0
-39 -659 654 0
-39 659 -654 0
-40 -659 654 0
-40 659 -654 0
-74 -659 654 0
-74 659 -654 0
-31 -660 655 0
-31 660 -655 0
-32 -655 660 0
-32 -653 660 0
-32 -660 655 653 0
-33 -660 655 0
-33 660 -655 0
-34 -660 655 0
-34 660 -655 0
-35 -655 660 0
-35 -654 660 0
-35 -660 655 654 0
-36 -660 655 0
-36 660 -655 0
-37 -660 655 0
-37 660 -655 0
-38 -660 655 0
-38 -660 656 0
-38 660 -655 -656 0
-39 -660 655 0
-39 -660 657 0
-39 660 -655 -657 0
-40 -660 655 0
-40 660 -655 0
-74 -660 655 0
-74 660 -655 0
-31 -661 656 0
-31 661 -656 0
-32 -661 656 0
-32 661 -656 0
-33 -656 661 0
-33 -653 661 0
-33 -661 656 653 0
-34 -661 656 0
-34 661 -656 0
-35 -661 656 0
-35 661 -656 0
-36 -656 661 0
-36 -654 661 0
-36 -661 656 654 0
-37 -661 656 0
-37 661 -656 0
-38 -656 661 0
-38 -655 661 0
-38 -661 656 655 0
-39 -661 656 0
-39 661 -656 0
-40 -661 656 0
-40 -661 657 0
-40 661 -656 -657 0
-74 -661 656 0
-74 661 -656 0
-31 -662 657 0
-31 662 -657 0
-32 -662 657 0
-32 662 -657 0
-33 -662 657 0
-33 662 -657 0
-34 -657 662 0
-34 -653 662 0
-34 -662 657 653 0
-35 -662 657 0
-35 662 -657 0
-36 -662 657 0
-36 662 -657 0
-37 -657 662 0
-37 -654 662 0
-37 -662 657 654 0
-38 -662 657 0
-38 662 -657 0
-39 -657 662 0
-39 -655 662 0
-39 -662 657 655 0
-40 -657 662 0
-40 -656 662 0
-40 -662 657 656 0
-74 -662 657 0
-74 662 -657 0
-41 -663 658 0
-41 -663 659 0
-41 663 -658 -659 0
-42 -663 658 0
-42 -663 660 0
-42 663 -658 -660 0
-43 -663 658 0
-43 -663 661 0
-43 663 -658 -661 0
-44 -663 658 0
-44 -663 662 0
-44 663 -658 -662 0
-45 -663 658 0
-45 663 -658 0
-46 -663 658 0
-46 663 -658 0
-47 -663 658 0
-47 663 -658 0
-48 -663 658 0
-48 663 -658 0
-49 -663 658 0
-49 663 -658 0
-50 -663 658 0
-50 663 -658 0
-75 -663 658 0
-75 663 -658 0
-41 -659 664 0
-41 -658 664 0
-41 -664 659 658 0
-42 -664 659 0
-42 664 -659 0
-43 -664 659 0
-43 664 -659 0
-44 -664 659 0
-44 664 -659 0
-45 -664 659 0
-45 -664 660 0
-45 664 -659 -660 0
-46 -664 659 0
-46 -664 661 0
-46 664 -659 -661 0
-47 -664 659 0
-47 -664 662 0
-47 664 -659 -662 0
-48 -664 659 0
-48 664 -659 0
-49 -664 659 0
-49 664 -659 0
-50 -664 659 0
-50 664 -659 0
-75 -664 659 0
-75 664 -659 0
-41 -665 660 0
-41 665 -660 0
-42 -660 665 0
-42 -658 665 0
-42 -665 660 658 0
-43 -665 660 0
-43 665 -660 0
-44 -665 660 0
-44 665 -660 0
-45 -660 665 0
-45 -659 665 0
-45 -665 660 659 0
-46 -665 660 0
-46 665 -660 0
-47 -665 660 0
-47 665 -660 0
-48 -665 660 0
-48 -665 661 0
-48 665 -660 -661 0
-49 -665 660 0
-49 -665 662 0
-49 665 -660 -662 0
-50 -665 660 0
-50 665 -660 0
-75 -665 660 0
-75 665 -660 0
-41 -666 661 0
-41 666 -661 0
-42 -666 661 0
-42 666 -661 0
-43 -661 666 0
-43 -658 666 0
-43 -666 661 658 0
-44 -666 661 0
-44 666 -661 0
-45 -666 661 0
-45 666 -661 0
-46 -661 666 0
-46 -659 666 0
-46 -666 661 659 0
-47 -666 661 0
-47 666 -661 0
-48 -661 666 0
-48 -660 666 0
-48 -666 661 660 0
-49 -666 661 0
-49 666 -661 0
-50 -666 661 0
-50 -666 662 0
-50 666 -661 -662 0
-75 -666 661 0
-75 666 -661 0
-41 -667 662 0
-41 667 -662 0
-42 -667 662 0
-42 667 -662 0
-43 -667 662 0
-43 667 -662 0
-44 -662 667 0
-44 -658 667 0
-44 -667 662 658 0
-45 -667 662 0
-45 667 -662 0
-46 -667 662 0
-46 667 -662 0
-47 -662 667 0
-47 -659 667 0
-47 -667 662 659 0
-48 -667 662 0
-48 667 -662 0
-49 -662 667 0
-49 -660 667 0
-49 -667 662 660 0
-50 -662 667 0
-50 -661 667 0
-50 -667 662 661 0
-75 -667 662 0
-75 667 -662 0
-51 -668 663 0
-51 -668 664 0
-51 668 -663 -664 0
-52 -668 663 0
-52 -668 665 0
-52 668 -663 -665 0
-53 -668 663 0
-53 -668 666 0
-53 668 -663 -666 0
-54 -668 663 0
-54 -668 667 0
-54 668 -663 -667 0
-55 -668 663 0
-55 668 -663 0
-56 -668 663 0
-56 668 -663 0
-57 -668 663 0
-57 668 -663 0
-58 -668 663 0
-58 668 -663 0
-59 -668 663 0
-59 668 -663 0
-60 -668 663 0
-60 668 -663 0
-76 -668 663 0
-76 668 -663 0
-51 -664 669 0
-51 -663 669 0
-51 -669 664 663 0
-52 -669 664 0
-52 669 -664 0
-53 -669 664 0
-53 669 -664 0
-54 -669 664 0
-54 669 -664 0
-55 -669 664 0
-55 -669 665 0
-55 669 -664 -665 0
-56 -669 664 0
-56 -669 666 0
-56 669 -664 -666 0
-57 -669 664 0
-57 -669 667 0
-57 669 -664 -667 0
-58 -669 664 0
-58 669 -664 0
-59 -669 664 0
-59 669 -664 0
-60 -669 664 0
-60 669 -664 0
-76 -669 664 0
-76 669 -664 0
-51 -670 665 0
-51 670 -665 0
-52 -665 670 0
-52 -663 670 0
-52 -670 665 663 0
-53 -670 665 0
-53 670 -665 0
-54 -670 665 0
-54 670 -665 0
-55 -665 670 0
-55 -664 670 0
-55 -670 665 664 0
-56 -670 665 0
-56 670 -665 0
-57 -670 665 0
-57 670 -665 0
-58 -670 665 0
-58 -670 666 0
-58 670 -665 -666 0
-59 -670 665 0
-59 -670 667 0
-59 670 -665 -667 0
-60 -670 665 0
-60 670 -665 0
-76 -670 665 0
-76 670 -665 0
-51 -671 666 0
-51 671 -666 0
-52 -671 666 0
-52 671 -666 0
-53 -666 671 0
-53 -663 671 0
-53 -671 666 663 0
-54 -671 666 0
-54 671 -666 0
-55 -671 666 0
-55 671 -666 0
-56 -666 671 0
-56 -664 671 0
-56 -671 666 664 0
-57 -671 666 0
-57 671 -666 0
-58 -666 671 0
-58 -665 671 0
-58 -671 666 665 0
-59 -671 666 0
-59 671 -666 0
-60 -671 666 0
-60 -671 667 0
-60 671 -666 -667 0
-76 -671 666 0
-76 671 -666 0
-51 -672 667 0
-51 672 -667 0
-52 -672 667 0
-52 672 -667 0
-53 -672 667 0
-53 672 -667 0
-54 -667 672 0
-54 -663 672 0
-54 -672 667 663 0
-55 -672 667 0
-55 672 -667 0
-56 -672 667 0
-56 672 -667 0
-57 -667 672 0
-57 -664 672 0
-57 -672 667 664 0
-58 -672 667 0
-58 672 -667 0
-59 -667 672 0
-59 -665 672 0
-59 -672 667 665 0
-60 -667 672 0
-60 -666 672 0
-60 -672 667 666 0
-76 -672 667 0
-76 672 -667 0
-61 -673 668 0
-61 -673 669 0
-61 673 -668 -669 0
-62 -673 668 0
-62 -673 670 0
-62 673 -668 -670 0
-63 -673 668 0
-63 -673 671 0
-63 673 -668 -671 0
-64 -673 668 0
-64 -673 672 0
-64 673 -668 -672 0
-65 -673 668 0
-65 673 -668 0
-66 -673 668 0
-66 673 -668 0
-67 -673 668 0
-67 673 -668 0
-68 -673 668 0
-68 673 -668 0
-69 -673 668 0
-69 673 -668 0
-70 -673 668 0
-70 673 -668 0
-77 -673 668 0
-77 673 -668 0
-61 -669 674 0
-61 -668 674 0
-61 -674 669 668 0
-62 -674 669 0
-62 674 -669 0
-63 -674 669 0
-63 674 -669 0
-64 -674 669 0
-64 674 -669 0
-65 -674 669 0
-65 -674 670 0
-65 674 -669 -670 0
-66 -674 669 0
-66 -674 671 0
-66 674 -669 -671 0
-67 -674 669 0
-67 -674 672 0
-67 674 -669 -672 0
-68 -674 669 0
-68 674 -669 0
-69 -674 669 0
-69 674 -669 0
-70 -674 669 0
-70 674 -669 0
-77 -674 669 0
-77 674 -669 0
-61 -675 670 0
-61 675 -670 0
-62 -670 675 0
-62 -668 675 0
-62 -675 670 668 0
-63 -675 670 0
-63 675 -670 0
-64 -675 670 0
-64 675 -670 0
-65 -670 675 0
-65 -669 675 0
-65 -675 670 669 0
-66 -675 670 0
-66 675 -670 0
-67 -675 670 0
-67 675 -670 0
-68 -675 670 0
-68 -675 671 0
-68 675 -670 -671 0
-69 -675 670 0
-69 -675 672 0
-69 675 -670 -672 0
-70 -675 670 0
-70 675 -670 0
-77 -675 670 0
-77 675 -670 0
-61 -676 671 0
-61 676 -671 0
-62 -676 671 0
-62 676 -671 0
-63 -671 676 0
-63 -668 676 0
-63 -676 671 668 0
-64 -676 671 0
-64 676 -671 0
-65 -676 671 0
-65 676 -671 0
-66 -671 676 0
-66 -669 676 0
-66 -676 671 669 0
-67 -676 671 0
-67 676 -671 0
-68 -671 676 0
-68 -670 676 0
-68 -676 671 670 0
-69 -676 671 0
-69 676 -671 0
-70 -676 671 0
-70 -676 672 0
-70 676 -671 -672 0
-77 -676 671 0
-77 676 -671 0
-61 -677 672 0
-61 677 -672 0
-62 -677 672 0
-62 677 -672 0
-63 -677 672 0
-63 677 -672 0
-64 -672 677 0
-64 -668 677 0
-64 -677 672 668 0
-65 -677 672 0
-65 677 -672 0
-66 -677 672 0
-66 677 -672 0
-67 -672 677 0
-67 -669 677 0
-67 -677 672 669 0
-68 -677 672 0
-68 677 -672 0
-69 -672 677 0
-69 -670 677 0
-69 -677 672 670 0
-70 -672 677 0
-70 -671 677 0
-70 -677 672 671 0
-77 -677 672 0
-77 677 -672 0
678 0
-1 -683 678 0
-1 -683 679 0
-1 683 -678 -679 0
-2 -683 678 0
-2 -683 680 0
-2 683 -678 -680 0
-3 -683 678 0
-3 -683 681 0
-3 683 -678 -681 0
-4 -683 678 0
-4 -683 682 0
-4 683 -678 -682 0
-5 -683 678 0
-5 683 -678 0
-6 -683 678 0
-6 683 -678 0
-7 -683 678 0
-7 683 -678 0
-8 -683 678 0
-8 683 -678 0
-9 -683 678 0
-9 683 -678 0
-10 -683 678 0
-10 683 -678 0
-71 -683 678 0
-71 683 -678 0
-679 0
-1 -679 684 0
-1 -678 684 0
-1 -684 679 678 0
-2 -684 679 0
-2 684 -679 0
-3 -684 679 0
-3 684 -679 0
-4 -684 679 0
-4 684 -679 0
-5 -684 679 0
-5 -684 680 0
-5 684 -679 -680 0
-6 -684 679 0
-6 -684 681 0
-6 684 -679 -681 0
-7 -684 679 0
-7 -684 682 0
-7 684 -679 -682 0
-8 -684 679 0
-8 684 -679 0
-9 -684 679 0
-9 684 -679 0
-10 -684 679 0
-10 684 -679 0
-71 -684 679 0
-71 684 -679 0
680 0
-1 -685 680 0
-1 685 -680 0
-2 -680 685 0
-2 -678 685 0
-2 -685 680 678 0
-3 -685 680 0
-3 685 -680 0
-4 -685 680 0
-4 685 -680 0
-5 -680 685 0
-5 -679 685 0
-5 -685 680 679 0
-6 -685 680 0
-6 685 -680 0
-7 -685 680 0
-7 685 -680 0
-8 -685 680 0
-8 -685 681 0
-8 685 -680 -681 0
-9 -685 680 0
-9 -685 682 0
-9 685 -680 -682 0
-10 -685 680 0
-10 685 -680 0
-71 -685 680 0
-71 685 -680 0
-681 0
-1 -686 681 0
-1 686 -681 0
-2 -686 681 0
-2 686 -681 0
-3 -681 686 0
-3 -678 686 0
-3 -686 681 678 0
-4 -686 681 0
-4 686 -681 0
-5 -686 681 0
-5 686 -681 0
-6 -681 686 0
-6 -679 686 0
-6 -686 681 679 0
-7 -686 681 0
-7 686 -681 0
-8 -681 686 0
-8 -680 686 0
-8 -686 681 680 0
-9 -686 681 0
-9 686 -681 0
-10 -686 681 0
-10 -686 682 0
-10 686 -681 -682 0
-71 -686 681 0
-71 686 -681 0
-682 0
-1 -687 682 0
-1 687 -682 0
-2 -687 682 0
-2 687 -682 0
-3 -687 682 0
-3 687 -682 0
-4 -682 687 0
-4 -678 687 0
-4 -687 682 678 0
-5 -687 682 0
-5 687 -682 0
-6 -687 682 0
-6 687 -682 0
-7 -682 687 0
-7 -679 687 0
-7 -687 682 679 0
-8 -687 682 0
-8 687 -682 0
-9 -682 687 0
-9 -680 687 0
-9 -687 682 680 0
-10 -682 687 0
-10 -681 687 0
-10 -687 682 681 0
-71 -687 682 0
-71 687 -682 0
-11 -688 683 0
-11 -688 684 0
-11 688 -683 -684 0
-12 -688 683 0
-12 -688 685 0
-12 688 -683 -685 0
-13 -688 683 0
-13 -688 686 0
-13 688 -683 -686 0
-14 -688 683 0
-14 -688 687 0
-14 688 -683 -687 0
-15 -688 683 0
-15 688 -683 0
-16 -688 683 0
-16 688 -683 0
-17 -688 683 0
-17 688 -683 0
-18 -688 683 0
-18 688 -683 0
-19 -688 683 0
-19 688 -683 0
-20 -688 683 0
-20 688 -683 0
-72 -688 683 0
-72 688 -683 0
-11 -684 689 0
-11 -683 689 0
-11 -689 684 683 0
-12 -689 684 0
-12 689 -684 0
-13 -689 684 0
-13 689 -684 0
-14 -689 684 0
-14 689 -684 0
-15 -689 684 0
-15 -689 685 0
-15 689 -684 -685 0
-16 -689 684 0
-16 -689 686 0
-16 689 -684 -686 0
-17 -689 684 0
-17 -689 687 0
-17 689 -684 -687 0
-18 -689 684 0
-18 689 -684 0
-19 -689 684 0
-19 689 -684 0
-20 -689 684 0
-20 689 -684 0
-72 -689 684 0
-72 689 -684 0
-11 -690 685 0
-11 690 -685 0
-12 -685 690 0
-12 -683 690 0
-12 -690 685 683 0
-13 -690 685 0
-13 690 -685 0
-14 -690 685 0
-14 690 -685 0
-15 -685 690 0
-15 -684 690 0
-15 -690 685 684 0
-16 -690 685 0
-16 690 -685 0
-17 -690 685 0
-17 690 -685 0
-18 -690 685 0
-18 -690 686 0
-18 690 -685 -686 0
-19 -690 685 0
-19 -690 687 0
-19 690 -685 -687 0
-20 -690 685 0
-20 690 -685 0
-72 -690 685 0
-72 690 -685 0
-11 -691 686 0
-11 691 -686 0
-12 -691 686 0
-12 691 -686 0
-13 -686 691 0
-13 -683 691 0
-13 -691 686 683 0
-14 -691 686 0
-14 691 -686 0
-15 -691 686 0
-15 691 -686 0
-16 -686 691 0
-16 -684 691 0
-16 -691 686 684 0
-17 -691 686 0
-17 691 -686 0
-18 -686 691 0
-18 -685 691 0
-18 -691 686 685 0
-19 -691 686 0
-19 691 -686 0
-20 -691 686 0
-20 -691 687 0
-20 691 -686 -687 0
-72 -691 686 0
-72 691 -686 0
-11 -692 687 0
-11 692 -687 0
-12 -692 687 0
-12 692 -687 0
-13 -692 687 0
-13 692 -687 0
-14 -687 692 0
-14 -683 692 0
-14 -692 687 683 0
-15 -692 687 0
-15 692 -687 0
-16 -692 687 0
-16 692 -687 0
-17 -687 692 0
-17 -684 692 0
-17 -692 687 684 0
-18 -692 687 0
-18 692 -687 0
-19 -687 692 0
-19 -685 692 0
-19 -692 687 685 0
-20 -687 692 0
-20 -686 692 0
-20 -692 687 686 0
-72 -692 687 0
-72 692 -687 0
-21 -693 688 0
-21 -693 689 0
-21 693 -688 -689 0
-22 -693 688 0
-22 -693 690 0
-22 693 -688 -690 0
-23 -693 688 0
-23 -693 691 0
-23 693 -688 -691 0
-24 -693 688 0
-24 -693 692 0
-24 693 -688 -692 0
-25 -693 688 0
-25 693 -688 0
-26 -693 688 0
-26 693 -688 0
-27 -693 688 0
-27 693 -688 0
-28 -693 688 0
-28 693 -688 0
-29 -693 688 0
-29 693 -688 0
-30 -693 688 0
-30 693 -688 0
-73 -693 688 0
-73 693 -688 0
-21 -689 694 0
-21 -688 694 0
-21 -694 689 688 0
-22 -694 689 0
-22 694 -689 0
-23 -694 689 0
-23 694 -689 0
-24 -694 689 0
-24 694 -689 0
-25 -694 689 0
-25 -694 690 0
-25 694 -689 -690 0
-26 -694 689 0
-26 -694 691 0
-26 694 -689 -691 0
-27 -694 689 0
-27 -694 692 0
-27 694 -689 -692 0
-28 -694 689 0
-28 694 -689 0
-29 -694 689 0
-29 694 -689 0
-30 -694 689 0
-30 694 -689 0
-73 -694 689 0
-73 694 -689 0
-21 -695 690 0
-21 695 -690 0
-22 -690 695 0
-22 -688 695 0
-22 -695 690 688 0
-23 -695 690 0
-23 695 -690 0
-24 -695 690 0
-24 695 -690 0
-25 -690 695 0
-25 -689 695 0
-25 -695 690 689 0
-26 -695 690 0
-26 695 -690 0
-27 -695 690 0
-27 695 -690 0
-28 -695 690 0
-28 -695 691 0
-28 695 -690 -691 0
-29 -695 690 0
-29 -695 692 0
-29 695 -690 -692 0
-30 -695 690 0
-30 695 -690 0
-73 -695 690 0
-73 695 -690 0
-21 -696 691 0
-21 696 -691 0
-22 -696 691 0
-22 696 -691 0
-23 -691 696 0
-23 -688 696 0
-23 -696 691 688 0
-24 -696 691 0
-24 696 -691 0
-25 -696 691 0
-25 696 -691 0
-26 -691 696 0
-26 -689 696 0
-26 -696 691 689 0
-27 -696 691 0
-27 696 -691 0
-28 -691 696 0
-28 -690 696 0
-28 -696 691 690 0
-29 -696 691 0
-29 696 -691 0
-30 -696 691 0
-30 -696 692 0
-30 696 -691 -692 0
-73 -696 691 0
-73 696 -691 0
-21 -697 692 0
-21 697 -692 0
-22 -697 692 0
-22 697 -692 0
-23 -697 692 0
-23 697 -692 0
-24 -692 697 0
-24 -688 697 0
-24 -697 692 688 0
-25 -697 692 0
-25 697 -692 0
-26 -697 692 0
-26 697 -692 0
-27 -692 697 0
-27 -689 697 0
-27 -697 692 689 0
-28 -697 692 0
-28 697 -692 0
-29 -692 697 0
-29 -690 697 0
-29 -697 692 690 0
-30 -692 697 0
-30 -691 697 0
-30 -697 692 691 0
-73 -697 692 0
-73 697 -692 0
-31 -698 693 0
-31 -698 694 0
-31 698 -693 -694 0
-32 -698 693 0
-32 -698 695 0
-32 698 -693 -695 0
-33 -698 693 0
-33 -698 696 0
-33 698 -693 -696 0
-34 -698 693 0
-34 -698 697 0
-34 698 -693 -697 0
-35 -698 693 0
-35 698 -693 0
-36 -698 693 0
-36 698 -693 0
-37 -698 693 0
-37 698 -693 0
-38 -698 693 0
-38 698 -693 0
-39 -698 693 0
-39 698 -693 0
-40 -698 693 0
-40 698 -693 0
-74 -698 693 0
-74 698 -693 0
-31 -694 699 0
-31 -693 699 0
-31 -699 694 693 0
-32 -699 694 0
-32 699 -694 0
-33 -699 694 0
-33 699 -694 0
-34 -699 694 0
-34 699 -694 0
-35 -699 694 0
-35 -699 695 0
-35 699 -694 -695 0
-36 -699 694 0
-36 -699 696 0
-36 699 -694 -696 0
-37 -699 694 0
-37 -699 697 0
-37 699 -694 -697 0
-38 -699 694 0
-38 699 -694 0
-39 -699 694 0
-39 699 -694 0
-40 -699 694 0
-40 699 -694 0
-74 -699 694 0
-74 699 -694 0
-31 -700 695 0
-31 700 -695 0
-32 -695 700 0
-32 -693 700 0
-32 -700 695 693 0
-33 -700 695 0
-33 700 -695 0
-34 -700 695 0
-34 700 -695 0
-35 -695 700 0
-35 -694 700 0
-35 -700 695 694 0
-36 -700 695 0
-36 700 -695 0
-37 -700 695 0
-37 700 -695 0
-38 -700 695 0
-38 -700 696 0
-38 700 -695 -696 0
-39 -700 695 0
-39 -700 697 0
-39 700 -695 -697 0
-40 -700 695 0
-40 700 -695 0
-74 -700 695 0
-74 700 -695 0
-31 -701 696 0
-31 701 -696 0
-32 -701 696 0
-32 701 -696 0
-33 -696 701 0
-33 -693 701 0
-33 -701 696 693 0
-34 -701 696 0
-34 701 -696 0
-35 -701 696 0
-35 701 -696 0
-36 -696 701 0
-36 -694 701 0
-36 -701 696 694 0
-37 -701 696 0
-37 701 -696 0
-38 -696 701 0
-38 -695 701 0
-38 -701 696 695 0
-39 -701 696 0
-39 701 -696 0
-40 -701 696 0
-40 -701 697 0
-40 701 -696 -697 0
-74 -701 696 0
-74 701 -696 0
-31 -702 697 0
-31 702 -697 0
-32 -702 697 0
-32 702 -697 0
-33 -702 697 0
-33 702 -697 0
-34 -697 702 0
-34 -693 702 0
-34 -702 697 693 0
-35 -702 697 0
-35 702 -697 0
-36 -702 697 0
-36 702 -697 0
-37 -697 702 0
-37 -694 702 0
-37 -702 697 694 0
-38 -702 697 0
-38 702 -697 0
-39 -697 702 0
-39 -695 702 0
-39 -702 697 695 0
-40 -697 702 0
-40 -696 702 0
-40 -702 697 696 0
-74 -702 697 0
-74 702 -697 0
-41 -703 698 0
-41 -703 699 0
-41 703 -698 -699 0
-42 -703 698 0
-42 -703 700 0
-42 703 -698 -700 0
-43 -703 698 0
-43 -703 701 0
-43 703 -698 -701 0
-44 -703 698 0
-44 -703 702 0
-44 703 -698 -702 0
-45 -703 698 0
-45 703 -698 0
-46 -703 698 0
-46 703 -698 0
-47 -703 698 0
-47 703 -698 0
-48 -703 698 0
-48 703 -698 0
-49 -703 698 0
-49 703 -698 0
-50 -703 698 0
-50 703 -698 0
-75 -703 698 0
-75 703 -698 0
-41 -699 704 0
-41 -698 704 0
-41 -704 699 698 0
-42 -704 699 0
-42 704 -699 0
-43 -704 699 0
-43 704 -699 0
-44 -704 699 0
-44 704 -699 0
-45 -704 699 0
-45 -704 700 0
-45 704 -699 -700 0
-46 -704 699 0
-46 -704 701 0
-46 704 -699 -701 0
-47 -704 699 0
-47 -704 702 0
-47 704 -699 -702 0
-48 -704 699 0
-48 704 -699 0
-49 -704 699 0
-49 704 -699 0
-50 -704 699 0
-50 704 -699 0
-75 -704 699 0
-75 704 -699 0
-41 -705 700 0
-41 705 -700 0
-42 -700 705 0
-42 -698 705 0
-42 -705 700 698 0
-43 -705 700 0
-43 705 -700 0
-44 -705 700 0
-44 705 -700 0
-45 -700 705 0
-45 -699 705 0
-45 -705 700 699 0
-46 -705 700 0
-46 705 -700 0
-47 -705 700 0
-47 705 -700 0
-48 -705 700 0
-48 -705 701 0
-48 705 -700 -701 0
-49 -705 700 0
-49 -705 702 0
-49 705 -700 -702 0
-50 -705 700 0
-50 705 -700 0
-75 -705 700 0
-75 705 -700 0
-41 -706 701 0
-41 706 -701 0
-42 -706 701 0
-42 706 -701 0
-43 -701 706 0
-43 -698 706 0
-43 -706 701 698 0
-44 -706 701 0
-44 706 -701 0
-45 -706 701 0
-45 706 -701 0
-46 -701 706 0
-46 -699 706 0
-46 -706 701 699 0
-47 -706 701 0
-47 706 -701 0
-48 -701 706 0
-48 -700 706 0
-48 -706 701 700 0
-49 -706 701 0
-49 706 -701 0
-50 -706 701 0
-50 -706 702 0
-50 706 -701 -702 0
-75 -706 701 0
-75 706 -701 0
-41 -707 702 0
-41 707 -702 0
-42 -707 702 0
-42 707 -702 0
-43 -707 702 0
-43 707 -702 0
-44 -702 707 0
-44 -698 707 0
-44 -707 702 698 0
-45 -707 702 0
-45 707 -702 0
-46 -707 702 0
-46 707 -702 0
-47 -702 707 0
-47 -699 707 0
-47 -707 702 699 0
-48 -707 702 0
-48 707 -702 0
-49 -702 707 0
-49 -700 707 0
-49 -707 702 700 0
-50 -702 707 0
-50 -701 707 0
-50 -707 702 701 0
-75 -707 702 0
-75 707 -702 0
-51 -708 703 0
-51 -708 704 0
-51 708 -703 -704 0
-52 -708 703 0
-52 -708 705 0
-52 708 -703 -705 0
-53 -708 703 0
-53 -708 706 0
-53 708 -703 -706 0
-54 -708 703 0
-54 -708 707 0
-54 708 -703 -707 0
-55 -708 703 0
-55 708 -703 0
-56 -708 703 0
-56 708 -703 0
-57 -708 703 0
-57 708 -703 0
-58 -708 703 0
-58 708 -703 0
-59 -708 703 0
-59 708 -703 0
-60 -708 703 0
-60 708 -703 0
-76 -708 703 0
-76 708 -703 0
-51 -704 709 0
-51 -703 709 0
-51 -709 704 703 0
-52 -709 704 0
-52 709 -704 0
-53 -709 704 0
-53 709 -704 0
-54 -709 704 0
-54 709 -704 0
-55 -709 704 0
-55 -709 705 0
-55 709 -704 -705 0
-56 -709 704 0
-56 -709 706 0
-56 709 -704 -706 0
-57 -709 704 0
-57 -709 707 0
-57 709 -704 -707 0
-58 -709 704 0
-58 709 -704 0
-59 -709 704 0
-59 709 -704 0
-60 -709 704 0
-60 709 -704 0
-76 -709 704 0
-76 709 -704 0
-51 -710 705 0
-51 710 -705 0
-52 -705 710 0
-52 -703 710 0
-52 -710 705 703 0
-53 -710 705 0
-53 710 -705 0
-54 -710 705 0
-54 710 -705 0
-55 -705 710 0
-55 -704 710 0
-55 -710 705 704 0
-56 -710 705 0
-56 710 -705 0
-57 -710 705 0
-57 710 -705 0
-58 -710 705 0
-58 -710 706 0
-58 710 -705 -706 0
-59 -710 705 0
-59 -710 707 0
-59 710 -705 -707 0
-60 -710 705 0
-60 710 -705 0
-76 -710 705 0
-76 710 -705 0
-51 -711 706 0
-51 711 -706 0
-52 -711 706 0
-52 711 -706 0
-53 -706 711 0
-53 -703 711 0
-53 -711 706 703 0
-54 -711 706 0
-54 711 -706 0
-55 -711 706 0
-55 711 -706 0
-56 -706 711 0
-56 -704 711 0
-56 -711 706 704 0
-57 -711 706 0
-57 711 -706 0
-58 -706 711 0
-58 -705 711 0
-58 -711 706 705 0
-59 -711 706 0
-59 711 -706 0
-60 -711 706 0
-60 -711 707 0
-60 711 -706 -707 0
-76 -711 706 0
-76 711 -706 0
-51 -712 707 0
-51 712 -707 0
-52 -712 707 0
-52 712 -707 0
-53 -712 707 0
-53 712 -707 0
-54 -707 712 0
-54 -703 712 0
-54 -712 707 703 0
-55 -712 707 0
-55 712 -707 0
-56 -712 707 0
-56 712 -707 0
-57 -707 712 0
-57 -704 712 0
-57 -712 707 704 0
-58 -712 707 0
-58 712 -707 0
-59 -707 712 0
-59 -705 712 0
-59 -712 707 705 0
-60 -707 712 0
-60 -706 712 0
-60 -712 707 706 0
-76 -712 707 0
-76 712 -707 0
-61 -713 708 0
-61 -713 709 0
-61 713 -708 -709 0
-62 -713 708 0
-62 -713 710 0
-62 713 -708 -710 0
-63 -713 708 0
-63 -713 711 0
-63 713 -708 -711 0
-64 -713 708 0
-64 -713 712 0
-64 713 -708 -712 0
-65 -713 708 0
-65 713 -708 0
-66 -713 708 0
-66 713 -708 0
-67 -713 708 0
-67 713 -708 0
-68 -713 708 0
-68 713 -708 0
-69 -713 708 0
-69 713 -708 0
-70 -713 708 0
-70 713 -708 0
-77 -713 708 0
-77 713 -708 0
-61 -709 714 0
-61 -708 714 0
-61 -714 709 708 0
-62 -714 709 0
-62 714 -709 0
-63 -714 709 0
-63 714 -709 0
-64 -714 709 0
-64 714 -709 0
-65 -714 709 0
-65 -714 710 0
-65 714 -709 -710 0
-66 -714 709 0
-66 -714 711 0
-66 714 -709 -711 0
-67 -714 709 0
-67 -714 712 0
-67 714 -709 -712 0
-68 -714 709 0
-68 714 -709 0
-69 -714 709 0
-69 714 -709 0
-70 -714 709 0
-70 714 -709 0
-77 -714 709 0
-77 714 -709 0
-61 -715 710 0
-61 715 -710 0
-62 -710 715 0
-62 -708 715 0
-62 -715 710 708 0
-63 -715 710 0
-63 715 -710 0
-64 -715 710 0
-64 715 -710 0
-65 -710 715 0
-65 -709 715 0
-65 -715 710 709 0
-66 -715 710 0
-66 715 -710 0
-67 -715 710 0
-67 715 -710 0
-68 -715 710 0
-68 -715 711 0
-68 715 -710 -711 0
-69 -715 710 0
-69 -715 712 0
-69 715 -710 -712 0
-70 -715 710 0
-70 715 -710 0
-77 -715 710 0
-77 715 -710 0
-61 -716 711 0
-61 716 -711 0
-62 -716 711 0
-62 716 -711 0
-63 -711 716 0
-63 -708 716 0
-63 -716 711 708 0
-64 -716 711 0
-64 716 -711 0
-65 -716 711 0
-65 716 -711 0
-66 -711 716 0
-66 -709 716 0
-66 -716 711 709 0
-67 -716 711 0
-67 716 -711 0
-68 -711 716 0
-68 -710 716 0
-68 -716 711 710 0
-69 -716 711 0
-69 716 -711 0
-70 -716 711 0
-70 -716 712 0
-70 716 -711 -712 0
-77 -716 711 0
-77 716 -711 0
-61 -717 712 0
-61 717 -712 0
-62 -717 712 0
-62 717 -712 0
-63 -717 712 0
-63 717 -712 0
-64 -712 717 0
-64 -708 717 0
-64 -717 712 708 0
-65 -717 712 0
-65 717 -712 0
-66 -717 712 0
-66 717 -712 0
-67 -712 717 0
-67 -709 717 0
-67 -717 712 709 0
-68 -717 712 0
-68 717 -712 0
-69 -712 717 0
-69 -710 717 0
-69 -717 712 710 0
-70 -712 717 0
-70 -711 717 0
-70 -717 712 711 0
-77 -717 712 0
-77 717 -712 0
718 0
-1 -723 718 0
-1 -723 719 0
-1 723 -718 -719 0
-2 -723 718 0
-2 -723 720 0
-2 723 -718 -720 0
-3 -723 718 0
-3 -723 721 0
-3 723 -718 -721 0
-4 -723 718 0
-4 -723 722 0
-4 723 -718 -722 0
-5 -723 718 0
-5 723 -718 0
-6 -723 718 0
-6 723 -718 0
-7 -723 718 0
-7 723 -718 0
-8 -723 718 0
-8 723 -718 0
-9 -723 718 0
-9 723 -718 0
-10 -723 718 0
-10 723 -718 0
-71 -723 718 0
-71 723 -718 0
-719 0
-1 -719 724 0
-1 -718 724 0
-1 -724 719 718 0
-2 -724 719 0
-2 724 -719 0
-3 -724 719 0
-3 724 -719 0
-4 -724 719 0
-4 724 -719 0
-5 -724 719 0
-5 -724 720 0
-5 724 -719 -720 0
-6 -724 719 0
-6 -724 721 0
-6 724 -719 -721 0
-7 -724 719 0
-7 -724 722 0
-7 724 -719 -722 0
-8 -724 719 0
-8 724 -719 0
-9 -724 719 0
-9 724 -719 0
-10 -724 719 0
-10 724 -719 0
-71 -724 719 0
-71 724 -719 0
720 0
-1 -725 720 0
-1 725 -720 0
-2 -720 725 0
-2 -718 725 0
-2 -725 720 718 0
-3 -725 720 0
-3 725 -720 0
-4 -725 720 0
-4 725 -720 0
-5 -720 725 0
-5 -719 725 0
-5 -725 720 719 0
-6 -725 720 0
-6 725 -720 0
-7 -725 720 0
-7 725 -720 0
-8 -725 720 0
-8 -725 721 0
-8 725 -720 -721 0
-9 -725 720 0
-9 -725 722 0
-9 725 -720 -722 0
-10 -725 720 0
-10 725 -720 0
-71 -725 720 0
-71 725 -720 0
-721 0
-1 -726 721 0
-1 726 -721 0
-2 -726 721 0
-2 726 -721 0
-3 -721 726 0
-3 -718 726 0
-3 -726 721 718 0
-4 -726 721 0
-4 726 -721 0
-5 -726 721 0
-5 726 -721 0
-6 -721 726 0
-6 -719 726 0
-6 -726 721 719 0
-7 -726 721 0
-7 726 -721 0
-8 -721 726 0
-8 -720 726 0
-8 -726 721 720 0
-9 -726 721 0
-9 726 -721 0
-10 -726 721 0
-10 -726 722 0
-10 726 -721 -722 0
-71 -726 721 0
-71 726 -721 0
722 0
-1 -727 722 0
-1 727 -722 0
-2 -727 722 0
-2 727 -722 0
-3 -727 722 0
-3 727 -722 0
-4 -722 727 0
-4 -718 727 0
-4 -727 722 718 0
-5 -727 722 0
-5 727 -722 0
-6 -727 722 0
-6 727 -722 0
-7 -722 727 0
-7 -719 727 0
-7 -727 722 719 0
-8 -727 722 0
-8 727 -722 0
-9 -722 727 0
-9 -720 727 0
-9 -727 722 720 0
-10 -722 727 0
-10 -721 727 0
-10 -727 722 721 0
-71 -727 722 0
-71 727 -722 0
-11 -728 723 0
-11 -728 724 0
-11 728 -723 -724 0
-12 -728 723 0
-12 -728 725 0
-12 728 -723 -725 0
-13 -728 723 0
-13 -728 726 0
-13 728 -723 -726 0
-14 -728 723 0
-14 -728 727 0
-14 728 -723 -727 0
-15 -728 723 0
-15 728 -723 0
-16 -728 723 0
-16 728 -723 0
-17 -728 723 0
-17 728 -723 0
-18 -728 723 0
-18 728 -723 0
-19 -728 723 0
-19 728 -723 0
-20 -728 723 0
-20 728 -723 0
-72 -728 723 0
-72 728 -723 0
-11 -724 729 0
-11 -723 729 0
-11 -729 724 723 0
-12 -729 724 0
-12 729 -724 0
-13 -729 724 0
-13 729 -724 0
-14 -729 724 0
-14 729 -724 0
-15 -729 724 0
-15 -729 725 0
-15 729 -724 -725 0
-16 -729 724 0
-16 -729 726 0
-16 729 -724 -726 0
-17 -729 724 0
-17 -729 727 0
-17 729 -724 -727 0
-18 -729 724 0
-18 729 -724 0
-19 -729 724 0
-19 729 -724 0
-20 -729 724 0
-20 729 -724 0
-72 -729 724 0
-72 729 -724 0
-11 -730 725 0
-11 730 -725 0
-12 -725 730 0
-12 -723 730 0
-12 -730 725 723 0
-13 -730 725 0
-13 730 -725 0
-14 -730 725 0
-14 730 -725 0
-15 -725 730 0
-15 -724 730 0
-15 -730 725 724 0
-16 -730 725 0
-16 730 -725 0
-17 -730 725 0
-17 730 -725 0
-18 -730 725 0
-18 -730 726 0
-18 730 -725 -726 0
-19 -730 725 0
-19 -730 727 0
-19 730 -725 -727 0
-20 -730 725 0
-20 730 -725 0
-72 -730 725 0
-72 730 -725 0
-11 -731 726 0
-11 731 -726 0
-12 -731 726 0
-12 731 -726 0
-13 -726 731 0
-13 -723 731 0
-13 -731 726 723 0
-14 -731 726 0
-14 731 -726 0
-15 -731 726 0
-15 731 -726 0
-16 -726 731 0
-16 -724 731 0
-16 -731 726 724 0
-17 -731 726 0
-17 731 -726 0
-18 -726 731 0
-18 -725 731 0
-18 -731 726 725 0
-19 -731 726 0
-19 731 -726 0
-20 -731 726 0
-20 -731 727 0
-20 731 -726 -727 0
-72 -731 726 0
-72 731 -726 0
-11 -732 727 0
-11 732 -727 0
-12 -732 727 0
-12 732 -727 0
-13 -732 727 0
-13 732 -727 0
-14 -727 732 0
-14 -723 732 0
-14 -732 727 723 0
-15 -732 727 0
-15 732 -727 0
-16 -732 727 0
-16 732 -727 0
-17 -727 732 0
-17 -724 732 0
-17 -732 727 724 0
-18 -732 727 0
-18 732 -727 0
-19 -727 732 0
-19 -725 732 0
-19 -732 727 725 0
-20 -727 732 0
-20 -726 732 0
-20 -732 727 726 0
-72 -732 727 0
-72 732 -727 0
-21 -733 728 0
-21 -733 729 0
-21 733 -728 -729 0
-22 -733 728 0
-22 -733 730 0
-22 733 -728 -730 0
-23 -733 728 0
-23 -733 731 0
-23 733 -728 -731 0
-24 -733 728 0
-24 -733 732 0
-24 733 -728 -732 0
-25 -733 728 0
-25 733 -728 0
-26 -733 728 0
-26 733 -728 0
-27 -733 728 0
-27 733 -728 0
-28 -733 728 0
-28 733 -728 0
-29 -733 728 0
-29 733 -728 0
-30 -733 728 0
-30 733 -728 0
-73 -733 728 0
-73 733 -728 0
-21 -729 734 0
-21 -728 734 0
-21 -734 729 728 0
-22 -734 729 0
-22 734 -729 0
-23 -734 729 0
-23 734 -729 0
-24 -734 729 0
-24 734 -729 0
-25 -734 729 0
-25 -734 730 0
-25 734 -729 -730 0
-26 -734 729 0
-26 -734 731 0
-26 734 -729 -731 0
-27 -734 729 0
-27 -734 732 0
-27 734 -729 -732 0
-28 -734 729 0
-28 734 -729 0
-29 -734 729 0
-29 734 -729 0
-30 -734 729 0
-30 734 -729 0
-73 -734 729 0
-73 734 -729 0
-21 -735 730 0
-21 735 -730 0
-22 -730 735 0
-22 -728 735 0
-22 -735 730 728 0
-23 -735 730 0
-23 735 -730 0
-24 -735 730 0
-24 735 -730 0
-25 -730 735 0
-25 -729 735 0
-25 -735 730 729 0
-26 -735 730 0
-26 735 -730 0
-27 -735 730 0
-27 735 -730 0
-28 -735 730 0
-28 -735 731 0
-28 735 -730 -731 0
-29 -735 730 0
-29 -735 732 0
-29 735 -730 -732 0
-30 -735 730 0
-30 735 -730 0
-73 -735 730 0
-73 735 -730 0
-21 -736 731 0
-21 736 -731 0
-22 -736 731 0
-22 736 -731 0
-23 -731 736 0
-23 -728 736 0
-23 -736 731 728 0
-24 -736 731 0
-24 736 -731 0
-25 -736 731 0
-25 736 -731 0
-26 -731 736 0
-26 -729 736 0
-26 -736 731 729 0
-27 -736 731 0
-27 736 -731 0
-28 -731 736 0
-28 -730 736 0
-28 -736 731 730 0
-29 -736 731 0
-29 736 -731 0
-30 -736 731 0
-30 -736 732 0
-30 736 -731 -732 0
-73 -736 731 0
-73 736 -731 0
-21 -737 732 0
-21 737 -732 0
-22 -737 732 0
-22 737 -732 0
-23 -737 732 0
-23 737 -732 0
-24 -732 737 0
-24 -728 737 0
-24 -737 732 728 0
-25 -737 732 0
-25 737 -732 0
-26 -737 732 0
-26 737 -732 0
-27 -732 737 0
-27 -729 737 0
-27 -737 732 729 0
-28 -737 732 0
-28 737 -732 0
-29 -732 737 0
-29 -730 737 0
-29 -737 732 730 0
-30 -732 737 0
-30 -731 737 0
-30 -737 732 731 0
-73 -737 732 0
-73 737 -732 0
-31 -738 733 0
-31 -738 734 0
-31 738 -733 -734 0
-32 -738 733 0
-32 -738 735 0
-32 738 -733 -735 0
-33 -738 733 0
-33 -738 736 0
-33 738 -733 -736 0
-34 -738 733 0
-34 -738 737 0
-34 738 -733 -737 0
-35 -738 733 0
-35 738 -733 0
-36 -738 733 0
-36 738 -733 0
-37 -738 733 0
-37 738 -733 0
-38 -738 733 0
-38 738 -733 0
-39 -738 733 0
-39 738 -733 0
-40 -738 733 0
-40 738 -733 0
-74 -738 733 0
-74 738 -733 0
-31 -734 739 0
-31 -733 739 0
-31 -739 734 733 0
-32 -739 734 0
-32 739 -734 0
-33 -739 734 0
-33 739 -734 0
-34 -739 734 0
-34 739 -734 0
-35 -739 734 0
-35 -739 735 0
-35 739 -734 -735 0
-36 -739 734 0
-36 -739 736 0
-36 739 -734 -736 0
-37 -739 734 0
-37 -739 737 0
-37 739 -734 -737 0
-38 -739 734 0
-38 739 -734 0
-39 -739 734 0
-39 739 -734 0
-40 -739 734 0
-40 739 -734 0
-74 -739 734 0
-74 739 -734 0
-31 -740 735 0
-31 740 -735 0
-32 -735 740 0
-32 -733 740 0
-32 -740 735 733 0
-33 -740 735 0
-33 740 -735 0
-34 -740 735 0
-34 740 -735 0
-35 -735 740 0
-35 -734 740 0
-35 -740 735 734 0
-36 -740 735 0
-36 740 -735 0
-37 -740 735 0
-37 740 -735 0
-38 -740 735 0
-38 -740 736 0
-38 740 -735 -736 0
-39 -740 735 0
-39 -740 737 0
-39 740 -735 -737 0
-40 -740 735 0
-40 740 -735 0
-74 -740 735 0
-74 740 -735 0
-31 -741 736 0
-31 741 -736 0
-32 -741 736 0
-32 741 -736 0
-33 -736 741 0
-33 -733 741 0
-33 -741 736 733 0
-34 -741 736 0
-34 741 -736 0
-35 -741 736 0
-35 741 -736 0
-36 -736 741 0
-36 -734 741 0
-36 -741 736 734 0
-37 -741 736 0
-37 741 -736 0
-38 -736 741 0
-38 -735 741 0
-38 -741 736 735 0
-39 -741 736 0
-39 741 -736 0
-40 -741 736 0
-40 -741 737 0
-40 741 -736 -737 0
-74 -741 736 0
-74 741 -736 0
-31 -742 737 0
-31 742 -737 0
-32 -742 737 0
-32 742 -737 0
-33 -742 737 0
-33 742 -737 0
-34 -737 742 0
-34 -733 742 0
-34 -742 737 733 0
-35 -742 737 0
-35 742 -737 0
-36 -742 737 0
-36 742 -737 0
-37 -737 742 0
-37 -734 742 0
-37 -742 737 734 0
-38 -742 737 0
-38 742 -737 0
-39 -737 742 0
-39 -735 742 0
-39 -742 737 735 0
-40 -737 742 0
-40 -736 742 0
-40 -742 737 736 0
-74 -742 737 0
-74 742 -737 0
-41 -743 738 0
-41 -743 739 0
-41 743 -738 -739 0
-42 -743 738 0
-42 -743 740 0
-42 743 -738 -740 0
-43 -743 738 0
-43 -743 741 0
-43 743 -738 -741 0
-44 -743 738 0
-44 -743 742 0
-44 743 -738 -742 0
-45 -743 738 0
-45 743 -738 0
-46 -743 738 0
-46 743 -738 0
-47 -743 738 0
-47 743 -738 0
-48 -743 738 0
-48 743 -738 0
-49 -743 738 0
-49 743 -738 0
-50 -743 738 0
-50 743 -738 0
-75 -743 738 0
-75 743 -738 0
-41 -739 744 0
-41 -738 744 0
-41 -744 739 738 0
-42 -744 739 0
-42 744 -739 0
-43 -744 739 0
-43 744 -739 0
-44 -744 739 0
-44 744 -739 0
-45 -744 739 0
-45 -744 740 0
-45 744 -739 -740 0
-46 -744 739 0
-46 -744 741 0
-46 744 -739 -741 0
-47 -744 739 0
-47 -744 742 0
-47 744 -739 -742 0
-48 -744 739 0
-48 744 -739 0
-49 -744 739 0
-49 744 -739 0
-50 -744 739 0
-50 744 -739 0
-75 -744 739 0
-75 744 -739 0
-41 -745 740 0
-41 745 -740 0
-42 -740 745 0
-42 -738 745 0
-42 -745 740 738 0
-43 -745 740 0
-43 745 -740 0
-44 -745 740 0
-44 745 -740 0
-45 -740 745 0
-45 -739 745 0
-45 -745 740 739 0
-46 -745 740 0
-46 745 -740 0
-47 -745 740 0
-47 745 -740 0
-48 -745 740 0
-48 -745 741 0
-48 745 -740 -741 0
-49 -745 740 0
-49 -745 742 0
-49 745 -740 -742 0
-50 -745 740 0
-50 745 -740 0
-75 -745 740 0
-75 745 -740 0
-41 -746 741 0
-41 746 -741 0
-42 -746 741 0
-42 746 -741 0
-43 -741 746 0
-43 -738 746 0
-43 -746 741 738 0
-44 -746 741 0
-44 746 -741 0
-45 -746 741 0
-45 746 -741 0
-46 -741 746 0
-46 -739 746 0
-46 -746 741 739 0
-47 -746 741 0
-47 746 -741 0
-48 -741 746 0
-48 -740 746 0
-48 -746 741 740 0
-49 -746 741 0
-49 746 -741 0
-50 -746 741 0
-50 -746 742 0
-50 746 -741 -742 0
-75 -746 741 0
-75 746 -741 0
-41 -747 742 0
-41 747 -742 0
-42 -747 742 0
-42 747 -742 0
-43 -747 742 0
-43 747 -742 0
-44 -742 747 0
-44 -738 747 0
-44 -747 742 738 0
-45 -747 742 0
-45 747 -742 0
-46 -747 742 0
-46 747 -742 0
-47 -742 747 0
-47 -739 747 0
-47 -747 742 739 0
-48 -747 742 0
-48 747 -742 0
-49 -742 747 0
-49 -740 747 0
-49 -747 742 740 0
-50 -742 747 0
-50 -741 747 0
-50 -747 742 741 0
-75 -747 742 0
-75 747 -742 0
-51 -748 743 0
-51 -748 744 0
-51 748 -743 -744 0
-52 -748 743 0
-52 -748 745 0
-52 748 -743 -745 0
-53 -748 743 0
-53 -748 746 0
-53 748 -743 -746 0
-54 -748 743 0
-54 -748 747 0
-54 748 -743 -747 0
-55 -748 743 0
-55 748 -743 0
-56 -748 743 0
-56 748 -743 0
-57 -748 743 0
-57 748 -743 0
-58 -748 743 0
-58 748 -743 0
-59 -748 743 0
-59 748 -743 0
-60 -748 743 0
-60 748 -743 0
-76 -748 743 0
-76 748 -743 0
-51 -744 749 0
-51 -743 749 0
-51 -749 744 743 0
-52 -749 744 0
-52 749 -744 0
-53 -749 744 0
-53 749 -744 0
-54 -749 744 0
-54 749 -744 0
-55 -749 744 0
-55 -749 745 0
-55 749 -744 -745 0
-56 -749 744 0
-56 -749 746 0
-56 749 -744 -746 0
-57 -749 744 0
-57 -749 747 0
-57 749 -744 -747 0
-58 -749 744 0
-58 749 -744 0
-59 -749 744 0
-59 749 -744 0
-60 -749 744 0
-60 749 -744 0
-76 -749 744 0
-76 749 -744 0
-51 -750 745 0
-51 750 -745 0
-52 -745 750 0
-52 -743 750 0
-52 -750 745 743 0
-53 -750 745 0
-53 750 -745 0
-54 -750 745 0
-54 750 -745 0
-55 -745 750 0
-55 -744 750 0
-55 -750 745 744 0
-56 -750 745 0
-56 750 -745 0
-57 -750 745 0
-57 750 -745 0
-58 -750 745 0
-58 -750 746 0
-58 750 -745 -746 0
-59 -750 745 0
-59 -750 747 0
-59 750 -745 -747 0
-60 -750 745 0
-60 750 -745 0
-76 -750 745 0
-76 750 -745 0
-51 -751 746 0
-51 751 -746 0
-52 -751 746 0
-52 751 -746 0
-53 -746 751 0
-53 -743 751 0
-53 -751 746 743 0
-54 -751 746 0
-54 751 -746 0
-55 -751 746 0
-55 751 -746 0
-56 -746 751 0
-56 -744 751 0
-56 -751 746 744 0
-57 -751 746 0
-57 751 -746 0
-58 -746 751 0
-58 -745 751 0
-58 -751 746 745 0
-59 -751 746 0
-59 751 -746 0
-60 -751 746 0
-60 -751 747 0
-60 751 -746 -747 0
-76 -751 746 0
-76 751 -746 0
-51 -752 747 0
-51 752 -747 0
-52 -752 747 0
-52 752 -747 0
-53 -752 747 0
-53 752 -747 0
-54 -747 752 0
-54 -743 752 0
-54 -752 747 743 0
-55 -752 747 0
-55 752 -747 0
-56 -752 747 0
-56 752 -747 0
-57 -747 752 0
-57 -744 752 0
-57 -752 747 744 0
-58 -752 747 0
-58 752 -747 0
-59 -747 752 0
-59 -745 752 0
-59 -752 747 745 0
-60 -747 752 0
-60 -746 752 0
-60 -752 747 746 0
-76 -752 747 0
-76 752 -747 0
-61 -753 748 0
-61 -753 749 0
-61 753 -748 -749 0
-62 -753 748 0
-62 -753 750 0
-62 753 -748 -750 0
-63 -753 748 0
-63 -753 751 0
-63 753 -748 -751 0
-64 -753 748 0
-64 -753 752 0
-64 753 -748 -752 0
-65 -753 748 0
-65 753 -748 0
-66 -753 748 0
-66 753 -748 0
-67 -753 748 0
-67 753 -748 0
-68 -753 748 0
-68 753 -748 0
-69 -753 748 0
-69 753 -748 0
-70 -753 748 0
-70 753 -748 0
-77 -753 748 0
-77 753 -748 0
-61 -749 754 0
-61 -748 754 0
-61 -754 749 748 0
-62 -754 749 0
-62 754 -749 0
-63 -754 749 0
-63 754 -749 0
-64 -754 749 0
-64 754 -749 0
-65 -754 749 0
-65 -754 750 0
-65 754 -749 -750 0
-66 -754 749 0
-66 -754 751 0
-66 754 -749 -751 0
-67 -754 749 0
-67 -754 752 0
-67 754 -749 -752 0
-68 -754 749 0
-68 754 -749 0
-69 -754 749 0
-69 754 -749 0
-70 -754 749 0
-70 754 -749 0
-77 -754 749 0
-77 754 -749 0
-61 -755 750 0
-61 755 -750 0
-62 -750 755 0
-62 -748 755 0
-62 -755 750 748 0
-63 -755 750 0
-63 755 -750 0
-64 -755 750 0
-64 755 -750 0
-65 -750 755 0
-65 -749 755 0
-65 -755 750 749 0
-66 -755 750 0
-66 755 -750 0
-67 -755 750 0
-67 755 -750 0
-68 -755 750 0
-68 -755 751 0
-68 755 -750 -751 0
-69 -755 750 0
-69 -755 752 0
-69 755 -750 -752 0
-70 -755 750 0
-70 755 -750 0
-77 -755 750 0
-77 755 -750 0
-61 -756 751 0
-61 756 -751 0
-62 -756 751 0
-62 756 -751 0
-63 -751 756 0
-63 -748 756 0
-63 -756 751 748 0
-64 -756 751 0
-64 756 -751 0
-65 -756 751 0
-65 756 -751 0
-66 -751 756 0
-66 -749 756 0
-66 -756 751 749 0
-67 -756 751 0
-67 756 -751 0
-68 -751 756 0
-68 -750 756 0
-68 -756 751 750 0
-69 -756 751 0
-69 756 -751 0
-70 -756 751 0
-70 -756 752 0
-70 756 -751 -752 0
-77 -756 751 0
-77 756 -751 0
-61 -757 752 0
-61 757 -752 0
-62 -757 752 0
-62 757 -752 0
-63 -757 752 0
-63 757 -752 0
-64 -752 757 0
-64 -748 757 0
-64 -757 752 748 0
-65 -757 752 0
-65 757 -752 0
-66 -757 752 0
-66 757 -752 0
-67 -752 757 0
-67 -749 757 0
-67 -757 752 749 0
-68 -757 752 0
-68 757 -752 0
-69 -752 757 0
-69 -750 757 0
-69 -757 752 750 0
-70 -752 757 0
-70 -751 757 0
-70 -757 752 751 0
-77 -757 752 0
-77 757 -752 0
758 0
-1 -763 758 0
-1 -763 759 0
-1 763 -758 -759 0
-2 -763 758 0
-2 -763 760 0
-2 763 -758 -760 0
-3 -763 758 0
-3 -763 761 0
-3 763 -758 -761 0
-4 -763 758 0
-4 -763 762 0
-4 763 -758 -762 0
-5 -763 758 0
-5 763 -758 0
-6 -763 758 0
-6 763 -758 0
-7 -763 758 0
-7 763 -758 0
-8 -763 758 0
-8 763 -758 0
-9 -763 758 0
-9 763 -758 0
-10 -763 758 0
-10 763 -758 0
-71 -763 758 0
-71 763 -758 0
-759 0
-1 -759 764 0
-1 -758 764 0
-1 -764 759 758 0
-2 -764 759 0
-2 764 -759 0
-3 -764 759 0
-3 764 -759 0
-4 -764 759 0
-4 764 -759 0
-5 -764 759 0
-5 -764 760 0
-5 764 -759 -760 0
-6 -764 759 0
-6 -764 761 0
-6 764 -759 -761 0
-7 -764 759 0
-7 -764 762 0
-7 764 -759 -762 0
-8 -764 759 0
-8 764 -759 0
-9 -764 759 0
-9 764 -759 0
-10 -764 759 0
-10 764 -759 0
-71 -764 759 0
-71 764 -759 0
760 0
-1 -765 760 0
-1 765 -760 0
-2 -760 765 0
-2 -758 765 0
-2 -765 760 758 0
-3 -765 760 0
-3 765 -760 0
-4 -765 760 0
-4 765 -760 0
-5 -760 765 0
-5 -759 765 0
-5 -765 760 759 0
-6 -765 760 0
-6 765 -760 0
-7 -765 760 0
-7 765 -760 0
-8 -765 760 0
-8 -765 761 0
-8 765 -760 -761 0
-9 -765 760 0
-9 -765 762 0
-9 765 -760 -762 0
-10 -765 760 0
-10 765 -760 0
-71 -765 760 0
-71 765 -760 0
761 0
-1 -766 761 0
-1 766 -761 0
-2 -766 761 0
-2 766 -761 0
-3 -761 766 0
-3 -758 766 0
-3 -766 761 758 0
-4 -766 761 0
-4 766 -761 0
-5 -766 761 0
-5 766 -761 0
-6 -761 766 0
-6 -759 766 0
-6 -766 761 759 0
-7 -766 761 0
-7 766 -761 0
-8 -761 766 0
-8 -760 766 0
-8 -766 761 760 0
-9 -766 761 0
-9 766 -761 0
-10 -766 761 0
-10 -766 762 0
-10 766 -761 -762 0
-71 -766 761 0
-71 766 -761 0
-762 0
-1 -767 762 0
-1 767 -762 0
-2 -767 762 0
-2 767 -762 0
-3 -767 762 0
-3 767 -762 0
-4 -762 767 0
-4 -758 767 0
-4 -767 762 758 0
-5 -767 762 0
-5 767 -762 0
-6 -767 762 0
-6 767 -762 0
-7 -762 767 0
-7 -759 767 0
-7 -767 762 759 0
-8 -767 762 0
-8 767 -762 0
-9 -762 767 0
-9 -760 767 0
-9 -767 762 760 0
-10 -762 767 0
-10 -761 767 0
-10 -767 762 761 0
-71 -767 762 0
-71 767 -762 0
-11 -768 763 0
-11 -768 764 0
-11 768 -763 -764 0
-12 -768 763 0
-12 -768 765 0
-12 768 -763 -765 0
-13 -768 763 0
-13 -768 766 0
-13 768 -763 -766 0
-14 -768 763 0
-14 -768 767 0
-14 768 -763 -767 0
-15 -768 763 0
-15 768 -763 0
-16 -768 763 0
-16 768 -763 0
-17 -768 763 0
-17 768 -763 0
-18 -768 763 0
-18 768 -763 0
-19 -768 763 0
-19 768 -763 0
-20 -768 763 0
-20 768 -763 0
-72 -768 763 0
-72 768 -763 0
-11 -764 769 0
-11 -763 769 0
-11 -769 764 763 0
-12 -769 764 0
-12 769 -764 0
-13 -769 764 0
-13 769 -764 0
-14 -769 764 0
-14 769 -764 0
-15 -769 764 0
-15 -769 765 0
-15 769 -764 -765 0
-16 -769 764 0
-16 -769 766 0
-16 769 -764 -766 0
-17 -769 764 0
-17 -769 767 0
-17 769 -764 -767 0
-18 -769 764 0
-18 769 -764 0
-19 -769 764 0
-19 769 -764 0
-20 -769 764 0
-20 769 -764 0
-72 -769 764 0
-72 769 -764 0
-11 -770 765 0
-11 770 -765 0
-12 -765 770 0
-12 -763 770 0
-12 -770 765 763 0
-13 -770 765 0
-13 770 -765 0
-14 -770 765 0
-14 770 -765 0
-15 -765 770 0
-15 -764 770 0
-15 -770 765 764 0
-16 -770 765 0
-16 770 -765 0
-17 -770 765 0
-17 770 -765 0
-18 -770 765 0
-18 -770 766 0
-18 770 -765 -766 0
-19 -770 765 0
-19 -770 767 0
-19 770 -765 -767 0
-20 -770 765 0
-20 770 -765 0
-72 -770 765 0
-72 770 -765 0
-11 -771 766 0
-11 771 -766 0
-12 -771 766 0
-12 771 -766 0
-13 -766 771 0
-13 -763 771 0
-13 -771 766 763 0
-14 -771 766 0
-14 771 -766 0
-15 -771 766 0
-15 771 -766 0
-16 -766 771 0
-16 -764 771 0
-16 -771 766 764 0
-17 -771 766 0
-17 771 -766 0
-18 -766 771 0
-18 -765 771 0
-18 -771 766 765 0
-19 -771 766 0
-19 771 -766 0
-20 -771 766 0
-20 -771 767 0
-20 771 -766 -767 0
-72 -771 766 0
-72 771 -766 0
-11 -772 767 0
-11 772 -767 0
-12 -772 767 0
-12 772 -767 0
-13 -772 767 0
-13 772 -767 0
-14 -767 772 0
-14 -763 772 0
-14 -772 767 763 0
-15 -772 767 0
-15 772 -767 0
-16 -772 767 0
-16 772 -767 0
-17 -767 772 0
-17 -764 772 0
-17 -772 767 764 0
-18 -772 767 0
-18 772 -767 0
-19 -767 772 0
-19 -765 772 0
-19 -772 767 765 0
-20 -767 772 0
-20 -766 772 0
-20 -772 767 766 0
-72 -772 767 0
-72 772 -767 0
-21 -773 768 0
-21 -773 769 0
-21 773 -768 -769 0
-22 -773 768 0
-22 -773 770 0
-22 773 -768 -770 0
-23 -773 768 0
-23 -773 771 0
-23 773 -768 -771 0
-24 -773 768 0
-24 -773 772 0
-24 773 -768 -772 0
-25 -773 768 0
-25 773 -768 0
-26 -773 768 0
-26 773 -768 0
-27 -773 768 0
-27 773 -768 0
-28 -773 768 0
-28 773 -768 0
-29 -773 768 0
-29 773 -768 0
-30 -773 768 0
-30 773 -768 0
-73 -773 768 0
-73 773 -768 0
-21 -769 774 0
-21 -768 774 0
-21 -774 769 768 0
-22 -774 769 0
-22 774 -769 0
-23 -774 769 0
-23 774 -769 0
-24 -774 769 0
-24 774 -769 0
-25 -774 769 0
-25 -774 770 0
-25 774 -769 -770 0
-26 -774 769 0
-26 -774 771 0
-26 774 -769 -771 0
-27 -774 769 0
-27 -774 772 0
-27 774 -769 -772 0
-28 -774 769 0
-28 774 -769 0
-29 -774 769 0
-29 774 -769 0
-30 -774 769 0
-30 774 -769 0
-73 -774 769 0
-73 774 -769 0
-21 -775 770 0
-21 775 -770 0
-22 -770 775 0
-22 -768 775 0
-22 -775 770 768 0
-23 -775 770 0
-23 775 -770 0
-24 -775 770 0
-24 775 -770 0
-25 -770 775 0
-25 -769 775 0
-25 -775 770 769 0
-26 -775 770 0
-26 775 -770 0
-27 -775 770 0
-27 775 -770 0
-28 -775 770 0
-28 -775 771 0
-28 775 -770 -771 0
-29 -775 770 0
-29 -775 772 0
-29 775 -770 -772 0
-30 -775 770 0
-30 775 -770 0
-73 -775 770 0
-73 775 -770 0
-21 -776 771 0
-21 776 -771 0
-22 -776 771 0
-22 776 -771 0
-23 -771 776 0
-23 -768 776 0
-23 -776 771 768 0
-24 -776 771 0
-24 776 -771 0
-25 -776 771 0
-25 776 -771 0
-26 -771 776 0
-26 -769 776 0
-26 -776 771 769 0
-27 -776 771 0
-27 776 -771 0
-28 -771 776 0
-28 -770 776 0
-28 -776 771 770 0
-29 -776 771 0
-29 776 -771 0
-30 -776 771 0
-30 -776 772 0
-30 776 -771 -772 0
-73 -776 771 0
-73 776 -771 0
-21 -777 772 0
-21 777 -772 0
-22 -777 772 0
-22 777 -772 0
-23 -777 772 0
-23 777 -772 0
-24 -772 777 0
-24 -768 777 0
-24 -777 772 768 0
-25 -777 772 0
-25 777 -772 0
-26 -777 772 0
-26 777 -772 0
-27 -772 777 0
-27 -769 777 0
-27 -777 772 769 0
-28 -777 772 0
-28 777 -772 0
-29 -772 777 0
-29 -770 777 0
-29 -777 772 770 0
-30 -772 777 0
-30 -771 777 0
-30 -777 772 771 0
-73 -777 772 0
-73 777 -772 0
-31 -778 773 0
-31 -778 774 0
-31 778 -773 -774 0
-32 -778 773 0
-32 -778 775 0
-32 778 -773 -775 0
-33 -778 773 0
-33 -778 776 0
-33 778 -773 -776 0
-34 -778 773 0
-34 -778 777 0
-34 778 -773 -777 0
-35 -778 773 0
-35 778 -773 0
-36 -778 773 0
-36 778 -773 0
-37 -778 773 0
-37 778 -773 0
-38 -778 773 0
-38 778 -773 0
-39 -778 773 0
-39 778 -773 0
-40 -778 773 0
-40 778 -773 0
-74 -778 773 0
-74 778 -773 0
-31 -774 779 0
-31 -773 779 0
-31 -779 774 773 0
-32 -779 774 0
-32 779 -774 0
-33 -779 774 0
-33 779 -774 0
-34 -779 774 0
-34 779 -774 0
-35 -779 774 0
-35 -779 775 0
-35 779 -774 -775 0
-36 -779 774 0
-36 -779 776 0
-36 779 -774 -776 0
-37 -779 774 0
-37 -779 777 0
-37 779 -774 -777 0
-38 -779 774 0
-38 779 -774 0
-39 -779 774 0
-39 779 -774 0
-40 -779 774 0
-40 779 -774 0
-74 -779 774 0
-74 779 -774 0
-31 -780 775 0
-31 780 -775 0
-32 -775 780 0
-32 -773 780 0
-32 -780 775 773 0
-33 -780 775 0
-33 780 -775 0
-34 -780 775 0
-34 780 -775 0
-35 -775 780 0
-35 -774 780 0
-35 -780 775 774 0
-36 -780 775 0
-36 780 -775 0
-37 -780 775 0
-37 780 -775 0
-38 -780 775 0
-38 -780 776 0
-38 780 -775 -776 0
-39 -780 775 0
-39 -780 777 0
-39 780 -775 -777 0
-40 -780 775 0
-40 780 -775 0
-74 -780 775 0
-74 780 -775 0
-31 -781 776 0
-31 781 -776 0
-32 -781 776 0
-32 781 -776 0
-33 -776 781 0
-33 -773 781 0
-33 -781 776 773 0
-34 -781 776 0
-34 781 -776 0
-35 -781 776 0
-35 781 -776 0
-36 -776 781 0
-36 -774 781 0
-36 -781 776 774 0
-37 -781 776 0
-37 781 -776 0
-38 -776 781 0
-38 -775 781 0
-38 -781 776 775 0
-39 -781 776 0
-39 781 -776 0
-40 -781 776 0
-40 -781 777 0
-40 781 -776 -777 0
-74 -781 776 0
-74 781 -776 0
-31 -782 777 0
-31 782 -777 0
-32 -782 777 0
-32 782 -777 0
-33 -782 777 0
-33 782 -777 0
-34 -777 782 0
-34 -773 782 0
-34 -782 777 773 0
-35 -782 777 0
-35 782 -777 0
-36 -782 777 0
-36 782 -777 0
-37 -777 782 0
-37 -774 782 0
-37 -782 777 774 0
-38 -782 777 0
-38 782 -777 0
-39 -777 782 0
-39 -775 782 0
-39 -782 777 775 0
-40 -777 782 0
-40 -776 782 0
-40 -782 777 776 0
-74 -782 777 0
-74 782 -777 0
-41 -783 778 0
-41 -783 779 0
-41 783 -778 -779 0
-42 -783 778 0
-42 -783 780 0
-42 783 -778 -780 0
-43 -783 778 0
-43 -783 781 0
-43 783 -778 -781 0
-44 -783 778 0
-44 -783 782 0
-44 783 -778 -782 0
-45 -783 778 0
-45 783 -778 0
-46 -783 778 0
-46 783 -778 0
-47 -783 778 0
-47 783 -778 0
-48 -783 778 0
-48 783 -778 0
-49 -783 778 0
-49 783 -778 0
-50 -783 778 0
-50 783 -778 0
-75 -783 778 0
-75 783 -778 0
-41 -779 784 0
-41 -778 784 0
-41 -784 779 778 0
-42 -784 779 0
-42 784 -779 0
-43 -784 779 0
-43 784 -779 0
-44 -784 779 0
-44 784 -779 0
-45 -784 779 0
-45 -784 780 0
-45 784 -779 -780 0
-46 -784 779 0
-46 -784 781 0
-46 784 -779 -781 0
-47 -784 779 0
-47 -784 782 0
-47 784 -779 -782 0
-48 -784 779 0
-48 784 -779 0
-49 -784 779 0
-49 784 -779 0
-50 -784 779 0
-50 784 -779 0
-75 -784 779 0
-75 784 -779 0
-41 -785 780 0
-41 785 -780 0
-42 -780 785 0
-42 -778 785 0
-42 -785 780 778 0
-43 -785 780 0
-43 785 -780 0
-44 -785 780 0
-44 785 -780 0
-45 -780 785 0
-45 -779 785 0
-45 -785 780 779 0
-46 -785 780 0
-46 785 -780 0
-47 -785 780 0
-47 785 -780 0
-48 -785 780 0
-48 -785 781 0
-48 785 -780 -781 0
-49 -785 780 0
-49 -785 782 0
-49 785 -780 -782 0
-50 -785 780 0
-50 785 -780 0
-75 -785 780 0
-75 785 -780 0
-41 -786 781 0
-41 786 -781 0
-42 -786 781 0
-42 786 -781 0
-43 -781 786 0
-43 -778 786 0
-43 -786 781 778 0
-44 -786 781 0
-44 786 -781 0
-45 -786 781 0
-45 786 -781 0
-46 -781 786 0
-46 -779 786 0
-46 -786 781 779 0
-47 -786 781 0
-47 786 -781 0
-48 -781 786 0
-48 -780 786 0
-48 -786 781 780 0
-49 -786 781 0
-49 786 -781 0
-50 -786 781 0
-50 -786 782 0
-50 786 -781 -782 0
-75 -786 781 0
-75 786 -781 0
-41 -787 782 0
-41 787 -782 0
-42 -787 782 0
-42 787 -782 0
-43 -787 782 0
-43 787 -782 0
-44 -782 787 0
-44 -778 787 0
-44 -787 782 778 0
-45 -787 782 0
-45 787 -782 0
-46 -787 782 0
-46 787 -782 0
-47 -782 787 0
-47 -779 787 0
-47 -787 782 779 0
-48 -787 782 0
-48 787 -782 0
-49 -782 787 0
-49 -780 787 0
-49 -787 782 780 0
-50 -782 787 0
-50 -781 787 0
-50 -787 782 781 0
-75 -787 782 0
-75 787 -782 0
-51 -788 783 0
-51 -788 784 0
-51 788 -783 -784 0
-52 -788 783 0
-52 -788 785 0
-52 788 -783 -785 0
-53 -788 783 0
-53 -788 786 0
-53 788 -783 -786 0
-54 -788 783 0
-54 -788 787 0
-54 788 -783 -787 0
-55 -788 783 0
-55 788 -783 0
-56 -788 783 0
-56 788 -783 0
-57 -788 783 0
-57 788 -783 0
-58 -788 783 0
-58 788 -783 0
-59 -788 783 0
-59 788 -783 0
-60 -788 783 0
-60 788 -783 0
-76 -788 783 0
-76 788 -783 0
-51 -784 789 0
-51 -783 789 0
-51 -789 784 783 0
-52 -789 784 0
-52 789 -784 0
-53 -789 784 0
-53 789 -784 0
-54 -789 784 0
-54 789 -784 0
-55 -789 784 0
-55 -789 785 0
-55 789 -784 -785 0
-56 -789 784 0
-56 -789 786 0
-56 789 -784 -786 0
-57 -789 784 0
-57 -789 787 0
-57 789 -784 -787 0
-58 -789 784 0
-58 789 -784 0
-59 -789 784 0
-59 789 -784 0
-60 -789 784 0
-60 789 -784 0
-76 -789 784 0
-76 789 -784 0
-51 -790 785 0
-51 790 -785 0
-52 -785 790 0
-52 -783 790 0
-52 -790 785 783 0
-53 -790 785 0
-53 790 -785 0
-54 -790 785 0
-54 790 -785 0
-55 -785 790 0
-55 -784 790 0
-55 -790 785 784 0
-56 -790 785 0
-56 790 -785 0
-57 -790 785 0
-57 790 -785 0
-58 -790 785 0
-58 -790 786 0
-58 790 -785 -786 0
-59 -790 785 0
-59 -790 787 0
-59 790 -785 -787 0
-60 -790 785 0
-60 790 -785 0
-76 -790 785 0
-76 790 -785 0
-51 -791 786 0
-51 791 -786 0
-52 -791 786 0
-52 791 -786 0
-53 -786 791 0
-53 -783 791 0
-53 -791 786 783 0
-54 -791 786 0
-54 791 -786 0
-55 -791 786 0
-55 791 -786 0
-56 -786 791 0
-56 -784 791 0
-56 -791 786 784 0
-57 -791 786 0
-57 791 -786 0
-58 -786 791 0
-58 -785 791 0
-58 -791 786 785 0
-59 -791 786 0
-59 791 -786 0
-60 -791 786 0
-60 -791 787 0
-60 791 -786 -787 0
-76 -791 786 0
-76 791 -786 0
-51 -792 787 0
-51 792 -787 0
-52 -792 787 0
-52 792 -787 0
-53 -792 787 0
-53 792 -787 0
-54 -787 792 0
-54 -783 792 0
-54 -792 787 783 0
-55 -792 787 0
-55 792 -787 0
-56 -792 787 0
-56 792 -787 0
-57 -787 792 0
-57 -784 792 0
-57 -792 787 784 0
-58 -792 787 0
-58 792 -787 0
-59 -787 792 0
-59 -785 792 0
-59 -792 787 785 0
-60 -787 792 0
-60 -786 792 0
-60 -792 787 786 0
-76 -792 787 0
-76 792 -787 0
-61 -793 788 0
-61 -793 789 0
-61 793 -788 -789 0
-62 -793 788 0
-62 -793 790 0
-62 793 -788 -790 0
-63 -793 788 0
-63 -793 791 0
-63 793 -788 -791 0
-64 -793 788 0
-64 -793 792 0
-64 793 -788 -792 0
-65 -793 788 0
-65 793 -788 0
-66 -793 788 0
-66 793 -788 0
-67 -793 788 0
-67 793 -788 0
-68 -793 788 0
-68 793 -788 0
-69 -793 788 0
-69 793 -788 0
-70 -793 788 0
-70 793 -788 0
-77 -793 788 0
-77 793 -788 0
-61 -789 794 0
-61 -788 794 0
-61 -794 789 788 0
-62 -794 789 0
-62 794 -789 0
-63 -794 789 0
-63 794 -789 0
-64 -794 789 0
-64 794 -789 0
-65 -794 789 0
-65 -794 790 0
-65 794 -789 -790 0
-66 -794 789 0
-66 -794 791 0
-66 794 -789 -791 0
-67 -794 789 0
-67 -794 792 0
-67 794 -789 -792 0
-68 -794 789 0
-68 794 -789 0
-69 -794 789 0
-69 794 -789 0
-70 -794 789 0
-70 794 -789 0
-77 -794 789 0
-77 794 -789 0
-61 -795 790 0
-61 795 -790 0
-62 -790 795 0
-62 -788 795 0
-62 -795 790 788 0
-63 -795 790 0
-63 795 -790 0
-64 -795 790 0
-64 795 -790 0
-65 -790 795 0
-65 -789 795 0
-65 -795 790 789 0
-66 -795 790 0
-66 795 -790 0
-67 -795 790 0
-67 795 -790 0
-68 -795 790 0
-68 -795 791 0
-68 795 -790 -791 0
-69 -795 790 0
-69 -795 792 0
-69 795 -790 -792 0
-70 -795 790 0
-70 795 -790 0
-77 -795 790 0
-77 795 -790 0
-61 -796 791 0
-61 796 -791 0
-62 -796 791 0
-62 796 -791 0
-63 -791 796 0
-63 -788 796 0
-63 -796 791 788 0
-64 -796 791 0
-64 796 -791 0
-65 -796 791 0
-65 796 -791 0
-66 -791 796 0
-66 -789 796 0
-66 -796 791 789 0
-67 -796 791 0
-67 796 -791 0
-68 -791 796 0
-68 -790 796 0
-68 -796 791 790 0
-69 -796 791 0
-69 796 -791 0
-70 -796 791 0
-70 -796 792 0
-70 796 -791 -792 0
-77 -796 791 0
-77 796 -791 0
-61 -797 792 0
-61 797 -792 0
-62 -797 792 0
-62 797 -792 0
-63 -797 792 0
-63 797 -792 0
-64 -792 797 0
-64 -788 797 0
-64 -797 792 788 0
-65 -797 792 0
-65 797 -792 0
-66 -797 792 0
-66 797 -792 0
-67 -792 797 0
-67 -789 797 0
-67 -797 792 789 0
-68 -797 792 0
-68 797 -792 0
-69 -792 797 0
-69 -790 797 0
-69 -797 792 790 0
-70 -792 797 0
-70 -791 797 0
-70 -797 792 791 0
-77 -797 792 0
-77 797 -792 0
798 0
-1 -803 798 0
-1 -803 799 0
-1 803 -798 -799 0
-2 -803 798 0
-2 -803 800 0
-2 803 -798 -800 0
-3 -803 798 0
-3 -803 801 0
-3 803 -798 -801 0
-4 -803 798 0
-4 -803 802 0
-4 803 -798 -802 0
-5 -803 798 0
-5 803 -798 0
-6 -803 798 0
-6 803 -798 0
-7 -803 798 0
-7 803 -798 0
-8 -803 798 0
-8 803 -798 0
-9 -803 798 0
-9 803 -798 0
-10 -803 798 0
-10 803 -798 0
-71 -803 798 0
-71 803 -798 0
-799 0
-1 -799 804 0
-1 -798 804 0
-1 -804 799 798 0
-2 -804 799 0
-2 804 -799 0
-3 -804 799 0
-3 804 -799 0
-4 -804 799 0
-4 804 -799 0
-5 -804 799 0
-5 -804 800 0
-5 804 -799 -800 0
-6 -804 799 0
-6 -804 801 0
-6 804 -799 -801 0
-7 -804 799 0
-7 -804 802 0
-7 804 -799 -802 0
-8 -804 799 0
-8 804 -799 0
-9 -804 799 0
-9 804 -799 0
-10 -804 799 0
-10 804 -799 0
-71 -804 799 0
-71 804 -799 0
800 0
-1 -805 800 0
-1 805 -800 0
-2 -800 805 0
-2 -798 805 0
-2 -805 800 798 0
-3 -805 800 0
-3 805 -800 0
-4 -805 800 0
-4 805 -800 0
-5 -800 805 0
-5 -799 805 0
-5 -805 800 799 0
-6 -805 800 0
-6 805 -800 0
-7 -805 800 0
-7 805 -800 0
-8 -805 800 0
-8 -805 801 0
-8 805 -800 -801 0
-9 -805 800 0
-9 -805 802 0
-9 805 -800 -802 0
-10 -805 800 0
-10 805 -800 0
-71 -805 800 0
-71 805 -800 0
801 0
-1 -806 801 0
-1 806 -801 0
-2 -806 801 0
-2 806 -801 0
-3 -801 806 0
-3 -798 806 0
-3 -806 801 798 0
-4 -806 801 0
-4 806 -801 0
-5 -806 801 0
-5 806 -801 0
-6 -801 806 0
-6 -799 806 0
-6 -806 801 799 0
-7 -806 801 0
-7 806 -801 0
-8 -801 806 0
-8 -800 806 0
-8 -806 801 800 0
-9 -806 801 0
-9 806 -801 0
-10 -806 801 0
-10 -806 802 0
-10 806 -801 -802 0
-71 -806 801 0
-71 806 -801 0
802 0
-1 -807 802 0
-1 807 -802 0
-2 -807 802 0
-2 807 -802 0
-3 -807 802 0
-3 807 -802 0
-4 -802 807 0
-4 -798 807 0
-4 -807 802 798 0
-5 -807 802 0
-5 807 -802 0
-6 -807 802 0
-6 807 -802 0
-7 -802 807 0
-7 -799 807 0
-7 -807 802 799 0
-8 -807 802 0
-8 807 -802 0
-9 -802 807 0
-9 -800 807 0
-9 -807 802 800 0
-10 -802 807 0
-10 -801 807 0
-10 -807 802 801 0
-71 -807 802 0
-71 807 -802 0
-11 -808 803 0
-11 -808 804 0
-11 808 -803 -804 0
-12 -808 803 0
-12 -808 805 0
-12 808 -803 -805 0
-13 -808 803 0
-13 -808 806 0
-13 808 -803 -806 0
-14 -808 803 0
-14 -808 807 0
-14 808 -803 -807 0
-15 -808 803 0
-15 808 -803 0
-16 -808 803 0
-16 808 -803 0
-17 -808 803 0
-17 808 -803 0
-18 -808 803 0
-18 808 -803 0
-19 -808 803 0
-19 808 -803 0
-20 -808 803 0
-20 808 -803 0
-72 -808 803 0
-72 808 -803 0
-11 -804 809 0
-11 -803 809 0
-11 -809 804 803 0
-12 -809 804 0
-12 809 -804 0
-13 -809 804 0
-13 809 -804 0
-14 -809 804 0
-14 809 -804 0
-15 -809 804 0
-15 -809 805 0
-15 809 -804 -805 0
-16 -809 804 0
-16 -809 806 0
-16 809 -804 -806 0
-17 -809 804 0
-17 -809 807 0
-17 809 -804 -807 0
-18 -809 804 0
-18 809 -804 0
-19 -809 804 0
-19 809 -804 0
-20 -809 804 0
-20 809 -804 0
-72 -809 804 0
-72 809 -804 0
-11 -810 805 0
-11 810 -805 0
-12 -805 810 0
-12 -803 810 0
-12 -810 805 803 0
-13 -810 805 0
-13 810 -805 0
-14 -810 805 0
-14 810 -805 0
-15 -805 810 0
-15 -804 810 0
-15 -810 805 804 0
-16 -810 805 0
-16 810 -805 0
-17 -810 805 0
-17 810 -805 0
-18 -810 805 0
-18 -810 806 0
-18 810 -805 -806 0
-19 -810 805 0
-19 -810 807 0
-19 810 -805 -807 0
-20 -810 805 0
-20 810 -805 0
-72 -810 805 0
-72 810 -805 0
-11 -811 806 0
-11 811 -806 0
-12 -811 806 0
-12 811 -806 0
-13 -806 811 0
-13 -803 811 0
-13 -811 806 803 0
-14 -811 806 0
-14 811 -806 0
-15 -811 806 0
-15 811 -806 0
-16 -806 811 0
-16 -804 811 0
-16 -811 806 804 0
-17 -811 806 0
-17 811 -806 0
-18 -806 811 0
-18 -805 811 0
-18 -811 806 805 0
-19 -811 806 0
-19 811 -806 0
-20 -811 806 0
-20 -811 807 0
-20 811 -806 -807 0
-72 -811 806 0
-72 811 -806 0
-11 -812 807 0
-11 812 -807 0
-12 -812 807 0
-12 812 -807 0
-13 -812 807 0
-13 812 -807 0
-14 -807 812 0
-14 -803 812 0
-14 -812 807 803 0
-15 -812 807 0
-15 812 -807 0
-16 -812 807 0
-16 812 -807 0
-17 -807 812 0
-17 -804 812 0
-17 -812 807 804 0
-18 -812 807 0
-18 812 -807 0
-19 -807 812 0
-19 -805 812 0
-19 -812 807 805 0
-20 -807 812 0
-20 -806 812 0
-20 -812 807 806 0
-72 -812 807 0
-72 812 -807 0
-21 -813 808 0
-21 -813 809 0
-21 813 -808 -809 0
-22 -813 808 0
-22 -813 810 0
-22 813 -808 -810 0
-23 -813 808 0
-23 -813 811 0
-23 813 -808 -811 0
-24 -813 808 0
-24 -813 812 0
-24 813 -808 -812 0
-25 -813 808 0
-25 813 -808 0
-26 -813 808 0
-26 813 -808 0
-27 -813 808 0
-27 813 -808 0
-28 -813 808 0
-28 813 -808 0
-29 -813 808 0
-29 813 -808 0
-30 -813 808 0
-30 813 -808 0
-73 -813 808 0
-73 813 -808 0
-21 -809 814 0
-21 -808 814 0
-21 -814 809 808 0
-22 -814 809 0
-22 814 -809 0
-23 -814 809 0
-23 814 -809 0
-24 -814 809 0
-24 814 -809 0
-25 -814 809 0
-25 -814 810 0
-25 814 -809 -810 0
-26 -814 809 0
-26 -814 811 0
-26 814 -809 -811 0
-27 -814 809 0
-27 -814 812 0
-27 814 -809 -812 0
-28 -814 809 0
-28 814 -809 0
-29 -814 809 0
-29 814 -809 0
-30 -814 809 0
-30 814 -809 0
-73 -814 809 0
-73 814 -809 0
-21 -815 810 0
-21 815 -810 0
-22 -810 815 0
-22 -808 815 0
-22 -815 810 808 0
-23 -815 810 0
-23 815 -810 0
-24 -815 810 0
-24 815 -810 0
-25 -810 815 0
-25 -809 815 0
-25 -815 810 809 0
-26 -815 810 0
-26 815 -810 0
-27 -815 810 0
-27 815 -810 0
-28 -815 810 0
-28 -815 811 0
-28 815 -810 -811 0
-29 -815 810 0
-29 -815 812 0
-29 815 -810 -812 0
-30 -815 810 0
-30 815 -810 0
-73 -815 810 0
-73 815 -810 0
-21 -816 811 0
-21 816 -811 0
-22 -816 811 0
-22 816 -811 0
-23 -811 816 0
-23 -808 816 0
-23 -816 811 808 0
-24 -816 811 0
-24 816 -811 0
-25 -816 811 0
-25 816 -811 0
-26 -811 816 0
-26 -809 816 0
-26 -816 811 809 0
-27 -816 811 0
-27 816 -811 0
-28 -811 816 0
-28 -810 816 0
-28 -816 811 810 0
-29 -816 811 0
-29 816 -811 0
-30 -816 811 0
-30 -816 812 0
-30 816 -811 -812 0
-73 -816 811 0
-73 816 -811 0
-21 -817 812 0
-21 817 -812 0
-22 -817 812 0
-22 817 -812 0
-23 -817 812 0
-23 817 -812 0
-24 -812 817 0
-24 -808 817 0
-24 -817 812 808 0
-25 -817 812 0
-25 817 -812 0
-26 -817 812 0
-26 817 -812 0
-27 -812 817 0
-27 -809 817 0
-27 -817 812 809 0
-28 -817 812 0
-28 817 -812 0
-29 -812 817 0
-29 -810 817 0
-29 -817 812 810 0
-30 -812 817 0
-30 -811 817 0
-30 -817 812 811 0
-73 -817 812 0
-73 817 -812 0
-31 -818 813 0
-31 -818 814 0
-31 818 -813 -814 0
-32 -818 813 0
-32 -818 815 0
-32 818 -813 -815 0
-33 -818 813 0
-33 -818 816 0
-33 818 -813 -816 0
-34 -818 813 0
-34 -818 817 0
-34 818 -813 -817 0
-35 -818 813 0
-35 818 -813 0
-36 -818 813 0
-36 818 -813 0
-37 -818 813 0
-37 818 -813 0
-38 -818 813 0
-38 818 -813 0
-39 -818 813 0
-39 818 -813 0
-40 -818 813 0
-40 818 -813 0
-74 -818 813 0
-74 818 -813 0
-31 -814 819 0
-31 -813 819 0
-31 -819 814 813 0
-32 -819 814 0
-32 819 -814 0
-33 -819 814 0
-33 819 -814 0
-34 -819 814 0
-34 819 -814 0
-35 -819 814 0
-35 -819 815 0
-35 819 -814 -815 0
-36 -819 814 0
-36 -819 816 0
-36 819 -814 -816 0
-37 -819 814 0
-37 -819 817 0
-37 819 -814 -817 0
-38 -819 814 0
-38 819 -814 0
-39 -819 814 0
-39 819 -814 0
-40 -819 814 0
-40 819 -814 0
-74 -819 814 0
-74 819 -814 0
-31 -820 815 0
-31 820 -815 0
-32 -815 820 0
-32 -813 820 0
-32 -820 815 813 0
-33 -820 815 0
-33 820 -815 0
-34 -820 815 0
-34 820 -815 0
-35 -815 820 0
-35 -814 820 0
-35 -820 815 814 0
-36 -820 815 0
-36 820 -815 0
-37 -820 815 0
-37 820 -815 0
-38 -820 815 0
-38 -820 816 0
-38 820 -815 -816 0
-39 -820 815 0
-39 -820 817 0
-39 820 -815 -817 0
-40 -820 815 0
-40 820 -815 0
-74 -820 815 0
-74 820 -815 0
-31 -821 816 0
-31 821 -816 0
-32 -821 816 0
-32 821 -816 0
-33 -816 821 0
-33 -813 821 0
-33 -821 816 813 0
-34 -821 816 0
-34 821 -816 0
-35 -821 816 0
-35 821 -816 0
-36 -816 821 0
-36 -814 821 0
-36 -821 816 814 0
-37 -821 816 0
-37 821 -816 0
-38 -816 821 0
-38 -815 821 0
-38 -821 816 815 0
-39 -821 816 0
-39 821 -816 0
-40 -821 816 0
-40 -821 817 0
-40 821 -816 -817 0
-74 -821 816 0
-74 821 -816 0
-31 -822 817 0
-31 822 -817 0
-32 -822 817 0
-32 822 -817 0
-33 -822 817 0
-33 822 -817 0
-34 -817 822 0
-34 -813 822 0
-34 -822 817 813 0
-35 -822 817 0
-35 822 -817 0
-36 -822 817 0
-36 822 -817 0
-37 -817 822 0
-37 -814 822 0
-37 -822 817 814 0
-38 -822 817 0
-38 822 -817 0
-39 -817 822 0
-39 -815 822 0
-39 -822 817 815 0
-40 -817 822 0
-40 -816 822 0
-40 -822 817 816 0
-74 -822 817 0
-74 822 -817 0
-41 -823 818 0
-41 -823 819 0
-41 823 -818 -819 0
-42 -823 818 0
-42 -823 820 0
-42 823 -818 -820 0
-43 -823 818 0
-43 -823 821 0
-43 823 -818 -821 0
-44 -823 818 0
-44 -823 822 0
-44 823 -818 -822 0
-45 -823 818 0
-45 823 -818 0
-46 -823 818 0
-46 823 -818 0
-47 -823 818 0
-47 823 -818 0
-48 -823 818 0
-48 823 -818 0
-49 -823 818 0
-49 823 -818 0
-50 -823 818 0
-50 823 -818 0
-75 -823 818 0
-75 823 -818 0
-41 -819 824 0
-41 -818 824 0
-41 -824 819 818 0
-42 -824 819 0
-42 824 -819 0
-43 -824 819 0
-43 824 -819 0
-44 -824 819 0
-44 824 -819 0
-45 -824 819 0
-45 -824 820 0
-45 824 -819 -820 0
-46 -824 819 0
-46 -824 821 0
-46 824 -819 -821 0
-47 -824 819 0
-47 -824 822 0
-47 824 -819 -822 0
-48 -824 819 0
-48 824 -819 0
-49 -824 819 0
-49 824 -819 0
-50 -824 819 0
-50 824 -819 0
-75 -824 819 0
-75 824 -819 0
-41 -825 820 0
-41 825 -820 0
-42 -820 825 0
-42 -818 825 0
-42 -825 820 818 0
-43 -825 820 0
-43 825 -820 0
-44 -825 820 0
-44 825 -820 0
-45 -820 825 0
-45 -819 825 0
-45 -825 820 819 0
-46 -825 820 0
-46 825 -820 0
-47 -825 820 0
-47 825 -820 0
-48 -825 820 0
-48 -825 821 0
-48 825 -820 -821 0
-49 -825 820 0
-49 -825 822 0
-49 825 -820 -822 0
-50 -825 820 0
-50 825 -820 0
-75 -825 820 0
-75 825 -820 0
-41 -826 821 0
-41 826 -821 0
-42 -826 821 0
-42 826 -821 0
-43 -821 826 0
-43 -818 826 0
-43 -826 821 818 0
-44 -826 821 0
-44 826 -821 0
-45 -826 821 0
-45 826 -821 0
-46 -821 826 0
-46 -819 826 0
-46 -826 821 819 0
-47 -826 821 0
-47 826 -821 0
-48 -821 826 0
-48 -820 826 0
-48 -826 821 820 0
-49 -826 821 0
-49 826 -821 0
-50 -826 821 0
-50 -826 822 0
-50 826 -821 -822 0
-75 -826 821 0
-75 826 -821 0
-41 -827 822 0
-41 827 -822 0
-42 -827 822 0
-42 827 -822 0
-43 -827 822 0
-43 827 -822 0
-44 -822 827 0
-44 -818 827 0
-44 -827 822 818 0
-45 -827 822 0
-45 827 -822 0
-46 -827 822 0
-46 827 -822 0
-47 -822 827 0
-47 -819 827 0
-47 -827 822 819 0
-48 -827 822 0
-48 827 -822 0
-49 -822 827 0
-49 -820 827 0
-49 -827 822 820 0
-50 -822 827 0
-50 -821 827 0
-50 -827 822 821 0
-75 -827 822 0
-75 827 -822 0
-51 -828 823 0
-51 -828 824 0
-51 828 -823 -824 0
-52 -828 823 0
-52 -828 825 0
-52 828 -823 -825 0
-53 -828 823 0
-53 -828 826 0
-53 828 -823 -826 0
-54 -828 823 0
-54 -828 827 0
-54 828 -823 -827 0
-55 -828 823 0
-55 828 -823 0
-56 -828 823 0
-56 828 -823 0
-57 -828 823 0
-57 828 -823 0
-58 -828 823 0
-58 828 -823 0
-59 -828 823 0
-59 828 -823 0
-60 -828 823 0
-60 828 -823 0
-76 -828 823 0
-76 828 -823 0
-51 -824 829 0
-51 -823 829 0
-51 -829 824 823 0
-52 -829 824 0
-52 829 -824 0
-53 -829 824 0
-53 829 -824 0
-54 -829 824 0
-54 829 -824 0
-55 -829 824 0
-55 -829 825 0
-55 829 -824 -825 0
-56 -829 824 0
-56 -829 826 0
-56 829 -824 -826 0
-57 -829 824 0
-57 -829 827 0
-57 829 -824 -827 0
-58 -829 824 0
-58 829 -824 0
-59 -829 824 0
-59 829 -824 0
-60 -829 824 0
-60 829 -824 0
-76 -829 824 0
-76 829 -824 0
-51 -830 825 0
-51 830 -825 0
-52 -825 830 0
-52 -823 830 0
-52 -830 825 823 0
-53 -830 825 0
-53 830 -825 0
-54 -830 825 0
-54 830 -825 0
-55 -825 830 0
-55 -824 830 0
-55 -830 825 824 0
-56 -830 825 0
-56 830 -825 0
-57 -830 825 0
-57 830 -825 0
-58 -830 825 0
-58 -830 826 0
-58 830 -825 -826 0
-59 -830 825 0
-59 -830 827 0
-59 830 -825 -827 0
-60 -830 825 0
-60 830 -825 0
-76 -830 825 0
-76 830 -825 0
-51 -831 826 0
-51 831 -826 0
-52 -831 826 0
-52 831 -826 0
-53 -826 831 0
-53 -823 831 0
-53 -831 826 823 0
-54 -831 826 0
-54 831 -826 0
-55 -831 826 0
-55 831 -826 0
-56 -826 831 0
-56 -824 831 0
-56 -831 826 824 0
-57 -831 826 0
-57 831 -826 0
-58 -826 831 0
-58 -825 831 0
-58 -831 826 825 0
-59 -831 826 0
-59 831 -826 0
-60 -831 826 0
-60 -831 827 0
-60 831 -826 -827 0
-76 -831 826 0
-76 831 -826 0
-51 -832 827 0
-51 832 -827 0
-52 -832 827 0
-52 832 -827 0
-53 -832 827 0
-53 832 -827 0
-54 -827 832 0
-54 -823 832 0
-54 -832 827 823 0
-55 -832 827 0
-55 832 -827 0
-56 -832 827 0
-56 832 -827 0
-57 -827 832 0
-57 -824 832 0
-57 -832 827 824 0
-58 -832 827 0
-58 832 -827 0
-59 -827 832 0
-59 -825 832 0
-59 -832 827 825 0
-60 -827 832 0
-60 -826 832 0
-60 -832 827 826 0
-76 -832 827 0
-76 832 -827 0
-61 -833 828 0
-61 -833 829 0
-61 833 -828 -829 0
-62 -833 828 0
-62 -833 830 0
-62 833 -828 -830 0
-63 -833 828 0
-63 -833 831 0
-63 833 -828 -831 0
-64 -833 828 0
-64 -833 832 0
-64 833 -828 -832 0
-65 -833 828 0
-65 833 -828 0
-66 -833 828 0
-66 833 -828 0
-67 -833 828 0
-67 833 -828 0
-68 -833 828 0
-68 833 -828 0
-69 -833 828 0
-69 833 -828 0
-70 -833 828 0
-70 833 -828 0
-77 -833 828 0
-77 833 -828 0
-61 -829 834 0
-61 -828 834 0
-61 -834 829 828 0
-62 -834 829 0
-62 834 -829 0
-63 -834 829 0
-63 834 -829 0
-64 -834 829 0
-64 834 -829 0
-65 -834 829 0
-65 -834 830 0
-65 834 -829 -830 0
-66 -834 829 0
-66 -834 831 0
-66 834 -829 -831 0
-67 -834 829 0
-67 -834 832 0
-67 834 -829 -832 0
-68 -834 829 0
-68 834 -829 0
-69 -834 829 0
-69 834 -829 0
-70 -834 829 0
-70 834 -829 0
-77 -834 829 0
-77 834 -829 0
-61 -835 830 0
-61 835 -830 0
-62 -830 835 0
-62 -828 835 0
-62 -835 830 828 0
-63 -835 830 0
-63 835 -830 0
-64 -835 830 0
-64 835 -830 0
-65 -830 835 0
-65 -829 835 0
-65 -835 830 829 0
-66 -835 830 0
-66 835 -830 0
-67 -835 830 0
-67 835 -830 0
-68 -835 830 0
-68 -835 831 0
-68 835 -830 -831 0
-69 -835 830 0
-69 -835 832 0
-69 835 -830 -832 0
-70 -835 830 0
-70 835 -830 0
-77 -835 830 0
-77 835 -830 0
-61 -836 831 0
-61 836 -831 0
-62 -836 831 0
-62 836 -831 0
-63 -831 836 0
-63 -828 836 0
-63 -836 831 828 0
-64 -836 831 0
-64 836 -831 0
-65 -836 831 0
-65 836 -831 0
-66 -831 836 0
-66 -829 836 0
-66 -836 831 829 0
-67 -836 831 0
-67 836 -831 0
-68 -831 836 0
-68 -830 836 0
-68 -836 831 830 0
-69 -836 831 0
-69 836 -831 0
-70 -836 831 0
-70 -836 832 0
-70 836 -831 -832 0
-77 -836 831 0
-77 836 -831 0
-61 -837 832 0
-61 837 -832 0
-62 -837 832 0
-62 837 -832 0
-63 -837 832 0
-63 837 -832 0
-64 -832 837 0
-64 -828 837 0
-64 -837 832 828 0
-65 -837 832 0
-65 837 -832 0
-66 -837 832 0
-66 837 -832 0
-67 -832 837 0
-67 -829 837 0
-67 -837 832 829 0
-68 -837 832 0
-68 837 -832 0
-69 -832 837 0
-69 -830 837 0
-69 -837 832 830 0
-70 -832 837 0
-70 -831 837 0
-70 -837 832 831 0
-77 -837 832 0
-77 837 -832 0
838 0
-1 -843 838 0
-1 -843 839 0
-1 843 -838 -839 0
-2 -843 838 0
-2 -843 840 0
-2 843 -838 -840 0
-3 -843 838 0
-3 -843 841 0
-3 843 -838 -841 0
-4 -843 838 0
-4 -843 842 0
-4 843 -838 -842 0
-5 -843 838 0
-5 843 -838 0
-6 -843 838 0
-6 843 -838 0
-7 -843 838 0
-7 843 -838 0
-8 -843 838 0
-8 843 -838 0
-9 -843 838 0
-9 843 -838 0
-10 -843 838 0
-10 843 -838 0
-71 -843 838 0
-71 843 -838 0
839 0
-1 -839 844 0
-1 -838 844 0
-1 -844 839 838 0
-2 -844 839 0
-2 844 -839 0
-3 -844 839 0
-3 844 -839 0
-4 -844 839 0
-4 844 -839 0
-5 -844 839 0
-5 -844 840 0
-5 844 -839 -840 0
-6 -844 839 0
-6 -844 841 0
-6 844 -839 -841 0
-7 -844 839 0
-7 -844 842 0
-7 844 -839 -842 0
-8 -844 839 0
-8 844 -839 0
-9 -844 839 0
-9 844 -839 0
-10 -844 839 0
-10 844 -839 0
-71 -844 839 0
-71 844 -839 0
-840 0
-1 -845 840 0
-1 845 -840 0
-2 -840 845 0
-2 -838 845 0
-2 -845 840 838 0
-3 -845 840 0
-3 845 -840 0
-4 -845 840 0
-4 845 -840 0
-5 -840 845 0
-5 -839 845 0
-5 -845 840 839 0
-6 -845 840 0
-6 845 -840 0
-7 -845 840 0
-7 845 -840 0
-8 -845 840 0
-8 -845 841 0
-8 845 -840 -841 0
-9 -845 840 0
-9 -845 842 0
-9 845 -840 -842 0
-10 -845 840 0
-10 845 -840 0
-71 -845 840 0
-71 845 -840 0
-841 0
-1 -846 841 0
-1 846 -841 0
-2 -846 841 0
-2 846 -841 0
-3 -841 846 0
-3 -838 846 0
-3 -846 841 838 0
-4 -846 841 0
-4 846 -841 0
-5 -846 841 0
-5 846 -841 0
-6 -841 846 0
-6 -839 846 0
-6 -846 841 839 0
-7 -846 841 0
-7 846 -841 0
-8 -841 846 0
-8 -840 846 0
-8 -846 841 840 0
-9 -846 841 0
-9 846 -841 0
-10 -846 841 0
-10 -846 842 0
-10 846 -841 -842 0
-71 -846 841 0
-71 846 -841 0
-842 0
-1 -847 842 0
-1 847 -842 0
-2 -847 842 0
-2 847 -842 0
-3 -847 842 0
-3 847 -842 0
-4 -842 847 0
-4 -838 847 0
-4 -847 842 838 0
-5 -847 842 0
-5 847 -842 0
-6 -847 842 0
-6 847 -842 0
-7 -842 847 0
-7 -839 847 0
-7 -847 842 839 0
-8 -847 842 0
-8 847 -842 0
-9 -842 847 0
-9 -840 847 0
-9 -847 842 840 0
-10 -842 847 0
-10 -841 847 0
-10 -847 842 841 0
-71 -847 842 0
-71 847 -842 0
-11 -848 843 0
-11 -848 844 0
-11 848 -843 -844 0
-12 -848 843 0
-12 -848 845 0
-12 848 -843 -845 0
-13 -848 843 0
-13 -848 846 0
-13 848 -843 -846 0
-14 -848 843 0
-14 -848 847 0
-14 848 -843 -847 0
-15 -848 843 0
-15 848 -843 0
-16 -848 843 0
-16 848 -843 0
-17 -848 843 0
-17 848 -843 0
-18 -848 843 0
-18 848 -843 0
-19 -848 843 0
-19 848 -843 0
-20 -848 843 0
-20 848 -843 0
-72 -848 843 0
-72 848 -843 0
-11 -844 849 0
-11 -843 849 0
-11 -849 844 843 0
-12 -849 844 0
-12 849 -844 0
-13 -849 844 0
-13 849 -844 0
-14 -849 844 0
-14 849 -844 0
-15 -849 844 0
-15 -849 845 0
-15 849 -844 -845 0
-16 -849 844 0
-16 -849 846 0
-16 849 -844 -846 0
-17 -849 844 0
-17 -849 847 0
-17 849 -844 -847 0
-18 -849 844 0
-18 849 -844 0
-19 -849 844 0
-19 849 -844 0
-20 -849 844 0
-20 849 -844 0
-72 -849 844 0
-72 849 -844 0
-11 -850 845 0
-11 850 -845 0
-12 -845 850 0
-12 -843 850 0
-12 -850 845 843 0
-13 -850 845 0
-13 850 -845 0
-14 -850 845 0
-14 850 -845 0
-15 -845 850 0
-15 -844 850 0
-15 -850 845 844 0
-16 -850 845 0
-16 850 -845 0
-17 -850 845 0
-17 850 -845 0
-18 -850 845 0
-18 -850 846 0
-18 850 -845 -846 0
-19 -850 845 0
-19 -850 847 0
-19 850 -845 -847 0
-20 -850 845 0
-20 850 -845 0
-72 -850 845 0
-72 850 -845 0
-11 -851 846 0
-11 851 -846 0
-12 -851 846 0
-12 851 -846 0
-13 -846 851 0
-13 -843 851 0
-13 -851 846 843 0
-14 -851 846 0
-14 851 -846 0
-15 -851 846 0
-15 851 -846 0
-16 -846 851 0
-16 -844 851 0
-16 -851 846 844 0
-17 -851 846 0
-17 851 -846 0
-18 -846 851 0
-18 -845 851 0
-18 -851 846 845 0
-19 -851 846 0
-19 851 -846 0
-20 -851 846 0
-20 -851 847 0
-20 851 -846 -847 0
-72 -851 846 0
-72 851 -846 0
-11 -852 847 0
-11 852 -847 0
-12 -852 847 0
-12 852 -847 0
-13 -852 847 0
-13 852 -847 0
-14 -847 852 0
-14 -843 852 0
-14 -852 847 843 0
-15 -852 847 0
-15 852 -847 0
-16 -852 847 0
-16 852 -847 0
-17 -847 852 0
-17 -844 852 0
-17 -852 847 844 0
-18 -852 847 0
-18 852 -847 0
-19 -847 852 0
-19 -845 852 0
-19 -852 847 845 0
-20 -847 852 0
-20 -846 852 0
-20 -852 847 846 0
-72 -852 847 0
-72 852 -847 0
-21 -853 848 0
-21 -853 849 0
-21 853 -848 -849 0
-22 -853 848 0
-22 -853 850 0
-22 853 -848 -850 0
-23 -853 848 0
-23 -853 851 0
-23 853 -848 -851 0
-24 -853 848 0
-24 -853 852 0
-24 853 -848 -852 0
-25 -853 848 0
-25 853 -848 0
-26 -853 848 0
-26 853 -848 0
-27 -853 848 0
-27 853 -848 0
-28 -853 848 0
-28 853 -848 0
-29 -853 848 0
-29 853 -848 0
-30 -853 848 0
-30 853 -848 0
-73 -853 848 0
-73 853 -848 0
-21 -849 854 0
-21 -848 854 0
-21 -854 849 848 0
-22 -854 849 0
-22 854 -849 0
-23 -854 849 0
-23 854 -849 0
-24 -854 849 0
-24 854 -849 0
-25 -854 849 0
-25 -854 850 0
-25 854 -849 -850 0
-26 -854 849 0
-26 -854 851 0
-26 854 -849 -851 0
-27 -854 849 0
-27 -854 852 0
-27 854 -849 -852 0
-28 -854 849 0
-28 854 -849 0
-29 -854 849 0
-29 854 -849 0
-30 -854 849 0
-30 854 -849 0
-73 -854 849 0
-73 854 -849 0
-21 -855 850 0
-21 855 -850 0
-22 -850 855 0
-22 -848 855 0
-22 -855 850 848 0
-23 -855 850 0
-23 855 -850 0
-24 -855 850 0
-24 855 -850 0
-25 -850 855 0
-25 -849 855 0
-25 -855 850 849 0
-26 -855 850 0
-26 855 -850 0
-27 -855 850 0
-27 855 -850 0
-28 -855 850 0
-28 -855 851 0
-28 855 -850 -851 0
-29 -855 850 0
-29 -855 852 0
-29 855 -850 -852 0
-30 -855 850 0
-30 855 -850 0
-73 -855 850 0
-73 855 -850 0
-21 -856 851 0
-21 856 -851 0
-22 -856 851 0
-22 856 -851 0
-23 -851 856 0
-23 -848 856 0
-23 -856 851 848 0
-24 -856 851 0
-24 856 -851 0
-25 -856 851 0
-25 856 -851 0
-26 -851 856 0
-26 -849 856 0
-26 -856 851 849 0
-27 -856 851 0
-27 856 -851 0
-28 -851 856 0
-28 -850 856 0
-28 -856 851 850 0
-29 -856 851 0
-29 856 -851 0
-30 -856 851 0
-30 -856 852 0
-30 856 -851 -852 0
-73 -856 851 0
-73 856 -851 0
-21 -857 852 0
-21 857 -852 0
-22 -857 852 0
-22 857 -852 0
-23 -857 852 0
-23 857 -852 0
-24 -852 857 0
-24 -848 857 0
-24 -857 852 848 0
-25 -857 852 0
-25 857 -852 0
-26 -857 852 0
-26 857 -852 0
-27 -852 857 0
-27 -849 857 0
-27 -857 852 849 0
-28 -857 852 0
-28 857 -852 0
-29 -852 857 0
-29 -850 857 0
-29 -857 852 850 0
-30 -852 857 0
-30 -851 857 0
-30 -857 852 851 0
-73 -857 852 0
-73 857 -852 0
-31 -858 853 0
-31 -858 854 0
-31 858 -853 -854 0
-32 -858 853 0
-32 -858 855 0
-32 858 -853 -855 0
-33 -858 853 0
-33 -858 856 0
-33 858 -853 -856 0
-34 -858 853 0
-34 -858 857 0
-34 858 -853 -857 0
-35 -858 853 0
-35 858 -853 0
-36 -858 853 0
-36 858 -853 0
-37 -858 853 0
-37 858 -853 0
-38 -858 853 0
-38 858 -853 0
-39 -858 853 0
-39 858 -853 0
-40 -858 853 0
-40 858 -853 0
-74 -858 853 0
-74 858 -853 0
-31 -854 859 0
-31 -853 859 0
-31 -859 854 853 0
-32 -859 854 0
-32 859 -854 0
-33 -859 854 0
-33 859 -854 0
-34 -859 854 0
-34 859 -854 0
-35 -859 854 0
-35 -859 855 0
-35 859 -854 -855 0
-36 -859 854 0
-36 -859 856 0
-36 859 -854 -856 0
-37 -859 854 0
-37 -859 857 0
-37 859 -854 -857 0
-38 -859 854 0
-38 859 -854 0
-39 -859 854 0
-39 859 -854 0
-40 -859 854 0
-40 859 -854 0
-74 -859 854 0
-74 859 -854 0
-31 -860 855 0
-31 860 -855 0
-32 -855 860 0
-32 -853 860 0
-32 -860 855 853 0
-33 -860 855 0
-33 860 -855 0
-34 -860 855 0
-34 860 -855 0
-35 -855 860 0
-35 -854 860 0
-35 -860 855 854 0
-36 -860 855 0
-36 860 -855 0
-37 -860 855 0
-37 860 -855 0
-38 -860 855 0
-38 -860 856 0
-38 860 -855 -856 0
-39 -860 855 0
-39 -860 857 0
-39 860 -855 -857 0
-40 -860 855 0
-40 860 -855 0
-74 -860 855 0
-74 860 -855 0
-31 -861 856 0
-31 861 -856 0
-32 -861 856 0
-32 861 -856 0
-33 -856 861 0
-33 -853 861 0
-33 -861 856 853 0
-34 -861 856 0
-34 861 -856 0
-35 -861 856 0
-35 861 -856 0
-36 -856 861 0
-36 -854 861 0
-36 -861 856 854 0
-37 -861 856 0
-37 861 -856 0
-38 -856 861 0
-38 -855 861 0
-38 -861 856 855 0
-39 -861 856 0
-39 861 -856 0
-40 -861 856 0
-40 -861 857 0
-40 861 -856 -857 0
-74 -861 856 0
-74 861 -856 0
-31 -862 857 0
-31 862 -857 0
-32 -862 857 0
-32 862 -857 0
-33 -862 857 0
-33 862 -857 0
-34 -857 862 0
-34 -853 862 0
-34 -862 857 853 0
-35 -862 857 0
-35 862 -857 0
-36 -862 857 0
-36 862 -857 0
-37 -857 862 0
-37 -854 862 0
-37 -862 857 854 0
-38 -862 857 0
-38 862 -857 0
-39 -857 862 0
-39 -855 862 0
-39 -862 857 855 0
-40 -857 862 0
-40 -856 862 0
-40 -862 857 856 0
-74 -862 857 0
-74 862 -857 0
-41 -863 858 0
-41 -863 859 0
-41 863 -858 -859 0
-42 -863 858 0
-42 -863 860 0
-42 863 -858 -860 0
-43 -863 858 0
-43 -863 861 0
-43 863 -858 -861 0
-44 -863 858 0
-44 -863 862 0
-44 863 -858 -862 0
-45 -863 858 0
-45 863 -858 0
-46 -863 858 0
-46 863 -858 0
-47 -863 858 0
-47 863 -858 0
-48 -863 858 0
-48 863 -858 0
-49 -863 858 0
-49 863 -858 0
-50 -863 858 0
-50 863 -858 0
-75 -863 858 0
-75 863 -858 0
-41 -859 864 0
-41 -858 864 0
-41 -864 859 858 0
-42 -864 859 0
-42 864 -859 0
-43 -864 859 0
-43 864 -859 0
-44 -864 859 0
-44 864 -859 0
-45 -864 859 0
-45 -864 860 0
-45 864 -859 -860 0
-46 -864 859 0
-46 -864 861 0
-46 864 -859 -861 0
-47 -864 859 0
-47 -864 862 0
-47 864 -859 -862 0
-48 -864 859 0
-48 864 -859 0
-49 -864 859 0
-49 864 -859 0
-50 -864 859 0
-50 864 -859 0
-75 -864 859 0
-75 864 -859 0
-41 -865 860 0
-41 865 -860 0
-42 -860 865 0
-42 -858 865 0
-42 -865 860 858 0
-43 -865 860 0
-43 865 -860 0
-44 -865 860 0
-44 865 -860 0
-45 -860 865 0
-45 -859 865 0
-45 -865 860 859 0
-46 -865 860 0
-46 865 -860 0
-47 -865 860 0
-47 865 -860 0
-48 -865 860 0
-48 -865 861 0
-48 865 -860 -861 0
-49 -865 860 0
-49 -865 862 0
-49 865 -860 -862 0
-50 -865 860 0
-50 865 -860 0
-75 -865 860 0
-75 865 -860 0
-41 -866 861 0
-41 866 -861 0
-42 -866 861 0
-42 866 -861 0
-43 -861 866 0
-43 -858 866 0
-43 -866 861 858 0
-44 -866 861 0
-44 866 -861 0
-45 -866 861 0
-45 866 -861 0
-46 -861 866 0
-46 -859 866 0
-46 -866 861 859 0
-47 -866 861 0
-47 866 -861 0
-48 -861 866 0
-48 -860 866 0
-48 -866 861 860 0
-49 -866 861 0
-49 866 -861 0
-50 -866 861 0
-50 -866 862 0
-50 866 -861 -862 0
-75 -866 861 0
-75 866 -861 0
-41 -867 862 0
-41 867 -862 0
-42 -867 862 0
-42 867 -862 0
-43 -867 862 0
-43 867 -862 0
-44 -862 867 0
-44 -858 867 0
-44 -867 862 858 0
-45 -867 862 0
-45 867 -862 0
-46 -867 862 0
-46 867 -862 0
-47 -862 867 0
-47 -859 867 0
-47 -867 862 859 0
-48 -867 862 0
-48 867 -862 0
-49 -862 867 0
-49 -860 867 0
-49 -867 862 860 0
-50 -862 867 0
-50 -861 867 0
-50 -867 862 861 0
-75 -867 862 0
-75 867 -862 0
-51 -868 863 0
-51 -868 864 0
-51 868 -863 -864 0
-52 -868 863 0
-52 -868 865 0
-52 868 -863 -865 0
-53 -868 863 0
-53 -868 866 0
-53 868 -863 -866 0
-54 -868 863 0
-54 -868 867 0
-54 868 -863 -867 0
-55 -868 863 0
-55 868 -863 0
-56 -868 863 0
-56 868 -863 0
-57 -868 863 0
-57 868 -863 0
-58 -868 863 0
-58 868 -863 0
-59 -868 863 0
-59 868 -863 0
-60 -868 863 0
-60 868 -863 0
-76 -868 863 0
-76 868 -863 0
-51 -864 869 0
-51 -863 869 0
-51 -869 864 863 0
-52 -869 864 0
-52 869 -864 0
-53 -869 864 0
-53 869 -864 0
-54 -869 864 0
-54 869 -864 0
-55 -869 864 0
-55 -869 865 0
-55 869 -864 -865 0
-56 -869 864 0
-56 -869 866 0
-56 869 -864 -866 0
-57 -869 864 0
-57 -869 867 0
-57 869 -864 -867 0
-58 -869 864 0
-58 869 -864 0
-59 -869 864 0
-59 869 -864 0
-60 -869 864 0
-60 869 -864 0
-76 -869 864 0
-76 869 -864 0
-51 -870 865 0
-51 870 -865 0
-52 -865 870 0
-52 -863 870 0
-52 -870 865 863 0
-53 -870 865 0
-53 870 -865 0
-54 -870 865 0
-54 870 -865 0
-55 -865 870 0
-55 -864 870 0
-55 -870 865 864 0
-56 -870 865 0
-56 870 -865 0
-57 -870 865 0
-57 870 -865 0
-58 -870 865 0
-58 -870 866 0
-58 870 -865 -866 0
-59 -870 865 0
-59 -870 867 0
-59 870 -865 -867 0
-60 -870 865 0
-60 870 -865 0
-76 -870 865 0
-76 870 -865 0
-51 -871 866 0
-51 871 -866 0
-52 -871 866 0
-52 871 -866 0
-53 -866 871 0
-53 -863 871 0
-53 -871 866 863 0
-54 -871 866 0
-54 871 -866 0
-55 -871 866 0
-55 871 -866 0
-56 -866 871 0
-56 -864 871 0
-56 -871 866 864 0
-57 -871 866 0
-57 871 -866 0
-58 -866 871 0
-58 -865 871 0
-58 -871 866 865 0
-59 -871 866 0
-59 871 -866 0
-60 -871 866 0
-60 -871 867 0
-60 871 -866 -867 0
-76 -871 866 0
-76 871 -866 0
-51 -872 867 0
-51 872 -867 0
-52 -872 867 0
-52 872 -867 0
-53 -872 867 0
-53 872 -867 0
-54 -867 872 0
-54 -863 872 0
-54 -872 867 863 0
-55 -872 867 0
-55 872 -867 0
-56 -872 867 0
-56 872 -867 0
-57 -867 872 0
-57 -864 872 0
-57 -872 867 864 0
-58 -872 867 0
-58 872 -867 0
-59 -867 872 0
-59 -865 872 0
-59 -872 867 865 0
-60 -867 872 0
-60 -866 872 0
-60 -872 867 866 0
-76 -872 867 0
-76 872 -867 0
-61 -873 868 0
-61 -873 869 0
-61 873 -868 -869 0
-62 -873 868 0
-62 -873 870 0
-62 873 -868 -870 0
-63 -873 868 0
-63 -873 871 0
-63 873 -868 -871 0
-64 -873 868 0
-64 -873 872 0
-64 873 -868 -872 0
-65 -873 868 0
-65 873 -868 0
-66 -873 868 0
-66 873 -868 0
-67 -873 868 0
-67 873 -868 0
-68 -873 868 0
-68 873 -868 0
-69 -873 868 0
-69 873 -868 0
-70 -873 868 0
-70 873 -868 0
-77 -873 868 0
-77 873 -868 0
-61 -869 874 0
-61 -868 874 0
-61 -874 869 868 0
-62 -874 869 0
-62 874 -869 0
-63 -874 869 0
-63 874 -869 0
-64 -874 869 0
-64 874 -869 0
-65 -874 869 0
-65 -874 870 0
-65 874 -869 -870 0
-66 -874 869 0
-66 -874 871 0
-66 874 -869 -871 0
-67 -874 869 0
-67 -874 872 0
-67 874 -869 -872 0
-68 -874 869 0
-68 874 -869 0
-69 -874 869 0
-69 874 -869 0
-70 -874 869 0
-70 874 -869 0
-77 -874 869 0
-77 874 -869 0
-61 -875 870 0
-61 875 -870 0
-62 -870 875 0
-62 -868 875 0
-62 -875 870 868 0
-63 -875 870 0
-63 875 -870 0
-64 -875 870 0
-64 875 -870 0
-65 -870 875 0
-65 -869 875 0
-65 -875 870 869 0
-66 -875 870 0
-66 875 -870 0
-67 -875 870 0
-67 875 -870 0
-68 -875 870 0
-68 -875 871 0
-68 875 -870 -871 0
-69 -875 870 0
-69 -875 872 0
-69 875 -870 -872 0
-70 -875 870 0
-70 875 -870 0
-77 -875 870 0
-77 875 -870 0
-61 -876 871 0
-61 876 -871 0
-62 -876 871 0
-62 876 -871 0
-63 -871 876 0
-63 -868 876 0
-63 -876 871 868 0
-64 -876 871 0
-64 876 -871 0
-65 -876 871 0
-65 876 -871 0
-66 -871 876 0
-66 -869 876 0
-66 -876 871 869 0
-67 -876 871 0
-67 876 -871 0
-68 -871 876 0
-68 -870 876 0
-68 -876 871 870 0
-69 -876 871 0
-69 876 -871 0
-70 -876 871 0
-70 -876 872 0
-70 876 -871 -872 0
-77 -876 871 0
-77 876 -871 0
-61 -877 872 0
-61 877 -872 0
-62 -877 872 0
-62 877 -872 0
-63 -877 872 0
-63 877 -872 0
-64 -872 877 0
-64 -868 877 0
-64 -877 872 868 0
-65 -877 872 0
-65 877 -872 0
-66 -877 872 0
-66 877 -872 0
-67 -872 877 0
-67 -869 877 0
-67 -877 872 869 0
-68 -877 872 0
-68 877 -872 0
-69 -872 877 0
-69 -870 877 0
-69 -877 872 870 0
-70 -872 877 0
-70 -871 877 0
-70 -877 872 871 0
-77 -877 872 0
-77 877 -872 0
878 0
-1 -883 878 0
-1 -883 879 0
-1 883 -878 -879 0
-2 -883 878 0
-2 -883 880 0
-2 883 -878 -880 0
-3 -883 878 0
-3 -883 881 0
-3 883 -878 -881 0
-4 -883 878 0
-4 -883 882 0
-4 883 -878 -882 0
-5 -883 878 0
-5 883 -878 0
-6 -883 878 0
-6 883 -878 0
-7 -883 878 0
-7 883 -878 0
-8 -883 878 0
-8 883 -878 0
-9 -883 878 0
-9 883 -878 0
-10 -883 878 0
-10 883 -878 0
-71 -883 878 0
-71 883 -878 0
879 0
-1 -879 884 0
-1 -878 884 0
-1 -884 879 878 0
-2 -884 879 0
-2 884 -879 0
-3 -884 879 0
-3 884 -879 0
-4 -884 879 0
-4 884 -879 0
-5 -884 879 0
-5 -884 880 0
-5 884 -879 -880 0
-6 -884 879 0
-6 -884 881 0
-6 884 -879 -881 0
-7 -884 879 0
-7 -884 882 0
-7 884 -879 -882 0
-8 -884 879 0
-8 884 -879 0
-9 -884 879 0
-9 884 -879 0
-10 -884 879 0
-10 884 -879 0
-71 -884 879 0
-71 884 -879 0
-880 0
-1 -885 880 0
-1 885 -880 0
-2 -880 885 0
-2 -878 885 0
-2 -885 880 878 0
-3 -885 880 0
-3 885 -880 0
-4 -885 880 0
-4 885 -880 0
-5 -880 885 0
-5 -879 885 0
-5 -885 880 879 0
-6 -885 880 0
-6 885 -880 0
-7 -885 880 0
-7 885 -880 0
-8 -885 880 0
-8 -885 881 0
-8 885 -880 -881 0
-9 -885 880 0
-9 -885 882 0
-9 885 -880 -882 0
-10 -885 880 0
-10 885 -880 0
-71 -885 880 0
-71 885 -880 0
-881 0
-1 -886 881 0
-1 886 -881 0
-2 -886 881 0
-2 886 -881 0
-3 -881 886 0
-3 -878 886 0
-3 -886 881 878 0
-4 -886 881 0
-4 886 -881 0
-5 -886 881 0
-5 886 -881 0
-6 -881 886 0
-6 -879 886 0
-6 -886 881 879 0
-7 -886 881 0
-7 886 -881 0
-8 -881 886 0
-8 -880 886 0
-8 -886 881 880 0
-9 -886 881 0
-9 886 -881 0
-10 -886 881 0
-10 -886 882 0
-10 886 -881 -882 0
-71 -886 881 0
-71 886 -881 0
882 0
-1 -887 882 0
-1 887 -882 0
-2 -887 882 0
-2 887 -882 0
-3 -887 882 0
-3 887 -882 0
-4 -882 887 0
-4 -878 887 0
-4 -887 882 878 0
-5 -887 882 0
-5 887 -882 0
-6 -887 882 0
-6 887 -882 0
-7 -882 887 0
-7 -879 887 0
-7 -887 882 879 0
-8 -887 882 0
-8 887 -882 0
-9 -882 887 0
-9 -880 887 0
-9 -887 882 880 0
-10 -882 887 0
-10 -881 887 0
-10 -887 882 881 0
-71 -887 882 0
-71 887 -882 0
-11 -888 883 0
-11 -888 884 0
-11 888 -883 -884 0
-12 -888 883 0
-12 -888 885 0
-12 888 -883 -885 0
-13 -888 883 0
-13 -888 886 0
-13 888 -883 -886 0
-14 -888 883 0
-14 -888 887 0
-14 888 -883 -887 0
-15 -888 883 0
-15 888 -883 0
-16 -888 883 0
-16 888 -883 0
-17 -888 883 0
-17 888 -883 0
-18 -888 883 0
-18 888 -883 0
-19 -888 883 0
-19 888 -883 0
-20 -888 883 0
-20 888 -883 0
-72 -888 883 0
-72 888 -883 0
-11 -884 889 0
-11 -883 889 0
-11 -889 884 883 0
-12 -889 884 0
-12 889 -884 0
-13 -889 884 0
-13 889 -884 0
-14 -889 884 0
-14 889 -884 0
-15 -889 884 0
-15 -889 885 0
-15 889 -884 -885 0
-16 -889 884 0
-16 -889 886 0
-16 889 -884 -886 0
-17 -889 884 0
-17 -889 887 0
-17 889 -884 -887 0
-18 -889 884 0
-18 889 -884 0
-19 -889 884 0
-19 889 -884 0
-20 -889 884 0
-20 889 -884 0
-72 -889 884 0
-72 889 -884 0
-11 -890 885 0
-11 890 -885 0
-12 -885 890 0
-12 -883 890 0
-12 -890 885 883 0
-13 -890 885 0
-13 890 -885 0
-14 -890 885 0
-14 890 -885 0
-15 -885 890 0
-15 -884 890 0
-15 -890 885 884 0
-16 -890 885 0
-16 890 -885 0
-17 -890 885 0
-17 890 -885 0
-18 -890 885 0
-18 -890 886 0
-18 890 -885 -886 0
-19 -890 885 0
-19 -890 887 0
-19 890 -885 -887 0
-20 -890 885 0
-20 890 -885 0
-72 -890 885 0
-72 890 -885 0
-11 -891 886 0
-11 891 -886 0
-12 -891 886 0
-12 891 -886 0
-13 -886 891 0
-13 -883 891 0
-13 -891 886 883 0
-14 -891 886 0
-14 891 -886 0
-15 -891 886 0
-15 891 -886 0
-16 -886 891 0
-16 -884 891 0
-16 -891 886 884 0
-17 -891 886 0
-17 891 -886 0
-18 -886 891 0
-18 -885 891 0
-18 -891 886 885 0
-19 -891 886 0
-19 891 -886 0
-20 -891 886 0
-20 -891 887 0
-20 891 -886 -887 0
-72 -891 886 0
-72 891 -886 0
-11 -892 887 0
-11 892 -887 0
-12 -892 887 0
-12 892 -887 0
-13 -892 887 0
-13 892 -887 0
-14 -887 892 0
-14 -883 892 0
-14 -892 887 883 0
-15 -892 887 0
-15 892 -887 0
-16 -892 887 0
-16 892 -887 0
-17 -887 892 0
-17 -884 892 0
-17 -892 887 884 0
-18 -892 887 0
-18 892 -887 0
-19 -887 892 0
-19 -885 892 0
-19 -892 887 885 0
-20 -887 892 0
-20 -886 892 0
-20 -892 887 886 0
-72 -892 887 0
-72 892 -887 0
-21 -893 888 0
-21 -893 889 0
-21 893 -888 -889 0
-22 -893 888 0
-22 -893 890 0
-22 893 -888 -890 0
-23 -893 888 0
-23 -893 891 0
-23 893 -888 -891 0
-24 -893 888 0
-24 -893 892 0
-24 893 -888 -892 0
-25 -893 888 0
-25 893 -888 0
-26 -893 888 0
-26 893 -888 0
-27 -893 888 0
-27 893 -888 0
-28 -893 888 0
-28 893 -888 0
-29 -893 888 0
-29 893 -888 0
-30 -893 888 0
-30 893 -888 0
-73 -893 888 0
-73 893 -888 0
-21 -889 894 0
-21 -888 894 0
-21 -894 889 888 0
-22 -894 889 0
-22 894 -889 0
-23 -894 889 0
-23 894 -889 0
-24 -894 889 0
-24 894 -889 0
-25 -894 889 0
-25 -894 890 0
-25 894 -889 -890 0
-26 -894 889 0
-26 -894 891 0
-26 894 -889 -891 0
-27 -894 889 0
-27 -894 892 0
-27 894 -889 -892 0
-28 -894 889 0
-28 894 -889 0
-29 -894 889 0
-29 894 -889 0
-30 -894 889 0
-30 894 -889 0
-73 -894 889 0
-73 894 -889 0
-21 -895 890 0
-21 895 -890 0
-22 -890 895 0
-22 -888 895 0
-22 -895 890 888 0
-23 -895 890 0
-23 895 -890 0
-24 -895 890 0
-24 895 -890 0
-25 -890 895 0
-25 -889 895 0
-25 -895 890 889 0
-26 -895 890 0
-26 895 -890 0
-27 -895 890 0
-27 895 -890 0
-28 -895 890 0
-28 -895 891 0
-28 895 -890 -891 0
-29 -895 890 0
-29 -895 892 0
-29 895 -890 -892 0
-30 -895 890 0
-30 895 -890 0
-73 -895 890 0
-73 895 -890 0
-21 -896 891 0
-21 896 -891 0
-22 -896 891 0
-22 896 -891 0
-23 -891 896 0
-23 -888 896 0
-23 -896 891 888 0
-24 -896 891 0
-24 896 -891 0
-25 -896 891 0
-25 896 -891 0
-26 -891 896 0
-26 -889 896 0
-26 -896 891 889 0
-27 -896 891 0
-27 896 -891 0
-28 -891 896 0
-28 -890 896 0
-28 -896 891 890 0
-29 -896 891 0
-29 896 -891 0
-30 -896 891 0
-30 -896 892 0
-30 896 -891 -892 0
-73 -896 891 0
-73 896 -891 0
-21 -897 892 0
-21 897 -892 0
-22 -897 892 0
-22 897 -892 0
-23 -897 892 0
-23 897 -892 0
-24 -892 897 0
-24 -888 897 0
-24 -897 892 888 0
-25 -897 892 0
-25 897 -892 0
-26 -897 892 0
-26 897 -892 0
-27 -892 897 0
-27 -889 897 0
-27 -897 892 889 0
-28 -897 892 0
-28 897 -892 0
-29 -892 897 0
-29 -890 897 0
-29 -897 892 890 0
-30 -892 897 0
-30 -891 897 0
-30 -897 892 891 0
-73 -897 892 0
-73 897 -892 0
-31 -898 893 0
-31 -898 894 0
-31 898 -893 -894 0
-32 -898 893 0
-32 -898 895 0
-32 898 -893 -895 0
-33 -898 893 0
-33 -898 896 0
-33 898 -893 -896 0
-34 -898 893 0
-34 -898 897 0
-34 898 -893 -897 0
-35 -898 893 0
-35 898 -893 0
-36 -898 893 0
-36 898 -893 0
-37 -898 893 0
-37 898 -893 0
-38 -898 893 0
-38 898 -893 0
-39 -898 893 0
-39 898 -893 0
-40 -898 893 0
-40 898 -893 0
-74 -898 893 0
-74 898 -893 0
-31 -894 899 0
-31 -893 899 0
-31 -899 894 893 0
-32 -899 894 0
-32 899 -894 0
-33 -899 894 0
-33 899 -894 0
-34 -899 894 0
-34 899 -894 0
-35 -899 894 0
-35 -899 895 0
-35 899 -894 -895 0
-36 -899 894 0
-36 -899 896 0
-36 899 -894 -896 0
-37 -899 894 0
-37 -899 897 0
-37 899 -894 -897 0
-38 -899 894 0
-38 899 -894 0
-39 -899 894 0
-39 899 -894 0
-40 -899 894 0
-40 899 -894 0
-74 -899 894 0
-74 899 -894 0
-31 -900 895 0
-31 900 -895 0
-32 -895 900 0
-32 -893 900 0
-32 -900 895 893 0
-33 -900 895 0
-33 900 -895 0
-34 -900 895 0
-34 900 -895 0
-35 -895 900 0
-35 -894 900 0
-35 -900 895 894 0
-36 -900 895 0
-36 900 -895 0
-37 -900 895 0
-37 900 -895 0
-38 -900 895 0
-38 -900 896 0
-38 900 -895 -896 0
-39 -900 895 0
-39 -900 897 0
-39 900 -895 -897 0
-40 -900 895 0
-40 900 -895 0
-74 -900 895 0
-74 900 -895 0
-31 -901 896 0
-31 901 -896 0
-32 -901 896 0
-32 901 -896 0
-33 -896 901 0
-33 -893 901 0
-33 -901 896 893 0
-34 -901 896 0
-34 901 -896 0
-35 -901 896 0
-35 901 -896 0
-36 -896 901 0
-36 -894 901 0
-36 -901 896 894 0
-37 -901 896 0
-37 901 -896 0
-38 -896 901 0
-38 -895 901 0
-38 -901 896 895 0
-39 -901 896 0
-39 901 -896 0
-40 -901 896 0
-40 -901 897 0
-40 901 -896 -897 0
-74 -901 896 0
-74 901 -896 0
-31 -902 897 0
-31 902 -897 0
-32 -902 897 0
-32 902 -897 0
-33 -902 897 0
-33 902 -897 0
-34 -897 902 0
-34 -893 902 0
-34 -902 897 893 0
-35 -902 897 0
-35 902 -897 0
-36 -902 897 0
-36 902 -897 0
-37 -897 902 0
-37 -894 902 0
-37 -902 897 894 0
-38 -902 897 0
-38 902 -897 0
-39 -897 902 0
-39 -895 902 0
-39 -902 897 895 0
-40 -897 902 0
-40 -896 902 0
-40 -902 897 896 0
-74 -902 897 0
-74 902 -897 0
-41 -903 898 0
-41 -903 899 0
-41 903 -898 -899 0
-42 -903 898 0
-42 -903 900 0
-42 903 -898 -900 0
-43 -903 898 0
-43 -903 901 0
-43 903 -898 -901 0
-44 -903 898 0
-44 -903 902 0
-44 903 -898 -902 0
-45 -903 898 0
-45 903 -898 0
-46 -903 898 0
-46 903 -898 0
-47 -903 898 0
-47 903 -898 0
-48 -903 898 0
-48 903 -898 0
-49 -903 898 0
-49 903 -898 0
-50 -903 898 0
-50 903 -898 0
-75 -903 898 0
-75 903 -898 0
-41 -899 904 0
-41 -898 904 0
-41 -904 899 898 0
-42 -904 899 0
-42 904 -899 0
-43 -904 899 0
-43 904 -899 0
-44 -904 899 0
-44 904 -899 0
-45 -904 899 0
-45 -904 900 0
-45 904 -899 -900 0
-46 -904 899 0
-46 -904 901 0
-46 904 -899 -901 0
-47 -904 899 0
-47 -904 902 0
-47 904 -899 -902 0
-48 -904 899 0
-48 904 -899 0
-49 -904 899 0
-49 904 -899 0
-50 -904 899 0
-50 904 -899 0
-75 -904 899 0
-75 904 -899 0
-41 -905 900 0
-41 905 -900 0
-42 -900 905 0
-42 -898 905 0
-42 -905 900 898 0
-43 -905 900 0
-43 905 -900 0
-44 -905 900 0
-44 905 -900 0
-45 -900 905 0
-45 -899 905 0
-45 -905 900 899 0
-46 -905 900 0
-46 905 -900 0
-47 -905 900 0
-47 905 -900 0
-48 -905 900 0
-48 -905 901 0
-48 905 -900 -901 0
-49 -905 900 0
-49 -905 902 0
-49 905 -900 -902 0
-50 -905 900 0
-50 905 -900 0
-75 -905 900 0
-75 905 -900 0
-41 -906 901 0
-41 906 -901 0
-42 -906 901 0
-42 906 -901 0
-43 -901 906 0
-43 -898 906 0
-43 -906 901 898 0
-44 -906 901 0
-44 906 -901 0
-45 -906 901 0
-45 906 -901 0
-46 -901 906 0
-46 -899 906 0
-46 -906 901 899 0
-47 -906 901 0
-47 906 -901 0
-48 -901 906 0
-48 -900 906 0
-48 -906 901 900 0
-49 -906 901 0
-49 906 -901 0
-50 -906 901 0
-50 -906 902 0
-50 906 -901 -902 0
-75 -906 901 0
-75 906 -901 0
-41 -907 902 0
-41 907 -902 0
-42 -907 902 0
-42 907 -902 0
-43 -907 902 0
-43 907 -902 0
-44 -902 907 0
-44 -898 907 0
-44 -907 902 898 0
-45 -907 902 0
-45 907 -902 0
-46 -907 902 0
-46 907 -902 0
-47 -902 907 0
-47 -899 907 0
-47 -907 902 899 0
-48 -907 902 0
-48 907 -902 0
-49 -902 907 0
-49 -900 907 0
-49 -907 902 900 0
-50 -902 907 0
-50 -901 907 0
-50 -907 902 901 0
-75 -907 902 0
-75 907 -902 0
-51 -908 903 0
-51 -908 904 0
-51 908 -903 -904 0
-52 -908 903 0
-52 -908 905 0
-52 908 -903 -905 0
-53 -908 903 0
-53 -908 906 0
-53 908 -903 -906 0
-54 -908 903 0
-54 -908 907 0
-54 908 -903 -907 0
-55 -908 903 0
-55 908 -903 0
-56 -908 903 0
-56 908 -903 0
-57 -908 903 0
-57 908 -903 0
-58 -908 903 0
-58 908 -903 0
-59 -908 903 0
-59 908 -903 0
-60 -908 903 0
-60 908 -903 0
-76 -908 903 0
-76 908 -903 0
-51 -904 909 0
-51 -903 909 0
-51 -909 904 903 0
-52 -909 904 0
-52 909 -904 0
-53 -909 904 0
-53 909 -904 0
-54 -909 904 0
-54 909 -904 0
-55 -909 904 0
-55 -909 905 0
-55 909 -904 -905 0
-56 -909 904 0
-56 -909 906 0
-56 909 -904 -906 0
-57 -909 904 0
-57 -909 907 0
-57 909 -904 -907 0
-58 -909 904 0
-58 909 -904 0
-59 -909 904 0
-59 909 -904 0
-60 -909 904 0
-60 909 -904 0
-76 -909 904 0
-76 909 -904 0
-51 -910 905 0
-51 910 -905 0
-52 -905 910 0
-52 -903 910 0
-52 -910 905 903 0
-53 -910 905 0
-53 910 -905 0
-54 -910 905 0
-54 910 -905 0
-55 -905 910 0
-55 -904 910 0
-55 -910 905 904 0
-56 -910 905 0
-56 910 -905 0
-57 -910 905 0
-57 910 -905 0
-58 -910 905 0
-58 -910 906 0
-58 910 -905 -906 0
-59 -910 905 0
-59 -910 907 0
-59 910 -905 -907 0
-60 -910 905 0
-60 910 -905 0
-76 -910 905 0
-76 910 -905 0
-51 -911 906 0
-51 911 -906 0
-52 -911 906 0
-52 911 -906 0
-53 -906 911 0
-53 -903 911 0
-53 -911 906 903 0
-54 -911 906 0
-54 911 -906 0
-55 -911 906 0
-55 911 -906 0
-56 -906 911 0
-56 -904 911 0
-56 -911 906 904 0
-57 -911 906 0
-57 911 -906 0
-58 -906 911 0
-58 -905 911 0
-58 -911 906 905 0
-59 -911 906 0
-59 911 -906 0
-60 -911 906 0
-60 -911 907 0
-60 911 -906 -907 0
-76 -911 906 0
-76 911 -906 0
-51 -912 907 0
-51 912 -907 0
-52 -912 907 0
-52 912 -907 0
-53 -912 907 0
-53 912 -907 0
-54 -907 912 0
-54 -903 912 0
-54 -912 907 903 0
-55 -912 907 0
-55 912 -907 0
-56 -912 907 0
-56 912 -907 0
-57 -907 912 0
-57 -904 912 0
-57 -912 907 904 0
-58 -912 907 0
-58 912 -907 0
-59 -907 912 0
-59 -905 912 0
-59 -912 907 905 0
-60 -907 912 0
-60 -906 912 0
-60 -912 907 906 0
-76 -912 907 0
-76 912 -907 0
-61 -913 908 0
-61 -913 909 0
-61 913 -908 -909 0
-62 -913 908 0
-62 -913 910 0
-62 913 -908 -910 0
-63 -913 908 0
-63 -913 911 0
-63 913 -908 -911 0
-64 -913 908 0
-64 -913 912 0
-64 913 -908 -912 0
-65 -913 908 0
-65 913 -908 0
-66 -913 908 0
-66 913 -908 0
-67 -913 908 0
-67 913 -908 0
-68 -913 908 0
-68 913 -908 0
-69 -913 908 0
-69 913 -908 0
-70 -913 908 0
-70 913 -908 0
-77 -913 908 0
-77 913 -908 0
-61 -909 914 0
-61 -908 914 0
-61 -914 909 908 0
-62 -914 909 0
-62 914 -909 0
-63 -914 909 0
-63 914 -909 0
-64 -914 909 0
-64 914 -909 0
-65 -914 909 0
-65 -914 910 0
-65 914 -909 -910 0
-66 -914 909 0
-66 -914 911 0
-66 914 -909 -911 0
-67 -914 909 0
-67 -914 912 0
-67 914 -909 -912 0
-68 -914 909 0
-68 914 -909 0
-69 -914 909 0
-69 914 -909 0
-70 -914 909 0
-70 914 -909 0
-77 -914 909 0
-77 914 -909 0
-61 -915 910 0
-61 915 -910 0
-62 -910 915 0
-62 -908 915 0
-62 -915 910 908 0
-63 -915 910 0
-63 915 -910 0
-64 -915 910 0
-64 915 -910 0
-65 -910 915 0
-65 -909 915 0
-65 -915 910 909 0
-66 -915 910 0
-66 915 -910 0
-67 -915 910 0
-67 915 -910 0
-68 -915 910 0
-68 -915 911 0
-68 915 -910 -911 0
-69 -915 910 0
-69 -915 912 0
-69 915 -910 -912 0
-70 -915 910 0
-70 915 -910 0
-77 -915 910 0
-77 915 -910 0
-61 -916 911 0
-61 916 -911 0
-62 -916 911 0
-62 916 -911 0
-63 -911 916 0
-63 -908 916 0
-63 -916 911 908 0
-64 -916 911 0
-64 916 -911 0
-65 -916 911 0
-65 916 -911 0
-66 -911 916 0
-66 -909 916 0
-66 -916 911 909 0
-67 -916 911 0
-67 916 -911 0
-68 -911 916 0
-68 -910 916 0
-68 -916 911 910 0
-69 -916 911 0
-69 916 -911 0
-70 -916 911 0
-70 -916 912 0
-70 916 -911 -912 0
-77 -916 911 0
-77 916 -911 0
-61 -917 912 0
-61 917 -912 0
-62 -917 912 0
-62 917 -912 0
-63 -917 912 0
-63 917 -912 0
-64 -912 917 0
-64 -908 917 0
-64 -917 912 908 0
-65 -917 912 0
-65 917 -912 0
-66 -917 912 0
-66 917 -912 0
-67 -912 917 0
-67 -909 917 0
-67 -917 912 909 0
-68 -917 912 0
-68 917 -912 0
-69 -912 917 0
-69 -910 917 0
-69 -917 912 910 0
-70 -912 917 0
-70 -911 917 0
-70 -917 912 911 0
-77 -917 912 0
-77 917 -912 0
918 0
-1 -923 918 0
-1 -923 919 0
-1 923 -918 -919 0
-2 -923 918 0
-2 -923 920 0
-2 923 -918 -920 0
-3 -923 918 0
-3 -923 921 0
-3 923 -918 -921 0
-4 -923 918 0
-4 -923 922 0
-4 923 -918 -922 0
-5 -923 918 0
-5 923 -918 0
-6 -923 918 0
-6 923 -918 0
-7 -923 918 0
-7 923 -918 0
-8 -923 918 0
-8 923 -918 0
-9 -923 918 0
-9 923 -918 0
-10 -923 918 0
-10 923 -918 0
-71 -923 918 0
-71 923 -918 0
919 0
-1 -919 924 0
-1 -918 924 0
-1 -924 919 918 0
-2 -924 919 0
-2 924 -919 0
-3 -924 919 0
-3 924 -919 0
-4 -924 919 0
-4 924 -919 0
-5 -924 919 0
-5 -924 920 0
-5 924 -919 -920 0
-6 -924 919 0
-6 -924 921 0
-6 924 -919 -921 0
-7 -924 919 0
-7 -924 922 0
-7 924 -919 -922 0
-8 -924 919 0
-8 924 -919 0
-9 -924 919 0
-9 924 -919 0
-10 -924 919 0
-10 924 -919 0
-71 -924 919 0
-71 924 -919 0
-920 0
-1 -925 920 0
-1 925 -920 0
-2 -920 925 0
-2 -918 925 0
-2 -925 920 918 0
-3 -925 920 0
-3 925 -920 0
-4 -925 920 0
-4 925 -920 0
-5 -920 925 0
-5 -919 925 0
-5 -925 920 919 0
-6 -925 920 0
-6 925 -920 0
-7 -925 920 0
-7 925 -920 0
-8 -925 920 0
-8 -925 921 0
-8 925 -920 -921 0
-9 -925 920 0
-9 -925 922 0
-9 925 -920 -922 0
-10 -925 920 0
-10 925 -920 0
-71 -925 920 0
-71 925 -920 0
921 0
-1 -926 921 0
-1 926 -921 0
-2 -926 921 0
-2 926 -921 0
-3 -921 926 0
-3 -918 926 0
-3 -926 921 918 0
-4 -926 921 0
-4 926 -921 0
-5 -926 921 0
-5 926 -921 0
-6 -921 926 0
-6 -919 926 0
-6 -926 921 919 0
-7 -926 921 0
-7 926 -921 0
-8 -921 926 0
-8 -920 926 0
-8 -926 921 920 0
-9 -926 921 0
-9 926 -921 0
-10 -926 921 0
-10 -926 922 0
-10 926 -921 -922 0
-71 -926 921 0
-71 926 -921 0
-922 0
-1 -927 922 0
-1 927 -922 0
-2 -927 922 0
-2 927 -922 0
-3 -927 922 0
-3 927 -922 0
-4 -922 927 0
-4 -918 927 0
-4 -927 922 918 0
-5 -927 922 0
-5 927 -922 0
-6 -927 922 0
-6 927 -922 0
-7 -922 927 0
-7 -919 927 0
-7 -927 922 919 0
-8 -927 922 0
-8 927 -922 0
-9 -922 927 0
-9 -920 927 0
-9 -927 922 920 0
-10 -922 927 0
-10 -921 927 0
-10 -927 922 921 0
-71 -927 922 0
-71 927 -922 0
-11 -928 923 0
-11 -928 924 0
-11 928 -923 -924 0
-12 -928 923 0
-12 -928 925 0
-12 928 -923 -925 0
-13 -928 923 0
-13 -928 926 0
-13 928 -923 -926 0
-14 -928 923 0
-14 -928 927 0
-14 928 -923 -927 0
-15 -928 923 0
-15 928 -923 0
-16 -928 923 0
-16 928 -923 0
-17 -928 923 0
-17 928 -923 0
-18 -928 923 0
-18 928 -923 0
-19 -928 923 0
-19 928 -923 0
-20 -928 923 0
-20 928 -923 0
-72 -928 923 0
-72 928 -923 0
-11 -924 929 0
-11 -923 929 0
-11 -929 924 923 0
-12 -929 924 0
-12 929 -924 0
-13 -929 924 0
-13 929 -924 0
-14 -929 924 0
-14 929 -924 0
-15 -929 924 0
-15 -929 925 0
-15 929 -924 -925 0
-16 -929 924 0
-16 -929 926 0
-16 929 -924 -926 0
-17 -929 924 0
-17 -929 927 0
-17 929 -924 -927 0
-18 -929 924 0
-18 929 -924 0
-19 -929 924 0
-19 929 -924 0
-20 -929 924 0
-20 929 -924 0
-72 -929 924 0
-72 929 -924 0
-11 -930 925 0
-11 930 -925 0
-12 -925 930 0
-12 -923 930 0
-12 -930 925 923 0
-13 -930 925 0
-13 930 -925 0
-14 -930 925 0
-14 930 -925 0
-15 -925 930 0
-15 -924 930 0
-15 -930 925 924 0
-16 -930 925 0
-16 930 -925 0
-17 -930 925 0
-17 930 -925 0
-18 -930 925 0
-18 -930 926 0
-18 930 -925 -926 0
-19 -930 925 0
-19 -930 927 0
-19 930 -925 -927 0
-20 -930 925 0
-20 930 -925 0
-72 -930 925 0
-72 930 -925 0
-11 -931 926 0
-11 931 -926 0
-12 -931 926 0
-12 931 -926 0
-13 -926 931 0
-13 -923 931 0
-13 -931 926 923 0
-14 -931 926 0
-14 931 -926 0
-15 -931 926 0
-15 931 -926 0
-16 -926 931 0
-16 -924 931 0
-16 -931 926 924 0
-17 -931 926 0
-17 931 -926 0
-18 -926 931 0
-18 -925 931 0
-18 -931 926 925 0
-19 -931 926 0
-19 931 -926 0
-20 -931 926 0
-20 -931 927 0
-20 931 -926 -927 0
-72 -931 926 0
-72 931 -926 0
-11 -932 927 0
-11 932 -927 0
-12 -932 927 0
-12 932 -927 0
-13 -932 927 0
-13 932 -927 0
-14 -927 932 0
-14 -923 932 0
-14 -932 927 923 0
-15 -932 927 0
-15 932 -927 0
-16 -932 927 0
-16 932 -927 0
-17 -927 932 0
-17 -924 932 0
-17 -932 927 924 0
-18 -932 927 0
-18 932 -927 0
-19 -927 932 0
-19 -925 932 0
-19 -932 927 925 0
-20 -927 932 0
-20 -926 932 0
-20 -932 927 926 0
-72 -932 927 0
-72 932 -927 0
-21 -933 928 0
-21 -933 929 0
-21 933 -928 -929 0
-22 -933 928 0
-22 -933 930 0
-22 933 -928 -930 0
-23 -933 928 0
-23 -933 931 0
-23 933 -928 -931 0
-24 -933 928 0
-24 -933 932 0
-24 933 -928 -932 0
-25 -933 928 0
-25 933 -928 0
-26 -933 928 0
-26 933 -928 0
-27 -933 928 0
-27 933 -928 0
-28 -933 928 0
-28 933 -928 0
-29 -933 928 0
-29 933 -928 0
-30 -933 928 0
-30 933 -928 0
-73 -933 928 0
-73 933 -928 0
-21 -929 934 0
-21 -928 934 0
-21 -934 929 928 0
-22 -934 929 0
-22 934 -929 0
-23 -934 929 0
-23 934 -929 0
-24 -934 929 0
-24 934 -929 0
-25 -934 929 0
-25 -934 930 0
-25 934 -929 -930 0
-26 -934 929 0
-26 -934 931 0
-26 934 -929 -931 0
-27 -934 929 0
-27 -934 932 0
-27 934 -929 -932 0
-28 -934 929 0
-28 934 -929 0
-29 -934 929 0
-29 934 -929 0
-30 -934 929 0
-30 934 -929 0
-73 -934 929 0
-73 934 -929 0
-21 -935 930 0
-21 935 -930 0
-22 -930 935 0
-22 -928 935 0
-22 -935 930 928 0
-23 -935 930 0
-23 935 -930 0
-24 -935 930 0
-24 935 -930 0
-25 -930 935 0
-25 -929 935 0
-25 -935 930 929 0
-26 -935 930 0
-26 935 -930 0
-27 -935 930 0
-27 935 -930 0
-28 -935 930 0
-28 -935 931 0
-28 935 -930 -931 0
-29 -935 930 0
-29 -935 932 0
-29 935 -930 -932 0
-30 -935 930 0
-30 935 -930 0
-73 -935 930 0
-73 935 -930 0
-21 -936 931 0
-21 936 -931 0
-22 -936 931 0
-22 936 -931 0
-23 -931 936 0
-23 -928 936 0
-23 -936 931 928 0
-24 -936 931 0
-24 936 -931 0
-25 -936 931 0
-25 936 -931 0
-26 -931 936 0
-26 -929 936 0
-26 -936 931 929 0
-27 -936 931 0
-27 936 -931 0
-28 -931 936 0
-28 -930 936 0
-28 -936 931 930 0
-29 -936 931 0
-29 936 -931 0
-30 -936 931 0
-30 -936 932 0
-30 936 -931 -932 0
-73 -936 931 0
-73 936 -931 0
-21 -937 932 0
-21 937 -932 0
-22 -937 932 0
-22 937 -932 0
-23 -937 932 0
-23 937 -932 0
-24 -932 937 0
-24 -928 937 0
-24 -937 932 928 0
-25 -937 932 0
-25 937 -932 0
-26 -937 932 0
-26 937 -932 0
-27 -932 937 0
-27 -929 937 0
-27 -937 932 929 0
-28 -937 932 0
-28 937 -932 0
-29 -932 937 0
-29 -930 937 0
-29 -937 932 930 0
-30 -932 937 0
-30 -931 937 0
-30 -937 932 931 0
-73 -937 932 0
-73 937 -932 0
-31 -938 933 0
-31 -938 934 0
-31 938 -933 -934 0
-32 -938 933 0
-32 -938 935 0
-32 938 -933 -935 0
-33 -938 933 0
-33 -938 936 0
-33 938 -933 -936 0
-34 -938 933 0
-34 -938 937 0
-34 938 -933 -937 0
-35 -938 933 0
-35 938 -933 0
-36 -938 933 0
-36 938 -933 0
-37 -938 933 0
-37 938 -933 0
-38 -938 933 0
-38 938 -933 0
-39 -938 933 0
-39 938 -933 0
-40 -938 933 0
-40 938 -933 0
-74 -938 933 0
-74 938 -933 0
-31 -934 939 0
-31 -933 939 0
-31 -939 934 933 0
-32 -939 934 0
-32 939 -934 0
-33 -939 934 0
-33 939 -934 0
-34 -939 934 0
-34 939 -934 0
-35 -939 934 0
-35 -939 935 0
-35 939 -934 -935 0
-36 -939 934 0
-36 -939 936 0
-36 939 -934 -936 0
-37 -939 934 0
-37 -939 937 0
-37 939 -934 -937 0
-38 -939 934 0
-38 939 -934 0
-39 -939 934 0
-39 939 -934 0
-40 -939 934 0
-40 939 -934 0
-74 -939 934 0
-74 939 -934 0
-31 -940 935 0
-31 940 -935 0
-32 -935 940 0
-32 -933 940 0
-32 -940 935 933 0
-33 -940 935 0
-33 940 -935 0
-34 -940 935 0
-34 940 -935 0
-35 -935 940 0
-35 -934 940 0
-35 -940 935 934 0
-36 -940 935 0
-36 940 -935 0
-37 -940 935 0
-37 940 -935 0
-38 -940 935 0
-38 -940 936 0
-38 940 -935 -936 0
-39 -940 935 0
-39 -940 937 0
-39 940 -935 -937 0
-40 -940 935 0
-40 940 -935 0
-74 -940 935 0
-74 940 -935 0
-31 -941 936 0
-31 941 -936 0
-32 -941 936 0
-32 941 -936 0
-33 -936 941 0
-33 -933 941 0
-33 -941 936 933 0
-34 -941 936 0
-34 941 -936 0
-35 -941 936 0
-35 941 -936 0
-36 -936 941 0
-36 -934 941 0
-36 -941 936 934 0
-37 -941 936 0
-37 941 -936 0
-38 -936 941 0
-38 -935 941 0
-38 -941 936 935 0
-39 -941 936 0
-39 941 -936 0
-40 -941 936 0
-40 -941 937 0
-40 941 -936 -937 0
-74 -941 936 0
-74 941 -936 0
-31 -942 937 0
-31 942 -937 0
-32 -942 937 0
-32 942 -937 0
-33 -942 937 0
-33 942 -937 0
-34 -937 942 0
-34 -933 942 0
-34 -942 937 933 0
-35 -942 937 0
-35 942 -937 0
-36 -942 937 0
-36 942 -937 0
-37 -937 942 0
-37 -934 942 0
-37 -942 937 934 0
-38 -942 937 0
-38 942 -937 0
-39 -937 942 0
-39 -935 942 0
-39 -942 937 935 0
-40 -937 942 0
-40 -936 942 0
-40 -942 937 936 0
-74 -942 937 0
-74 942 -937 0
-41 -943 938 0
-41 -943 939 0
-41 943 -938 -939 0
-42 -943 938 0
-42 -943 940 0
-42 943 -938 -940 0
-43 -943 938 0
-43 -943 941 0
-43 943 -938 -941 0
-44 -943 938 0
-44 -943 942 0
-44 943 -938 -942 0
-45 -943 938 0
-45 943 -938 0
-46 -943 938 0
-46 943 -938 0
-47 -943 938 0
-47 943 -938 0
-48 -943 938 0
-48 943 -938 0
-49 -943 938 0
-49 943 -938 0
-50 -943 938 0
-50 943 -938 0
-75 -943 938 0
-75 943 -938 0
-41 -939 944 0
-41 -938 944 0
-41 -944 939 938 0
-42 -944 939 0
-42 944 -939 0
-43 -944 939 0
-43 944 -939 0
-44 -944 939 0
-44 944 -939 0
-45 -944 939 0
-45 -944 940 0
-45 944 -939 -940 0
-46 -944 939 0
-46 -944 941 0
-46 944 -939 -941 0
-47 -944 939 0
-47 -944 942 0
-47 944 -939 -942 0
-48 -944 939 0
-48 944 -939 0
-49 -944 939 0
-49 944 -939 0
-50 -944 939 0
-50 944 -939 0
-75 -944 939 0
-75 944 -939 0
-41 -945 940 0
-41 945 -940 0
-42 -940 945 0
-42 -938 945 0
-42 -945 940 938 0
-43 -945 940 0
-43 945 -940 0
-44 -945 940 0
-44 945 -940 0
-45 -940 945 0
-45 -939 945 0
-45 -945 940 939 0
-46 -945 940 0
-46 945 -940 0
-47 -945 940 0
-47 945 -940 0
-48 -945 940 0
-48 -945 941 0
-48 945 -940 -941 0
-49 -945 940 0
-49 -945 942 0
-49 945 -940 -942 0
-50 -945 940 0
-50 945 -940 0
-75 -945 940 0
-75 945 -940 0
-41 -946 941 0
-41 946 -941 0
-42 -946 941 0
-42 946 -941 0
-43 -941 946 0
-43 -938 946 0
-43 -946 941 938 0
-44 -946 941 0
-44 946 -941 0
-45 -946 941 0
-45 946 -941 0
-46 -941 946 0
-46 -939 946 0
-46 -946 941 939 0
-47 -946 941 0
-47 946 -941 0
-48 -941 946 0
-48 -940 946 0
-48 -946 941 940 0
-49 -946 941 0
-49 946 -941 0
-50 -946 941 0
-50 -946 942 0
-50 946 -941 -942 0
-75 -946 941 0
-75 946 -941 0
-41 -947 942 0
-41 947 -942 0
-42 -947 942 0
-42 947 -942 0
-43 -947 942 0
-43 947 -942 0
-44 -942 947 0
-44 -938 947 0
-44 -947 942 938 0
-45 -947 942 0
-45 947 -942 0
-46 -947 942 0
-46 947 -942 0
-47 -942 947 0
-47 -939 947 0
-47 -947 942 939 0
-48 -947 942 0
-48 947 -942 0
-49 -942 947 0
-49 -940 947 0
-49 -947 942 940 0
-50 -942 947 0
-50 -941 947 0
-50 -947 942 941 0
-75 -947 942 0
-75 947 -942 0
-51 -948 943 0
-51 -948 944 0
-51 948 -943 -944 0
-52 -948 943 0
-52 -948 945 0
-52 948 -943 -945 0
-53 -948 943 0
-53 -948 946 0
-53 948 -943 -946 0
-54 -948 943 0
-54 -948 947 0
-54 948 -943 -947 0
-55 -948 943 0
-55 948 -943 0
-56 -948 943 0
-56 948 -943 0
-57 -948 943 0
-57 948 -943 0
-58 -948 943 0
-58 948 -943 0
-59 -948 943 0
-59 948 -943 0
-60 -948 943 0
-60 948 -943 0
-76 -948 943 0
-76 948 -943 0
-51 -944 949 0
-51 -943 949 0
-51 -949 944 943 0
-52 -949 944 0
-52 949 -944 0
-53 -949 944 0
-53 949 -944 0
-54 -949 944 0
-54 949 -944 0
-55 -949 944 0
-55 -949 945 0
-55 949 -944 -945 0
-56 -949 944 0
-56 -949 946 0
-56 949 -944 -946 0
-57 -949 944 0
-57 -949 947 0
-57 949 -944 -947 0
-58 -949 944 0
-58 949 -944 0
-59 -949 944 0
-59 949 -944 0
-60 -949 944 0
-60 949 -944 0
-76 -949 944 0
-76 949 -944 0
-51 -950 945 0
-51 950 -945 0
-52 -945 950 0
-52 -943 950 0
-52 -950 945 943 0
-53 -950 945 0
-53 950 -945 0
-54 -950 945 0
-54 950 -945 0
-55 -945 950 0
-55 -944 950 0
-55 -950 945 944 0
-56 -950 945 0
-56 950 -945 0
-57 -950 945 0
-57 950 -945 0
-58 -950 945 0
-58 -950 946 0
-58 950 -945 -946 0
-59 -950 945 0
-59 -950 947 0
-59 950 -945 -947 0
-60 -950 945 0
-60 950 -945 0
-76 -950 945 0
-76 950 -945 0
-51 -951 946 0
-51 951 -946 0
-52 -951 946 0
-52 951 -946 0
-53 -946 951 0
-53 -943 951 0
-53 -951 946 943 0
-54 -951 946 0
-54 951 -946 0
-55 -951 946 0
-55 951 -946 0
-56 -946 951 0
-56 -944 951 0
-56 -951 946 944 0
-57 -951 946 0
-57 951 -946 0
-58 -946 951 0
-58 -945 951 0
-58 -951 946 945 0
-59 -951 946 0
-59 951 -946 0
-60 -951 946 0
-60 -951 947 0
-60 951 -946 -947 0
-76 -951 946 0
-76 951 -946 0
-51 -952 947 0
-51 952 -947 0
-52 -952 947 0
-52 952 -947 0
-53 -952 947 0
-53 952 -947 0
-54 -947 952 0
-54 -943 952 0
-54 -952 947 943 0
-55 -952 947 0
-55 952 -947 0
-56 -952 947 0
-56 952 -947 0
-57 -947 952 0
-57 -944 952 0
-57 -952 947 944 0
-58 -952 947 0
-58 952 -947 0
-59 -947 952 0
-59 -945 952 0
-59 -952 947 945 0
-60 -947 952 0
-60 -946 952 0
-60 -952 947 946 0
-76 -952 947 0
-76 952 -947 0
-61 -953 948 0
-61 -953 949 0
-61 953 -948 -949 0
-62 -953 948 0
-62 -953 950 0
-62 953 -948 -950 0
-63 -953 948 0
-63 -953 951 0
-63 953 -948 -951 0
-64 -953 948 0
-64 -953 952 0
-64 953 -948 -952 0
-65 -953 948 0
-65 953 -948 0
-66 -953 948 0
-66 953 -948 0
-67 -953 948 0
-67 953 -948 0
-68 -953 948 0
-68 953 -948 0
-69 -953 948 0
-69 953 -948 0
-70 -953 948 0
-70 953 -948 0
-77 -953 948 0
-77 953 -948 0
-61 -949 954 0
-61 -948 954 0
-61 -954 949 948 0
-62 -954 949 0
-62 954 -949 0
-63 -954 949 0
-63 954 -949 0
-64 -954 949 0
-64 954 -949 0
-65 -954 949 0
-65 -954 950 0
-65 954 -949 -950 0
-66 -954 949 0
-66 -954 951 0
-66 954 -949 -951 0
-67 -954 949 0
-67 -954 952 0
-67 954 -949 -952 0
-68 -954 949 0
-68 954 -949 0
-69 -954 949 0
-69 954 -949 0
-70 -954 949 0
-70 954 -949 0
-77 -954 949 0
-77 954 -949 0
-61 -955 950 0
-61 955 -950 0
-62 -950 955 0
-62 -948 955 0
-62 -955 950 948 0
-63 -955 950 0
-63 955 -950 0
-64 -955 950 0
-64 955 -950 0
-65 -950 955 0
-65 -949 955 0
-65 -955 950 949 0
-66 -955 950 0
-66 955 -950 0
-67 -955 950 0
-67 955 -950 0
-68 -955 950 0
-68 -955 951 0
-68 955 -950 -951 0
-69 -955 950 0
-69 -955 952 0
-69 955 -950 -952 0
-70 -955 950 0
-70 955 -950 0
-77 -955 950 0
-77 955 -950 0
-61 -956 951 0
-61 956 -951 0
-62 -956 951 0
-62 956 -951 0
-63 -951 956 0
-63 -948 956 0
-63 -956 951 948 0
-64 -956 951 0
-64 956 -951 0
-65 -956 951 0
-65 956 -951 0
-66 -951 956 0
-66 -949 956 0
-66 -956 951 949 0
-67 -956 951 0
-67 956 -951 0
-68 -951 956 0
-68 -950 956 0
-68 -956 951 950 0
-69 -956 951 0
-69 956 -951 0
-70 -956 951 0
-70 -956 952 0
-70 956 -951 -952 0
-77 -956 951 0
-77 956 -951 0
-61 -957 952 0
-61 957 -952 0
-62 -957 952 0
-62 957 -952 0
-63 -957 952 0
-63 957 -952 0
-64 -952 957 0
-64 -948 957 0
-64 -957 952 948 0
-65 -957 952 0
-65 957 -952 0
-66 -957 952 0
-66 957 -952 0
-67 -952 957 0
-67 -949 957 0
-67 -957 952 949 0
-68 -957 952 0
-68 957 -952 0
-69 -952 957 0
-69 -950 957 0
-69 -957 952 950 0
-70 -952 957 0
-70 -951 957 0
-70 -957 952 951 0
-77 -957 952 0
-77 957 -952 0
958 0
-1 -963 958 0
-1 -963 959 0
-1 963 -958 -959 0
-2 -963 958 0
-2 -963 960 0
-2 963 -958 -960 0
-3 -963 958 0
-3 -963 961 0
-3 963 -958 -961 0
-4 -963 958 0
-4 -963 962 0
-4 963 -958 -962 0
-5 -963 958 0
-5 963 -958 0
-6 -963 958 0
-6 963 -958 0
-7 -963 958 0
-7 963 -958 0
-8 -963 958 0
-8 963 -958 0
-9 -963 958 0
-9 963 -958 0
-10 -963 958 0
-10 963 -958 0
-71 -963 958 0
-71 963 -958 0
959 0
-1 -959 964 0
-1 -958 964 0
-1 -964 959 958 0
-2 -964 959 0
-2 964 -959 0
-3 -964 959 0
-3 964 -959 0
-4 -964 959 0
-4 964 -959 0
-5 -964 959 0
-5 -964 960 0
-5 964 -959 -960 0
-6 -964 959 0
-6 -964 961 0
-6 964 -959 -961 0
-7 -964 959 0
-7 -964 962 0
-7 964 -959 -962 0
-8 -964 959 0
-8 964 -959 0
-9 -964 959 0
-9 964 -959 0
-10 -964 959 0
-10 964 -959 0
-71 -964 959 0
-71 964 -959 0
-960 0
-1 -965 960 0
-1 965 -960 0
-2 -960 965 0
-2 -958 965 0
-2 -965 960 958 0
-3 -965 960 0
-3 965 -960 0
-4 -965 960 0
-4 965 -960 0
-5 -960 965 0
-5 -959 965 0
-5 -965 960 959 0
-6 -965 960 0
-6 965 -960 0
-7 -965 960 0
-7 965 -960 0
-8 -965 960 0
-8 -965 961 0
-8 965 -960 -961 0
-9 -965 960 0
-9 -965 962 0
-9 965 -960 -962 0
-10 -965 960 0
-10 965 -960 0
-71 -965 960 0
-71 965 -960 0
961 0
-1 -966 961 0
-1 966 -961 0
-2 -966 961 0
-2 966 -961 0
-3 -961 966 0
-3 -958 966 0
-3 -966 961 958 0
-4 -966 961 0
-4 966 -961 0
-5 -966 961 0
-5 966 -961 0
-6 -961 966 0
-6 -959 966 0
-6 -966 961 959 0
-7 -966 961 0
-7 966 -961 0
-8 -961 966 0
-8 -960 966 0
-8 -966 961 960 0
-9 -966 961 0
-9 966 -961 0
-10 -966 961 0
-10 -966 962 0
-10 966 -961 -962 0
-71 -966 961 0
-71 966 -961 0
962 0
-1 -967 962 0
-1 967 -962 0
-2 -967 962 0
-2 967 -962 0
-3 -967 962 0
-3 967 -962 0
-4 -962 967 0
-4 -958 967 0
-4 -967 962 958 0
-5 -967 962 0
-5 967 -962 0
-6 -967 962 0
-6 967 -962 0
-7 -962 967 0
-7 -959 967 0
-7 -967 962 959 0
-8 -967 962 0
-8 967 -962 0
-9 -962 967 0
-9 -960 967 0
-9 -967 962 960 0
-10 -962 967 0
-10 -961 967 0
-10 -967 962 961 0
-71 -967 962 0
-71 967 -962 0
-11 -968 963 0
-11 -968 964 0
-11 968 -963 -964 0
-12 -968 963 0
-12 -968 965 0
-12 968 -963 -965 0
-13 -968 963 0
-13 -968 966 0
-13 968 -963 -966 0
-14 -968 963 0
-14 -968 967 0
-14 968 -963 -967 0
-15 -968 963 0
-15 968 -963 0
-16 -968 963 0
-16 968 -963 0
-17 -968 963 0
-17 968 -963 0
-18 -968 963 0
-18 968 -963 0
-19 -968 963 0
-19 968 -963 0
-20 -968 963 0
-20 968 -963 0
-72 -968 963 0
-72 968 -963 0
-11 -964 969 0
-11 -963 969 0
-11 -969 964 963 0
-12 -969 964 0
-12 969 -964 0
-13 -969 964 0
-13 969 -964 0
-14 -969 964 0
-14 969 -964 0
-15 -969 964 0
-15 -969 965 0
-15 969 -964 -965 0
-16 -969 964 0
-16 -969 966 0
-16 969 -964 -966 0
-17 -969 964 0
-17 -969 967 0
-17 969 -964 -967 0
-18 -969 964 0
-18 969 -964 0
-19 -969 964 0
-19 969 -964 0
-20 -969 964 0
-20 969 -964 0
-72 -969 964 0
-72 969 -964 0
-11 -970 965 0
-11 970 -965 0
-12 -965 970 0
-12 -963 970 0
-12 -970 965 963 0
-13 -970 965 0
-13 970 -965 0
-14 -970 965 0
-14 970 -965 0
-15 -965 970 0
-15 -964 970 0
-15 -970 965 964 0
-16 -970 965 0
-16 970 -965 0
-17 -970 965 0
-17 970 -965 0
-18 -970 965 0
-18 -970 966 0
-18 970 -965 -966 0
-19 -970 965 0
-19 -970 967 0
-19 970 -965 -967 0
-20 -970 965 0
-20 970 -965 0
-72 -970 965 0
-72 970 -965 0
-11 -971 966 0
-11 971 -966 0
-12 -971 966 0
-12 971 -966 0
-13 -966 971 0
-13 -963 971 0
-13 -971 966 963 0
-14 -971 966 0
-14 971 -966 0
-15 -971 966 0
-15 971 -966 0
-16 -966 971 0
-16 -964 971 0
-16 -971 966 964 0
-17 -971 966 0
-17 971 -966 0
-18 -966 971 0
-18 -965 971 0
-18 -971 966 965 0
-19 -971 966 0
-19 971 -966 0
-20 -971 966 0
-20 -971 967 0
-20 971 -966 -967 0
-72 -971 966 0
-72 971 -966 0
-11 -972 967 0
-11 972 -967 0
-12 -972 967 0
-12 972 -967 0
-13 -972 967 0
-13 972 -967 0
-14 -967 972 0
-14 -963 972 0
-14 -972 967 963 0
-15 -972 967 0
-15 972 -967 0
-16 -972 967 0
-16 972 -967 0
-17 -967 972 0
-17 -964 972 0
-17 -972 967 964 0
-18 -972 967 0
-18 972 -967 0
-19 -967 972 0
-19 -965 972 0
-19 -972 967 965 0
-20 -967 972 0
-20 -966 972 0
-20 -972 967 966 0
-72 -972 967 0
-72 972 -967 0
-21 -973 968 0
-21 -973 969 0
-21 973 -968 -969 0
-22 -973 968 0
-22 -973 970 0
-22 973 -968 -970 0
-23 -973 968 0
-23 -973 971 0
-23 973 -968 -971 0
-24 -973 968 0
-24 -973 972 0
-24 973 -968 -972 0
-25 -973 968 0
-25 973 -968 0
-26 -973 968 0
-26 973 -968 0
-27 -973 968 0
-27 973 -968 0
-28 -973 968 0
-28 973 -968 0
-29 -973 968 0
-29 973 -968 0
-30 -973 968 0
-30 973 -968 0
-73 -973 968 0
-73 973 -968 0
-21 -969 974 0
-21 -968 974 0
-21 -974 969 968 0
-22 -974 969 0
-22 974 -969 0
-23 -974 969 0
-23 974 -969 0
-24 -974 969 0
-24 974 -969 0
-25 -974 969 0
-25 -974 970 0
-25 974 -969 -970 0
-26 -974 969 0
-26 -974 971 0
-26 974 -969 -971 0
-27 -974 969 0
-27 -974 972 0
-27 974 -969 -972 0
-28 -974 969 0
-28 974 -969 0
-29 -974 969 0
-29 974 -969 0
-30 -974 969 0
-30 974 -969 0
-73 -974 969 0
-73 974 -969 0
-21 -975 970 0
-21 975 -970 0
-22 -970 975 0
-22 -968 975 0
-22 -975 970 968 0
-23 -975 970 0
-23 975 -970 0
-24 -975 970 0
-24 975 -970 0
-25 -970 975 0
-25 -969 975 0
-25 -975 970 969 0
-26 -975 970 0
-26 975 -970 0
-27 -975 970 0
-27 975 -970 0
-28 -975 970 0
-28 -975 971 0
-28 975 -970 -971 0
-29 -975 970 0
-29 -975 972 0
-29 975 -970 -972 0
-30 -975 970 0
-30 975 -970 0
-73 -975 970 0
-73 975 -970 0
-21 -976 971 0
-21 976 -971 0
-22 -976 971 0
-22 976 -971 0
-23 -971 976 0
-23 -968 976 0
-23 -976 971 968 0
-24 -976 971 0
-24 976 -971 0
-25 -976 971 0
-25 976 -971 0
-26 -971 976 0
-26 -969 976 0
-26 -976 971 969 0
-27 -976 971 0
-27 976 -971 0
-28 -971 976 0
-28 -970 976 0
-28 -976 971 970 0
-29 -976 971 0
-29 976 -971 0
-30 -976 971 0
-30 -976 972 0
-30 976 -971 -972 0
-73 -976 971 0
-73 976 -971 0
-21 -977 972 0
-21 977 -972 0
-22 -977 972 0
-22 977 -972 0
-23 -977 972 0
-23 977 -972 0
-24 -972 977 0
-24 -968 977 0
-24 -977 972 968 0
-25 -977 972 0
-25 977 -972 0
-26 -977 972 0
-26 977 -972 0
-27 -972 977 0
-27 -969 977 0
-27 -977 972 969 0
-28 -977 972 0
-28 977 -972 0
-29 -972 977 0
-29 -970 977 0
-29 -977 972 970 0
-30 -972 977 0
-30 -971 977 0
-30 -977 972 971 0
-73 -977 972 0
-73 977 -972 0
-31 -978 973 0
-31 -978 974 0
-31 978 -973 -974 0
-32 -978 973 0
-32 -978 975 0
-32 978 -973 -975 0
-33 -978 973 0
-33 -978 976 0
-33 978 -973 -976 0
-34 -978 973 0
-34 -978 977 0
-34 978 -973 -977 0
-35 -978 973 0
-35 978 -973 0
-36 -978 973 0
-36 978 -973 0
-37 -978 973 0
-37 978 -973 0
-38 -978 973 0
-38 978 -973 0
-39 -978 973 0
-39 978 -973 0
-40 -978 973 0
-40 978 -973 0
-74 -978 973 0
-74 978 -973 0
-31 -974 979 0
-31 -973 979 0
-31 -979 974 973 0
-32 -979 974 0
-32 979 -974 0
-33 -979 974 0
-33 979 -974 0
-34 -979 974 0
-34 979 -974 0
-35 -979 974 0
-35 -979 975 0
-35 979 -974 -975 0
-36 -979 974 0
-36 -979 976 0
-36 979 -974 -976 0
-37 -979 974 0
-37 -979 977 0
-37 979 -974 -977 0
-38 -979 974 0
-38 979 -974 0
-39 -979 974 0
-39 979 -974 0
-40 -979 974 0
-40 979 -974 0
-74 -979 974 0
-74 979 -974 0
-31 -980 975 0
-31 980 -975 0
-32 -975 980 0
-32 -973 980 0
-32 -980 975 973 0
-33 -980 975 0
-33 980 -975 0
-34 -980 975 0
-34 980 -975 0
-35 -975 980 0
-35 -974 980 0
-35 -980 975 974 0
-36 -980 975 0
-36 980 -975 0
-37 -980 975 0
-37 980 -975 0
-38 -980 975 0
-38 -980 976 0
-38 980 -975 -976 0
-39 -980 975 0
-39 -980 977 0
-39 980 -975 -977 0
-40 -980 975 0
-40 980 -975 0
-74 -980 975 0
-74 980 -975 0
-31 -981 976 0
-31 981 -976 0
-32 -981 976 0
-32 981 -976 0
-33 -976 981 0
-33 -973 981 0
-33 -981 976 973 0
-34 -981 976 0
-34 981 -976 0
-35 -981 976 0
-35 981 -976 0
-36 -976 981 0
-36 -974 981 0
-36 -981 976 974 0
-37 -981 976 0
-37 981 -976 0
-38 -976 981 0
-38 -975 981 0
-38 -981 976 975 0
-39 -981 976 0
-39 981 -976 0
-40 -981 976 0
-40 -981 977 0
-40 981 -976 -977 0
-74 -981 976 0
-74 981 -976 0
-31 -982 977 0
-31 982 -977 0
-32 -982 977 0
-32 982 -977 0
-33 -982 977 0
-33 982 -977 0
-34 -977 982 0
-34 -973 982 0
-34 -982 977 973 0
-35 -982 977 0
-35 982 -977 0
-36 -982 977 0
-36 982 -977 0
-37 -977 982 0
-37 -974 982 0
-37 -982 977 974 0
-38 -982 977 0
-38 982 -977 0
-39 -977 982 0
-39 -975 982 0
-39 -982 977 975 0
-40 -977 982 0
-40 -976 982 0
-40 -982 977 976 0
-74 -982 977 0
-74 982 -977 0
-41 -983 978 0
-41 -983 979 0
-41 983 -978 -979 0
-42 -983 978 0
-42 -983 980 0
-42 983 -978 -980 0
-43 -983 978 0
-43 -983 981 0
-43 983 -978 -981 0
-44 -983 978 0
-44 -983 982 0
-44 983 -978 -982 0
-45 -983 978 0
-45 983 -978 0
-46 -983 978 0
-46 983 -978 0
-47 -983 978 0
-47 983 -978 0
-48 -983 978 0
-48 983 -978 0
-49 -983 978 0
-49 983 -978 0
-50 -983 978 0
-50 983 -978 0
-75 -983 978 0
-75 983 -978 0
-41 -979 984 0
-41 -978 984 0
-41 -984 979 978 0
-42 -984 979 0
-42 984 -979 0
-43 -984 979 0
-43 984 -979 0
-44 -984 979 0
-44 984 -979 0
-45 -984 979 0
-45 -984 980 0
-45 984 -979 -980 0
-46 -984 979 0
-46 -984 981 0
-46 984 -979 -981 0
-47 -984 979 0
-47 -984 982 0
-47 984 -979 -982 0
-48 -984 979 0
-48 984 -979 0
-49 -984 979 0
-49 984 -979 0
-50 -984 979 0
-50 984 -979 0
-75 -984 979 0
-75 984 -979 0
-41 -985 980 0
-41 985 -980 0
-42 -980 985 0
-42 -978 985 0
-42 -985 980 978 0
-43 -985 980 0
-43 985 -980 0
-44 -985 980 0
-44 985 -980 0
-45 -980 985 0
-45 -979 985 0
-45 -985 980 979 0
-46 -985 980 0
-46 985 -980 0
-47 -985 980 0
-47 985 -980 0
-48 -985 980 0
-48 -985 981 0
-48 985 -980 -981 0
-49 -985 980 0
-49 -985 982 0
-49 985 -980 -982 0
-50 -985 980 0
-50 985 -980 0
-75 -985 980 0
-75 985 -980 0
-41 -986 981 0
-41 986 -981 0
-42 -986 981 0
-42 986 -981 0
-43 -981 986 0
-43 -978 986 0
-43 -986 981 978 0
-44 -986 981 0
-44 986 -981 0
-45 -986 981 0
-45 986 -981 0
-46 -981 986 0
-46 -979 986 0
-46 -986 981 979 0
-47 -986 981 0
-47 986 -981 0
-48 -981 986 0
-48 -980 986 0
-48 -986 981 980 0
-49 -986 981 0
-49 986 -981 0
-50 -986 981 0
-50 -986 982 0
-50 986 -981 -982 0
-75 -986 981 0
-75 986 -981 0
-41 -987 982 0
-41 987 -982 0
-42 -987 982 0
-42 987 -982 0
-43 -987 982 0
-43 987 -982 0
-44 -982 987 0
-44 -978 987 0
-44 -987 982 978 0
-45 -987 982 0
-45 987 -982 0
-46 -987 982 0
-46 987 -982 0
-47 -982 987 0
-47 -979 987 0
-47 -987 982 979 0
-48 -987 982 0
-48 987 -982 0
-49 -982 987 0
-49 -980 987 0
-49 -987 982 980 0
-50 -982 987 0
-50 -981 987 0
-50 -987 982 981 0
-75 -987 982 0
-75 987 -982 0
-51 -988 983 0
-51 -988 984 0
-51 988 -983 -984 0
-52 -988 983 0
-52 -988 985 0
-52 988 -983 -985 0
-53 -988 983 0
-53 -988 986 0
-53 988 -983 -986 0
-54 -988 983 0
-54 -988 987 0
-54 988 -983 -987 0
-55 -988 983 0
-55 988 -983 0
-56 -988 983 0
-56 988 -983 0
-57 -988 983 0
-57 988 -983 0
-58 -988 983 0
-58 988 -983 0
-59 -988 983 0
-59 988 -983 0
-60 -988 983 0
-60 988 -983 0
-76 -988 983 0
-76 988 -983 0
-51 -984 989 0
-51 -983 989 0
-51 -989 984 983 0
-52 -989 984 0
-52 989 -984 0
-53 -989 984 0
-53 989 -984 0
-54 -989 984 0
-54 989 -984 0
-55 -989 984 0
-55 -989 985 0
-55 989 -984 -985 0
-56 -989 984 0
-56 -989 986 0
-56 989 -984 -986 0
-57 -989 984 0
-57 -989 987 0
-57 989 -984 -987 0
-58 -989 984 0
-58 989 -984 0
-59 -989 984 0
-59 989 -984 0
-60 -989 984 0
-60 989 -984 0
-76 -989 984 0
-76 989 -984 0
-51 -990 985 0
-51 990 -985 0
-52 -985 990 0
-52 -983 990 0
-52 -990 985 983 0
-53 -990 985 0
-53 990 -985 0
-54 -990 985 0
-54 990 -985 0
-55 -985 990 0
-55 -984 990 0
-55 -990 985 984 0
-56 -990 985 0
-56 990 -985 0
-57 -990 985 0
-57 990 -985 0
-58 -990 985 0
-58 -990 986 0
-58 990 -985 -986 0
-59 -990 985 0
-59 -990 987 0
-59 990 -985 -987 0
-60 -990 985 0
-60 990 -985 0
-76 -990 985 0
-76 990 -985 0
-51 -991 986 0
-51 991 -986 0
-52 -991 986 0
-52 991 -986 0
-53 -986 991 0
-53 -983 991 0
-53 -991 986 983 0
-54 -991 986 0
-54 991 -986 0
-55 -991 986 0
-55 991 -986 0
-56 -986 991 0
-56 -984 991 0
-56 -991 986 984 0
-57 -991 986 0
-57 991 -986 0
-58 -986 991 0
-58 -985 991 0
-58 -991 986 985 0
-59 -991 986 0
-59 991 -986 0
-60 -991 986 0
-60 -991 987 0
-60 991 -986 -987 0
-76 -991 986 0
-76 991 -986 0
-51 -992 987 0
-51 992 -987 0
-52 -992 987 0
-52 992 -987 0
-53 -992 987 0
-53 992 -987 0
-54 -987 992 0
-54 -983 992 0
-54 -992 987 983 0
-55 -992 987 0
-55 992 -987 0
-56 -992 987 0
-56 992 -987 0
-57 -987 992 0
-57 -984 992 0
-57 -992 987 984 0
-58 -992 987 0
-58 992 -987 0
-59 -987 992 0
-59 -985 992 0
-59 -992 987 985 0
-60 -987 992 0
-60 -986 992 0
-60 -992 987 986 0
-76 -992 987 0
-76 992 -987 0
-61 -993 988 0
-61 -993 989 0
-61 993 -988 -989 0
-62 -993 988 0
-62 -993 990 0
-62 993 -988 -990 0
-63 -993 988 0
-63 -993 991 0
-63 993 -988 -991 0
-64 -993 988 0
-64 -993 992 0
-64 993 -988 -992 0
-65 -993 988 0
-65 993 -988 0
-66 -993 988 0
-66 993 -988 0
-67 -993 988 0
-67 993 -988 0
-68 -993 988 0
-68 993 -988 0
-69 -993 988 0
-69 993 -988 0
-70 -993 988 0
-70 993 -988 0
-77 -993 988 0
-77 993 -988 0
-61 -989 994 0
-61 -988 994 0
-61 -994 989 988 0
-62 -994 989 0
-62 994 -989 0
-63 -994 989 0
-63 994 -989 0
-64 -994 989 0
-64 994 -989 0
-65 -994 989 0
-65 -994 990 0
-65 994 -989 -990 0
-66 -994 989 0
-66 -994 991 0
-66 994 -989 -991 0
-67 -994 989 0
-67 -994 992 0
-67 994 -989 -992 0
-68 -994 989 0
-68 994 -989 0
-69 -994 989 0
-69 994 -989 0
-70 -994 989 0
-70 994 -989 0
-77 -994 989 0
-77 994 -989 0
-61 -995 990 0
-61 995 -990 0
-62 -990 995 0
-62 -988 995 0
-62 -995 990 988 0
-63 -995 990 0
-63 995 -990 0
-64 -995 990 0
-64 995 -990 0
-65 -990 995 0
-65 -989 995 0
-65 -995 990 989 0
-66 -995 990 0
-66 995 -990 0
-67 -995 990 0
-67 995 -990 0
-68 -995 990 0
-68 -995 991 0
-68 995 -990 -991 0
-69 -995 990 0
-69 -995 992 0
-69 995 -990 -992 0
-70 -995 990 0
-70 995 -990 0
-77 -995 990 0
-77 995 -990 0
-61 -996 991 0
-61 996 -991 0
-62 -996 991 0
-62 996 -991 0
-63 -991 996 0
-63 -988 996 0
-63 -996 991 988 0
-64 -996 991 0
-64 996 -991 0
-65 -996 991 0
-65 996 -991 0
-66 -991 996 0
-66 -989 996 0
-66 -996 991 989 0
-67 -996 991 0
-67 996 -991 0
-68 -991 996 0
-68 -990 996 0
-68 -996 991 990 0
-69 -996 991 0
-69 996 -991 0
-70 -996 991 0
-70 -996 992 0
-70 996 -991 -992 0
-77 -996 991 0
-77 996 -991 0
-61 -997 992 0
-61 997 -992 0
-62 -997 992 0
-62 997 -992 0
-63 -997 992 0
-63 997 -992 0
-64 -992 997 0
-64 -988 997 0
-64 -997 992 988 0
-65 -997 992 0
-65 997 -992 0
-66 -997 992 0
-66 997 -992 0
-67 -992 997 0
-67 -989 997 0
-67 -997 992 989 0
-68 -997 992 0
-68 997 -992 0
-69 -992 997 0
-69 -990 997 0
-69 -997 992 990 0
-70 -992 997 0
-70 -991 997 0
-70 -997 992 991 0
-77 -997 992 0
-77 997 -992 0
998 0
-1 -1003 998 0
-1 -1003 999 0
-1 1003 -998 -999 0
-2 -1003 998 0
-2 -1003 1000 0
-2 1003 -998 -1000 0
-3 -1003 998 0
-3 -1003 1001 0
-3 1003 -998 -1001 0
-4 -1003 998 0
-4 -1003 1002 0
-4 1003 -998 -1002 0
-5 -1003 998 0
-5 1003 -998 0
-6 -1003 998 0
-6 1003 -998 0
-7 -1003 998 0
-7 1003 -998 0
-8 -1003 998 0
-8 1003 -998 0
-9 -1003 998 0
-9 1003 -998 0
-10 -1003 998 0
-10 1003 -998 0
-71 -1003 998 0
-71 1003 -998 0
999 0
-1 -999 1004 0
-1 -998 1004 0
-1 -1004 999 998 0
-2 -1004 999 0
-2 1004 -999 0
-3 -1004 999 0
-3 1004 -999 0
-4 -1004 999 0
-4 1004 -999 0
-5 -1004 999 0
-5 -1004 1000 0
-5 1004 -999 -1000 0
-6 -1004 999 0
-6 -1004 1001 0
-6 1004 -999 -1001 0
-7 -1004 999 0
-7 -1004 1002 0
-7 1004 -999 -1002 0
-8 -1004 999 0
-8 1004 -999 0
-9 -1004 999 0
-9 1004 -999 0
-10 -1004 999 0
-10 1004 -999 0
-71 -1004 999 0
-71 1004 -999 0
1000 0
-1 -1005 1000 0
-1 1005 -1000 0
-2 -1000 1005 0
-2 -998 1005 0
-2 -1005 1000 998 0
-3 -1005 1000 0
-3 1005 -1000 0
-4 -1005 1000 0
-4 1005 -1000 0
-5 -1000 1005 0
-5 -999 1005 0
-5 -1005 1000 999 0
-6 -1005 1000 0
-6 1005 -1000 0
-7 -1005 1000 0
-7 1005 -1000 0
-8 -1005 1000 0
-8 -1005 1001 0
-8 1005 -1000 -1001 0
-9 -1005 1000 0
-9 -1005 1002 0
-9 1005 -1000 -1002 0
-10 -1005 1000 0
-10 1005 -1000 0
-71 -1005 1000 0
-71 1005 -1000 0
-1001 0
-1 -1006 1001 0
-1 1006 -1001 0
-2 -1006 1001 0
-2 1006 -1001 0
-3 -1001 1006 0
-3 -998 1006 0
-3 -1006 1001 998 0
-4 -1006 1001 0
-4 1006 -1001 0
-5 -1006 1001 0
-5 1006 -1001 0
-6 -1001 1006 0
-6 -999 1006 0
-6 -1006 1001 999 0
-7 -1006 1001 0
-7 1006 -1001 0
-8 -1001 1006 0
-8 -1000 1006 0
-8 -1006 1001 1000 0
-9 -1006 1001 0
-9 1006 -1001 0
-10 -1006 1001 0
-10 -1006 1002 0
-10 1006 -1001 -1002 0
-71 -1006 1001 0
-71 1006 -1001 0
-1002 0
-1 -1007 1002 0
-1 1007 -1002 0
-2 -1007 1002 0
-2 1007 -1002 0
-3 -1007 1002 0
-3 1007 -1002 0
-4 -1002 1007 0
-4 -998 1007 0
-4 -1007 1002 998 0
-5 -1007 1002 0
-5 1007 -1002 0
-6 -1007 1002 0
-6 1007 -1002 0
-7 -1002 1007 0
-7 -999 1007 0
-7 -1007 1002 999 0
-8 -1007 1002 0
-8 1007 -1002 0
-9 -1002 1007 0
-9 -1000 1007 0
-9 -1007 1002 1000 0
-10 -1002 1007 0
-10 -1001 1007 0
-10 -1007 1002 1001 0
-71 -1007 1002 0
-71 1007 -1002 0
-11 -1008 1003 0
-11 -1008 1004 0
-11 1008 -1003 -1004 0
-12 -1008 1003 0
-12 -1008 1005 0
-12 1008 -1003 -1005 0
-13 -1008 1003 0
-13 -1008 1006 0
-13 1008 -1003 -1006 0
-14 -1008 1003 0
-14 -1008 1007 0
-14 1008 -1003 -1007 0
-15 -1008 1003 0
-15 1008 -1003 0
-16 -1008 1003 0
-16 1008 -1003 0
-17 -1008 1003 0
-17 1008 -1003 0
-18 -1008 1003 0
-18 1008 -1003 0
-19 -1008 1003 0
-19 1008 -1003 0
-20 -1008 1003 0
-20 1008 -1003 0
-72 -1008 1003 0
-72 1008 -1003 0
-11 -1004 1009 0
-11 -1003 1009 0
-11 -1009 1004 1003 0
-12 -1009 1004 0
-12 1009 -1004 0
-13 -1009 1004 0
-13 1009 -1004 0
-14 -1009 1004 0
-14 1009 -1004 0
-15 -1009 1004 0
-15 -1009 1005 0
-15 1009 -1004 -1005 0
-16 -1009 1004 0
-16 -1009 1006 0
-16 1009 -1004 -1006 0
-17 -1009 1004 0
-17 -1009 1007 0
-17 1009 -1004 -1007 0
-18 -1009 1004 0
-18 1009 -1004 0
-19 -1009 1004 0
-19 1009 -1004 0
-20 -1009 1004 0
-20 1009 -1004 0
-72 -1009 1004 0
-72 1009 -1004 0
-11 -1010 1005 0
-11 1010 -1005 0
-12 -1005 1010 0
-12 -1003 1010 0
-12 -1010 1005 1003 0
-13 -1010 1005 0
-13 1010 -1005 0
-14 -1010 1005 0
-14 1010 -1005 0
-15 -1005 1010 0
-15 -1004 1010 0
-15 -1010 1005 1004 0
-16 -1010 1005 0
-16 1010 -1005 0
-17 -1010 1005 0
-17 1010 -1005 0
-18 -1010 1005 0
-18 -1010 1006 0
-18 1010 -1005 -1006 0
-19 -1010 1005 0
-19 -1010 1007 0
-19 1010 -1005 -1007 0
-20 -1010 1005 0
-20 1010 -1005 0
-72 -1010 1005 0
-72 1010 -1005 0
-11 -1011 1006 0
-11 1011 -1006 0
-12 -1011 1006 0
-12 1011 -1006 0
-13 -1006 1011 0
-13 -1003 1011 0
-13 -1011 1006 1003 0
-14 -1011 1006 0
-14 1011 -1006 0
-15 -1011 1006 0
-15 1011 -1006 0
-16 -1006 1011 0
-16 -1004 1011 0
-16 -1011 1006 1004 0
-17 -1011 1006 0
-17 1011 -1006 0
-18 -1006 1011 0
-18 -1005 1011 0
-18 -1011 1006 1005 0
-19 -1011 1006 0
-19 1011 -1006 0
-20 -1011 1006 0
-20 -1011 1007 0
-20 1011 -1006 -1007 0
-72 -1011 1006 0
-72 1011 -1006 0
-11 -1012 1007 0
-11 1012 -1007 0
-12 -1012 1007 0
-12 1012 -1007 0
-13 -1012 1007 0
-13 1012 -1007 0
-14 -1007 1012 0
-14 -1003 1012 0
-14 -1012 1007 1003 0
-15 -1012 1007 0
-15 1012 -1007 0
-16 -1012 1007 0
-16 1012 -1007 0
-17 -1007 1012 0
-17 -1004 1012 0
-17 -1012 1007 1004 0
-18 -1012 1007 0
-18 1012 -1007 0
-19 -1007 1012 0
-19 -1005 1012 0
-19 -1012 1007 1005 0
-20 -1007 1012 0
-20 -1006 1012 0
-20 -1012 1007 1006 0
-72 -1012 1007 0
-72 1012 -1007 0
-21 -1013 1008 0
-21 -1013 1009 0
-21 1013 -1008 -1009 0
-22 -1013 1008 0
-22 -1013 1010 0
-22 1013 -1008 -1010 0
-23 -1013 1008 0
-23 -1013 1011 0
-23 1013 -1008 -1011 0
-24 -1013 1008 0
-24 -1013 1012 0
-24 1013 -1008 -1012 0
-25 -1013 1008 0
-25 1013 -1008 0
-26 -1013 1008 0
-26 1013 -1008 0
-27 -1013 1008 0
-27 1013 -1008 0
-28 -1013 1008 0
-28 1013 -1008 0
-29 -1013 1008 0
-29 1013 -1008 0
-30 -1013 1008 0
-30 1013 -1008 0
-73 -1013 1008 0
-73 1013 -1008 0
-21 -1009 1014 0
-21 -1008 1014 0
-21 -1014 1009 1008 0
-22 -1014 1009 0
-22 1014 -1009 0
-23 -1014 1009 0
-23 1014 -1009 0
-24 -1014 1009 0
-24 1014 -1009 0
-25 -1014 1009 0
-25 -1014 1010 0
-25 1014 -1009 -1010 0
-26 -1014 1009 0
-26 -1014 1011 0
-26 1014 -1009 -1011 0
-27 -1014 1009 0
-27 -1014 1012 0
-27 1014 -1009 -1012 0
-28 -1014 1009 0
-28 1014 -1009 0
-29 -1014 1009 0
-29 1014 -1009 0
-30 -1014 1009 0
-30 1014 -1009 0
-73 -1014 1009 0
-73 1014 -1009 0
-21 -1015 1010 0
-21 1015 -1010 0
-22 -1010 1015 0
-22 -1008 1015 0
-22 -1015 1010 1008 0
-23 -1015 1010 0
-23 1015 -1010 0
-24 -1015 1010 0
-24 1015 -1010 0
-25 -1010 1015 0
-25 -1009 1015 0
-25 -1015 1010 1009 0
-26 -1015 1010 0
-26 1015 -1010 0
-27 -1015 1010 0
-27 1015 -1010 0
-28 -1015 1010 0
-28 -1015 1011 0
-28 1015 -1010 -1011 0
-29 -1015 1010 0
-29 -1015 1012 0
-29 1015 -1010 -1012 0
-30 -1015 1010 0
-30 1015 -1010 0
-73 -1015 1010 0
-73 1015 -1010 0
-21 -1016 1011 0
-21 1016 -1011 0
-22 -1016 1011 0
-22 1016 -1011 0
-23 -1011 1016 0
-23 -1008 1016 0
-23 -1016 1011 1008 0
-24 -1016 1011 0
-24 1016 -1011 0
-25 -1016 1011 0
-25 1016 -1011 0
-26 -1011 1016 0
-26 -1009 1016 0
-26 -1016 1011 1009 0
-27 -1016 1011 0
-27 1016 -1011 0
-28 -1011 1016 0
-28 -1010 1016 0
-28 -1016 1011 1010 0
-29 -1016 1011 0
-29 1016 -1011 0
-30 -1016 1011 0
-30 -1016 1012 0
-30 1016 -1011 -1012 0
-73 -1016 1011 0
-73 1016 -1011 0
-21 -1017 1012 0
-21 1017 -1012 0
-22 -1017 1012 0
-22 1017 -1012 0
-23 -1017 1012 0
-23 1017 -1012 0
-24 -1012 1017 0
-24 -1008 1017 0
-24 -1017 1012 1008 0
-25 -1017 1012 0
-25 1017 -1012 0
-26 -1017 1012 0
-26 1017 -1012 0
-27 -1012 1017 0
-27 -1009 1017 0
-27 -1017 1012 1009 0
-28 -1017 1012 0
-28 1017 -1012 0
-29 -1012 1017 0
-29 -1010 1017 0
-29 -1017 1012 1010 0
-30 -1012 1017 0
-30 -1011 1017 0
-30 -1017 1012 1011 0
-73 -1017 1012 0
-73 1017 -1012 0
-31 -1018 1013 0
-31 -1018 1014 0
-31 1018 -1013 -1014 0
-32 -1018 1013 0
-32 -1018 1015 0
-32 1018 -1013 -1015 0
-33 -1018 1013 0
-33 -1018 1016 0
-33 1018 -1013 -1016 0
-34 -1018 1013 0
-34 -1018 1017 0
-34 1018 -1013 -1017 0
-35 -1018 1013 0
-35 1018 -1013 0
-36 -1018 1013 0
-36 1018 -1013 0
-37 -1018 1013 0
-37 1018 -1013 0
-38 -1018 1013 0
-38 1018 -1013 0
-39 -1018 1013 0
-39 1018 -1013 0
-40 -1018 1013 0
-40 1018 -1013 0
-74 -1018 1013 0
-74 1018 -1013 0
-31 -1014 1019 0
-31 -1013 1019 0
-31 -1019 1014 1013 0
-32 -1019 1014 0
-32 1019 -1014 0
-33 -1019 1014 0
-33 1019 -1014 0
-34 -1019 1014 0
-34 1019 -1014 0
-35 -1019 1014 0
-35 -1019 1015 0
-35 1019 -1014 -1015 0
-36 -1019 1014 0
-36 -1019 1016 0
-36 1019 -1014 -1016 0
-37 -1019 1014 0
-37 -1019 1017 0
-37 1019 -1014 -1017 0
-38 -1019 1014 0
-38 1019 -1014 0
-39 -1019 1014 0
-39 1019 -1014 0
-40 -1019 1014 0
-40 1019 -1014 0
-74 -1019 1014 0
-74 1019 -1014 0
-31 -1020 1015 0
-31 1020 -1015 0
-32 -1015 1020 0
-32 -1013 1020 0
-32 -1020 1015 1013 0
-33 -1020 1015 0
-33 1020 -1015 0
-34 -1020 1015 0
-34 1020 -1015 0
-35 -1015 1020 0
-35 -1014 1020 0
-35 -1020 1015 1014 0
-36 -1020 1015 0
-36 1020 -1015 0
-37 -1020 1015 0
-37 1020 -1015 0
-38 -1020 1015 0
-38 -1020 1016 0
-38 1020 -1015 -1016 0
-39 -1020 1015 0
-39 -1020 1017 0
-39 1020 -1015 -1017 0
-40 -1020 1015 0
-40 1020 -1015 0
-74 -1020 1015 0
-74 1020 -1015 0
-31 -1021 1016 0
-31 1021 -1016 0
-32 -1021 1016 0
-32 1021 -1016 0
-33 -1016 1021 0
-33 -1013 1021 0
-33 -1021 1016 1013 0
-34 -1021 1016 0
-34 1021 -1016 0
-35 -1021 1016 0
-35 1021 -1016 0
-36 -1016 1021 0
-36 -1014 1021 0
-36 -1021 1016 1014 0
-37 -1021 1016 0
-37 1021 -1016 0
-38 -1016 1021 0
-38 -1015 1021 0
-38 -1021 1016 1015 0
-39 -1021 1016 0
-39 1021 -1016 0
-40 -1021 1016 0
-40 -1021 1017 0
-40 1021 -1016 -1017 0
-74 -1021 1016 0
-74 1021 -1016 0
-31 -1022 1017 0
-31 1022 -1017 0
-32 -1022 1017 0
-32 1022 -1017 0
-33 -1022 1017 0
-33 1022 -1017 0
-34 -1017 1022 0
-34 -1013 1022 0
-34 -1022 1017 1013 0
-35 -1022 1017 0
-35 1022 -1017 0
-36 -1022 1017 0
-36 1022 -1017 0
-37 -1017 1022 0
-37 -1014 1022 0
-37 -1022 1017 1014 0
-38 -1022 1017 0
-38 1022 -1017 0
-39 -1017 1022 0
-39 -1015 1022 0
-39 -1022 1017 1015 0
-40 -1017 1022 0
-40 -1016 1022 0
-40 -1022 1017 1016 0
-74 -1022 1017 0
-74 1022 -1017 0
-41 -1023 1018 0
-41 -1023 1019 0
-41 1023 -1018 -1019 0
-42 -1023 1018 0
-42 -1023 1020 0
-42 1023 -1018 -1020 0
-43 -1023 1018 0
-43 -1023 1021 0
-43 1023 -1018 -1021 0
-44 -1023 1018 0
-44 -1023 1022 0
-44 1023 -1018 -1022 0
-45 -1023 1018 0
-45 1023 -1018 0
-46 -1023 1018 0
-46 1023 -1018 0
-47 -1023 1018 0
-47 1023 -1018 0
-48 -1023 1018 0
-48 1023 -1018 0
-49 -1023 1018 0
-49 1023 -1018 0
-50 -1023 1018 0
-50 1023 -1018 0
-75 -1023 1018 0
-75 1023 -1018 0
-41 -1019 1024 0
-41 -1018 1024 0
-41 -1024 1019 1018 0
-42 -1024 1019 0
-42 1024 -1019 0
-43 -1024 1019 0
-43 1024 -1019 0
-44 -1024 1019 0
-44 1024 -1019 0
-45 -1024 1019 0
-45 -1024 1020 0
-45 1024 -1019 -1020 0
-46 -1024 1019 0
-46 -1024 1021 0
-46 1024 -1019 -1021 0
-47 -1024 1019 0
-47 -1024 1022 0
-47 1024 -1019 -1022 0
-48 -1024 1019 0
-48 1024 -1019 0
-49 -1024 1019 0
-49 1024 -1019 0
-50 -1024 1019 0
-50 1024 -1019 0
-75 -1024 1019 0
-75 1024 -1019 0
-41 -1025 1020 0
-41 1025 -1020 0
-42 -1020 1025 0
-42 -1018 1025 0
-42 -1025 1020 1018 0
-43 -1025 1020 0
-43 1025 -1020 0
-44 -1025 1020 0
-44 1025 -1020 0
-45 -1020 1025 0
-45 -1019 1025 0
-45 -1025 1020 1019 0
-46 -1025 1020 0
-46 1025 -1020 0
-47 -1025 1020 0
-47 1025 -1020 0
-48 -1025 1020 0
-48 -1025 1021 0
-48 1025 -1020 -1021 0
-49 -1025 1020 0
-49 -1025 1022 0
-49 1025 -1020 -1022 0
-50 -1025 1020 0
-50 1025 -1020 0
-75 -1025 1020 0
-75 1025 -1020 0
-41 -1026 1021 0
-41 1026 -1021 0
-42 -1026 1021 0
-42 1026 -1021 0
-43 -1021 1026 0
-43 -1018 1026 0
-43 -1026 1021 1018 0
-44 -1026 1021 0
-44 1026 -1021 0
-45 -1026 1021 0
-45 1026 -1021 0
-46 -1021 1026 0
-46 -1019 1026 0
-46 -1026 1021 1019 0
-47 -1026 1021 0
-47 1026 -1021 0
-48 -1021 1026 0
-48 -1020 1026 0
-48 -1026 1021 1020 0
-49 -1026 1021 0
-49 1026 -1021 0
-50 -1026 1021 0
-50 -1026 1022 0
-50 1026 -1021 -1022 0
-75 -1026 1021 0
-75 1026 -1021 0
-41 -1027 1022 0
-41 1027 -1022 0
-42 -1027 1022 0
-42 1027 -1022 0
-43 -1027 1022 0
-43 1027 -1022 0
-44 -1022 1027 0
-44 -1018 1027 0
-44 -1027 1022 1018 0
-45 -1027 1022 0
-45 1027 -1022 0
-46 -1027 1022 0
-46 1027 -1022 0
-47 -1022 1027 0
-47 -1019 1027 0
-47 -1027 1022 1019 0
-48 -1027 1022 0
-48 1027 -1022 0
-49 -1022 1027 0
-49 -1020 1027 0
-49 -1027 1022 1020 0
-50 -1022 1027 0
-50 -1021 1027 0
-50 -1027 1022 1021 0
-75 -1027 1022 0
-75 1027 -1022 0
-51 -1028 1023 0
-51 -1028 1024 0
-51 1028 -1023 -1024 0
-52 -1028 1023 0
-52 -1028 1025 0
-52 1028 -1023 -1025 0
-53 -1028 1023 0
-53 -1028 1026 0
-53 1028 -1023 -1026 0
-54 -1028 1023 0
-54 -1028 1027 0
-54 1028 -1023 -1027 0
-55 -1028 1023 0
-55 1028 -1023 0
-56 -1028 1023 0
-56 1028 -1023 0
-57 -1028 1023 0
-57 1028 -1023 0
-58 -1028 1023 0
-58 1028 -1023 0
-59 -1028 1023 0
-59 1028 -1023 0
-60 -1028 1023 0
-60 1028 -1023 0
-76 -1028 1023 0
-76 1028 -1023 0
-51 -1024 1029 0
-51 -1023 1029 0
-51 -1029 1024 1023 0
-52 -1029 1024 0
-52 1029 -1024 0
-53 -1029 1024 0
-53 1029 -1024 0
-54 -1029 1024 0
-54 1029 -1024 0
-55 -1029 1024 0
-55 -1029 1025 0
-55 1029 -1024 -1025 0
-56 -1029 1024 0
-56 -1029 1026 0
-56 1029 -1024 -1026 0
-57 -1029 1024 0
-57 -1029 1027 0
-57 1029 -1024 -1027 0
-58 -1029 1024 0
-58 1029 -1024 0
-59 -1029 1024 0
-59 1029 -1024 0
-60 -1029 1024 0
-60 1029 -1024 0
-76 -1029 1024 0
-76 1029 -1024 0
-51 -1030 1025 0
-51 1030 -1025 0
-52 -1025 1030 0
-52 -1023 1030 0
-52 -1030 1025 1023 0
-53 -1030 1025 0
-53 1030 -1025 0
-54 -1030 1025 0
-54 1030 -1025 0
-55 -1025 1030 0
-55 -1024 1030 0
-55 -1030 1025 1024 0
-56 -1030 1025 0
-56 1030 -1025 0
-57 -1030 1025 0
-57 1030 -1025 0
-58 -1030 1025 0
-58 -1030 1026 0
-58 1030 -1025 -1026 0
-59 -1030 1025 0
-59 -1030 1027 0
-59 1030 -1025 -1027 0
-60 -1030 1025 0
-60 1030 -1025 0
-76 -1030 1025 0
-76 1030 -1025 0
-51 -1031 1026 0
-51 1031 -1026 0
-52 -1031 1026 0
-52 1031 -1026 0
-53 -1026 1031 0
-53 -1023 1031 0
-53 -1031 1026 1023 0
-54 -1031 1026 0
-54 1031 -1026 0
-55 -1031 1026 0
-55 1031 -1026 0
-56 -1026 1031 0
-56 -1024 1031 0
-56 -1031 1026 1024 0
-57 -1031 1026 0
-57 1031 -1026 0
-58 -1026 1031 0
-58 -1025 1031 0
-58 -1031 1026 1025 0
-59 -1031 1026 0
-59 1031 -1026 0
-60 -1031 1026 0
-60 -1031 1027 0
-60 1031 -1026 -1027 0
-76 -1031 1026 0
-76 1031 -1026 0
-51 -1032 1027 0
-51 1032 -1027 0
-52 -1032 1027 0
-52 1032 -1027 0
-53 -1032 1027 0
-53 1032 -1027 0
-54 -1027 1032 0
-54 -1023 1032 0
-54 -1032 1027 1023 0
-55 -1032 1027 0
-55 1032 -1027 0
-56 -1032 1027 0
-56 1032 -1027 0
-57 -1027 1032 0
-57 -1024 1032 0
-57 -1032 1027 1024 0
-58 -1032 1027 0
-58 1032 -1027 0
-59 -1027 1032 0
-59 -1025 1032 0
-59 -1032 1027 1025 0
-60 -1027 1032 0
-60 -1026 1032 0
-60 -1032 1027 1026 0
-76 -1032 1027 0
-76 1032 -1027 0
-61 -1033 1028 0
-61 -1033 1029 0
-61 1033 -1028 -1029 0
-62 -1033 1028 0
-62 -1033 1030 0
-62 1033 -1028 -1030 0
-63 -1033 1028 0
-63 -1033 1031 0
-63 1033 -1028 -1031 0
-64 -1033 1028 0
-64 -1033 1032 0
-64 1033 -1028 -1032 0
-65 -1033 1028 0
-65 1033 -1028 0
-66 -1033 1028 0
-66 1033 -1028 0
-67 -1033 1028 0
-67 1033 -1028 0
-68 -1033 1028 0
-68 1033 -1028 0
-69 -1033 1028 0
-69 1033 -1028 0
-70 -1033 1028 0
-70 1033 -1028 0
-77 -1033 1028 0
-77 1033 -1028 0
-61 -1029 1034 0
-61 -1028 1034 0
-61 -1034 1029 1028 0
-62 -1034 1029 0
-62 1034 -1029 0
-63 -1034 1029 0
-63 1034 -1029 0
-64 -1034 1029 0
-64 1034 -1029 0
-65 -1034 1029 0
-65 -1034 1030 0
-65 1034 -1029 -1030 0
-66 -1034 1029 0
-66 -1034 1031 0
-66 1034 -1029 -1031 0
-67 -1034 1029 0
-67 -1034 1032 0
-67 1034 -1029 -1032 0
-68 -1034 1029 0
-68 1034 -1029 0
-69 -1034 1029 0
-69 1034 -1029 0
-70 -1034 1029 0
-70 1034 -1029 0
-77 -1034 1029 0
-77 1034 -1029 0
-61 -1035 1030 0
-61 1035 -1030 0
-62 -1030 1035 0
-62 -1028 1035 0
-62 -1035 1030 1028 0
-63 -1035 1030 0
-63 1035 -1030 0
-64 -1035 1030 0
-64 1035 -1030 0
-65 -1030 1035 0
-65 -1029 1035 0
-65 -1035 1030 1029 0
-66 -1035 1030 0
-66 1035 -1030 0
-67 -1035 1030 0
-67 1035 -1030 0
-68 -1035 1030 0
-68 -1035 1031 0
-68 1035 -1030 -1031 0
-69 -1035 1030 0
-69 -1035 1032 0
-69 1035 -1030 -1032 0
-70 -1035 1030 0
-70 1035 -1030 0
-77 -1035 1030 0
-77 1035 -1030 0
-61 -1036 1031 0
-61 1036 -1031 0
-62 -1036 1031 0
-62 1036 -1031 0
-63 -1031 1036 0
-63 -1028 1036 0
-63 -1036 1031 1028 0
-64 -1036 1031 0
-64 1036 -1031 0
-65 -1036 1031 0
-65 1036 -1031 0
-66 -1031 1036 0
-66 -1029 1036 0
-66 -1036 1031 1029 0
-67 -1036 1031 0
-67 1036 -1031 0
-68 -1031 1036 0
-68 -1030 1036 0
-68 -1036 1031 1030 0
-69 -1036 1031 0
-69 1036 -1031 0
-70 -1036 1031 0
-70 -1036 1032 0
-70 1036 -1031 -1032 0
-77 -1036 1031 0
-77 1036 -1031 0
-61 -1037 1032 0
-61 1037 -1032 0
-62 -1037 1032 0
-62 1037 -1032 0
-63 -1037 1032 0
-63 1037 -1032 0
-64 -1032 1037 0
-64 -1028 1037 0
-64 -1037 1032 1028 0
-65 -1037 1032 0
-65 1037 -1032 0
-66 -1037 1032 0
-66 1037 -1032 0
-67 -1032 1037 0
-67 -1029 1037 0
-67 -1037 1032 1029 0
-68 -1037 1032 0
-68 1037 -1032 0
-69 -1032 1037 0
-69 -1030 1037 0
-69 -1037 1032 1030 0
-70 -1032 1037 0
-70 -1031 1037 0
-70 -1037 1032 1031 0
-77 -1037 1032 0
-77 1037 -1032 0
1038 0
-1 -1043 1038 0
-1 -1043 1039 0
-1 1043 -1038 -1039 0
-2 -1043 1038 0
-2 -1043 1040 0
-2 1043 -1038 -1040 0
-3 -1043 1038 0
-3 -1043 1041 0
-3 1043 -1038 -1041 0
-4 -1043 1038 0
-4 -1043 1042 0
-4 1043 -1038 -1042 0
-5 -1043 1038 0
-5 1043 -1038 0
-6 -1043 1038 0
-6 1043 -1038 0
-7 -1043 1038 0
-7 1043 -1038 0
-8 -1043 1038 0
-8 1043 -1038 0
-9 -1043 1038 0
-9 1043 -1038 0
-10 -1043 1038 0
-10 1043 -1038 0
-71 -1043 1038 0
-71 1043 -1038 0
1039 0
-1 -1039 1044 0
-1 -1038 1044 0
-1 -1044 1039 1038 0
-2 -1044 1039 0
-2 1044 -1039 0
-3 -1044 1039 0
-3 1044 -1039 0
-4 -1044 1039 0
-4 1044 -1039 0
-5 -1044 1039 0
-5 -1044 1040 0
-5 1044 -1039 -1040 0
-6 -1044 1039 0
-6 -1044 1041 0
-6 1044 -1039 -1041 0
-7 -1044 1039 0
-7 -1044 1042 0
-7 1044 -1039 -1042 0
-8 -1044 1039 0
-8 1044 -1039 0
-9 -1044 1039 0
-9 1044 -1039 0
-10 -1044 1039 0
-10 1044 -1039 0
-71 -1044 1039 0
-71 1044 -1039 0
1040 0
-1 -1045 1040 0
-1 1045 -1040 0
-2 -1040 1045 0
-2 -1038 1045 0
-2 -1045 1040 1038 0
-3 -1045 1040 0
-3 1045 -1040 0
-4 -1045 1040 0
-4 1045 -1040 0
-5 -1040 1045 0
-5 -1039 1045 0
-5 -1045 1040 1039 0
-6 -1045 1040 0
-6 1045 -1040 0
-7 -1045 1040 0
-7 1045 -1040 0
-8 -1045 1040 0
-8 -1045 1041 0
-8 1045 -1040 -1041 0
-9 -1045 1040 0
-9 -1045 1042 0
-9 1045 -1040 -1042 0
-10 -1045 1040 0
-10 1045 -1040 0
-71 -1045 1040 0
-71 1045 -1040 0
-1041 0
-1 -1046 1041 0
-1 1046 -1041 0
-2 -1046 1041 0
-2 1046 -1041 0
-3 -1041 1046 0
-3 -1038 1046 0
-3 -1046 1041 1038 0
-4 -1046 1041 0
-4 1046 -1041 0
-5 -1046 1041 0
-5 1046 -1041 0
-6 -1041 1046 0
-6 -1039 1046 0
-6 -1046 1041 1039 0
-7 -1046 1041 0
-7 1046 -1041 0
-8 -1041 1046 0
-8 -1040 1046 0
-8 -1046 1041 1040 0
-9 -1046 1041 0
-9 1046 -1041 0
-10 -1046 1041 0
-10 -1046 1042 0
-10 1046 -1041 -1042 0
-71 -1046 1041 0
-71 1046 -1041 0
1042 0
-1 -1047 1042 0
-1 1047 -1042 0
-2 -1047 1042 0
-2 1047 -1042 0
-3 -1047 1042 0
-3 1047 -1042 0
-4 -1042 1047 0
-4 -1038 1047 0
-4 -1047 1042 1038 0
-5 -1047 1042 0
-5 1047 -1042 0
-6 -1047 1042 0
-6 1047 -1042 0
-7 -1042 1047 0
-7 -1039 1047 0
-7 -1047 1042 1039 0
-8 -1047 1042 0
-8 1047 -1042 0
-9 -1042 1047 0
-9 -1040 1047 0
-9 -1047 1042 1040 0
-10 -1042 1047 0
-10 -1041 1047 0
-10 -1047 1042 1041 0
-71 -1047 1042 0
-71 1047 -1042 0
-11 -1048 1043 0
-11 -1048 1044 0
-11 1048 -1043 -1044 0
-12 -1048 1043 0
-12 -1048 1045 0
-12 1048 -1043 -1045 0
-13 -1048 1043 0
-13 -1048 1046 0
-13 1048 -1043 -1046 0
-14 -1048 1043 0
-14 -1048 1047 0
-14 1048 -1043 -1047 0
-15 -1048 1043 0
-15 1048 -1043 0
-16 -1048 1043 0
-16 1048 -1043 0
-17 -1048 1043 0
-17 1048 -1043 0
-18 -1048 1043 0
-18 1048 -1043 0
-19 -1048 1043 0
-19 1048 -1043 0
-20 -1048 1043 0
-20 1048 -1043 0
-72 -1048 1043 0
-72 1048 -1043 0
-11 -1044 1049 0
-11 -1043 1049 0
-11 -1049 1044 1043 0
-12 -1049 1044 0
-12 1049 -1044 0
-13 -1049 1044 0
-13 1049 -1044 0
-14 -1049 1044 0
-14 1049 -1044 0
-15 -1049 1044 0
-15 -1049 1045 0
-15 1049 -1044 -1045 0
-16 -1049 1044 0
-16 -1049 1046 0
-16 1049 -1044 -1046 0
-17 -1049 1044 0
-17 -1049 1047 0
-17 1049 -1044 -1047 0
-18 -1049 1044 0
-18 1049 -1044 0
-19 -1049 1044 0
-19 1049 -1044 0
-20 -1049 1044 0
-20 1049 -1044 0
-72 -1049 1044 0
-72 1049 -1044 0
-11 -1050 1045 0
-11 1050 -1045 0
-12 -1045 1050 0
-12 -1043 1050 0
-12 -1050 1045 1043 0
-13 -1050 1045 0
-13 1050 -1045 0
-14 -1050 1045 0
-14 1050 -1045 0
-15 -1045 1050 0
-15 -1044 1050 0
-15 -1050 1045 1044 0
-16 -1050 1045 0
-16 1050 -1045 0
-17 -1050 1045 0
-17 1050 -1045 0
-18 -1050 1045 0
-18 -1050 1046 0
-18 1050 -1045 -1046 0
-19 -1050 1045 0
-19 -1050 1047 0
-19 1050 -1045 -1047 0
-20 -1050 1045 0
-20 1050 -1045 0
-72 -1050 1045 0
-72 1050 -1045 0
-11 -1051 1046 0
-11 1051 -1046 0
-12 -1051 1046 0
-12 1051 -1046 0
-13 -1046 1051 0
-13 -1043 1051 0
-13 -1051 1046 1043 0
-14 -1051 1046 0
-14 1051 -1046 0
-15 -1051 1046 0
-15 1051 -1046 0
-16 -1046 1051 0
-16 -1044 1051 0
-16 -1051 1046 1044 0
-17 -1051 1046 0
-17 1051 -1046 0
-18 -1046 1051 0
-18 -1045 1051 0
-18 -1051 1046 1045 0
-19 -1051 1046 0
-19 1051 -1046 0
-20 -1051 1046 0
-20 -1051 1047 0
-20 1051 -1046 -1047 0
-72 -1051 1046 0
-72 1051 -1046 0
-11 -1052 1047 0
-11 1052 -1047 0
-12 -1052 1047 0
-12 1052 -1047 0
-13 -1052 1047 0
-13 1052 -1047 0
-14 -1047 1052 0
-14 -1043 1052 0
-14 -1052 1047 1043 0
-15 -1052 1047 0
-15 1052 -1047 0
-16 -1052 1047 0
-16 1052 -1047 0
-17 -1047 1052 0
-17 -1044 1052 0
-17 -1052 1047 1044 0
-18 -1052 1047 0
-18 1052 -1047 0
-19 -1047 1052 0
-19 -1045 1052 0
-19 -1052 1047 1045 0
-20 -1047 1052 0
-20 -1046 1052 0
-20 -1052 1047 1046 0
-72 -1052 1047 0
-72 1052 -1047 0
-21 -1053 1048 0
-21 -1053 1049 0
-21 1053 -1048 -1049 0
-22 -1053 1048 0
-22 -1053 1050 0
-22 1053 -1048 -1050 0
-23 -1053 1048 0
-23 -1053 1051 0
-23 1053 -1048 -1051 0
-24 -1053 1048 0
-24 -1053 1052 0
-24 1053 -1048 -1052 0
-25 -1053 1048 0
-25 1053 -1048 0
-26 -1053 1048 0
-26 1053 -1048 0
-27 -1053 1048 0
-27 1053 -1048 0
-28 -1053 1048 0
-28 1053 -1048 0
-29 -1053 1048 0
-29 1053 -1048 0
-30 -1053 1048 0
-30 1053 -1048 0
-73 -1053 1048 0
-73 1053 -1048 0
-21 -1049 1054 0
-21 -1048 1054 0
-21 -1054 1049 1048 0
-22 -1054 1049 0
-22 1054 -1049 0
-23 -1054 1049 0
-23 1054 -1049 0
-24 -1054 1049 0
-24 1054 -1049 0
-25 -1054 1049 0
-25 -1054 1050 0
-25 1054 -1049 -1050 0
-26 -1054 1049 0
-26 -1054 1051 0
-26 1054 -1049 -1051 0
-27 -1054 1049 0
-27 -1054 1052 0
-27 1054 -1049 -1052 0
-28 -1054 1049 0
-28 1054 -1049 0
-29 -1054 1049 0
-29 1054 -1049 0
-30 -1054 1049 0
-30 1054 -1049 0
-73 -1054 1049 0
-73 1054 -1049 0
-21 -1055 1050 0
-21 1055 -1050 0
-22 -1050 1055 0
-22 -1048 1055 0
-22 -1055 1050 1048 0
-23 -1055 1050 0
-23 1055 -1050 0
-24 -1055 1050 0
-24 1055 -1050 0
-25 -1050 1055 0
-25 -1049 1055 0
-25 -1055 1050 1049 0
-26 -1055 1050 0
-26 1055 -1050 0
-27 -1055 1050 0
-27 1055 -1050 0
-28 -1055 1050 0
-28 -1055 1051 0
-28 1055 -1050 -1051 0
-29 -1055 1050 0
-29 -1055 1052 0
-29 1055 -1050 -1052 0
-30 -1055 1050 0
-30 1055 -1050 0
-73 -1055 1050 0
-73 1055 -1050 0
-21 -1056 1051 0
-21 1056 -1051 0
-22 -1056 1051 0
-22 1056 -1051 0
-23 -1051 1056 0
-23 -1048 1056 0
-23 -1056 1051 1048 0
-24 -1056 1051 0
-24 1056 -1051 0
-25 -1056 1051 0
-25 1056 -1051 0
-26 -1051 1056 0
-26 -1049 1056 0
-26 -1056 1051 1049 0
-27 -1056 1051 0
-27 1056 -1051 0
-28 -1051 1056 0
-28 -1050 1056 0
-28 -1056 1051 1050 0
-29 -1056 1051 0
-29 1056 -1051 0
-30 -1056 1051 0
-30 -1056 1052 0
-30 1056 -1051 -1052 0
-73 -1056 1051 0
-73 1056 -1051 0
-21 -1057 1052 0
-21 1057 -1052 0
-22 -1057 1052 0
-22 1057 -1052 0
-23 -1057 1052 0
-23 1057 -1052 0
-24 -1052 1057 0
-24 -1048 1057 0
-24 -1057 1052 1048 0
-25 -1057 1052 0
-25 1057 -1052 0
-26 -1057 1052 0
-26 1057 -1052 0
-27 -1052 1057 0
-27 -1049 1057 0
-27 -1057 1052 1049 0
-28 -1057 1052 0
-28 1057 -1052 0
-29 -1052 1057 0
-29 -1050 1057 0
-29 -1057 1052 1050 0
-30 -1052 1057 0
-30 -1051 1057 0
-30 -1057 1052 1051 0
-73 -1057 1052 0
-73 1057 -1052 0
-31 -1058 1053 0
-31 -1058 1054 0
-31 1058 -1053 -1054 0
-32 -1058 1053 0
-32 -1058 1055 0
-32 1058 -1053 -1055 0
-33 -1058 1053 0
-33 -1058 1056 0
-33 1058 -1053 -1056 0
-34 -1058 1053 0
-34 -1058 1057 0
-34 1058 -1053 -1057 0
-35 -1058 1053 0
-35 1058 -1053 0
-36 -1058 1053 0
-36 1058 -1053 0
-37 -1058 1053 0
-37 1058 -1053 0
-38 -1058 1053 0
-38 1058 -1053 0
-39 -1058 1053 0
-39 1058 -1053 0
-40 -1058 1053 0
-40 1058 -1053 0
-74 -1058 1053 0
-74 1058 -1053 0
-31 -1054 1059 0
-31 -1053 1059 0
-31 -1059 1054 1053 0
-32 -1059 1054 0
-32 1059 -1054 0
-33 -1059 1054 0
-33 1059 -1054 0
-34 -1059 1054 0
-34 1059 -1054 0
-35 -1059 1054 0
-35 -1059 1055 0
-35 1059 -1054 -1055 0
-36 -1059 1054 0
-36 -1059 1056 0
-36 1059 -1054 -1056 0
-37 -1059 1054 0
-37 -1059 1057 0
-37 1059 -1054 -1057 0
-38 -1059 1054 0
-38 1059 -1054 0
-39 -1059 1054 0
-39 1059 -1054 0
-40 -1059 1054 0
-40 1059 -1054 0
-74 -1059 1054 0
-74 1059 -1054 0
-31 -1060 1055 0
-31 1060 -1055 0
-32 -1055 1060 0
-32 -1053 1060 0
-32 -1060 1055 1053 0
-33 -1060 1055 0
-33 1060 -1055 0
-34 -1060 1055 0
-34 1060 -1055 0
-35 -1055 1060 0
-35 -1054 1060 0
-35 -1060 1055 1054 0
-36 -1060 1055 0
-36 1060 -1055 0
-37 -1060 1055 0
-37 1060 -1055 0
-38 -1060 1055 0
-38 -1060 1056 0
-38 1060 -1055 -1056 0
-39 -1060 1055 0
-39 -1060 1057 0
-39 1060 -1055 -1057 0
-40 -1060 1055 0
-40 1060 -1055 0
-74 -1060 1055 0
-74 1060 -1055 0
-31 -1061 1056 0
-31 1061 -1056 0
-32 -1061 1056 0
-32 1061 -1056 0
-33 -1056 1061 0
-33 -1053 1061 0
-33 -1061 1056 1053 0
-34 -1061 1056 0
-34 1061 -1056 0
-35 -1061 1056 0
-35 1061 -1056 0
-36 -1056 1061 0
-36 -1054 1061 0
-36 -1061 1056 1054 0
-37 -1061 1056 0
-37 1061 -1056 0
-38 -1056 1061 0
-38 -1055 1061 0
-38 -1061 1056 1055 0
-39 -1061 1056 0
-39 1061 -1056 0
-40 -1061 1056 0
-40 -1061 1057 0
-40 1061 -1056 -1057 0
-74 -1061 1056 0
-74 1061 -1056 0
-31 -1062 1057 0
-31 1062 -1057 0
-32 -1062 1057 0
-32 1062 -1057 0
-33 -1062 1057 0
-33 1062 -1057 0
-34 -1057 1062 0
-34 -1053 1062 0
-34 -1062 1057 1053 0
-35 -1062 1057 0
-35 1062 -1057 0
-36 -1062 1057 0
-36 1062 -1057 0
-37 -1057 1062 0
-37 -1054 1062 0
-37 -1062 1057 1054 0
-38 -1062 1057 0
-38 1062 -1057 0
-39 -1057 1062 0
-39 -1055 1062 0
-39 -1062 1057 1055 0
-40 -1057 1062 0
-40 -1056 1062 0
-40 -1062 1057 1056 0
-74 -1062 1057 0
-74 1062 -1057 0
-41 -1063 1058 0
-41 -1063 1059 0
-41 1063 -1058 -1059 0
-42 -1063 1058 0
-42 -1063 1060 0
-42 1063 -1058 -1060 0
-43 -1063 1058 0
-43 -1063 1061 0
-43 1063 -1058 -1061 0
-44 -1063 1058 0
-44 -1063 1062 0
-44 1063 -1058 -1062 0
-45 -1063 1058 0
-45 1063 -1058 0
-46 -1063 1058 0
-46 1063 -1058 0
-47 -1063 1058 0
-47 1063 -1058 0
-48 -1063 1058 0
-48 1063 -1058 0
-49 -1063 1058 0
-49 1063 -1058 0
-50 -1063 1058 0
-50 1063 -1058 0
-75 -1063 1058 0
-75 1063 -1058 0
-41 -1059 1064 0
-41 -1058 1064 0
-41 -1064 1059 1058 0
-42 -1064 1059 0
-42 1064 -1059 0
-43 -1064 1059 0
-43 1064 -1059 0
-44 -1064 1059 0
-44 1064 -1059 0
-45 -1064 1059 0
-45 -1064 1060 0
-45 1064 -1059 -1060 0
-46 -1064 1059 0
-46 -1064 1061 0
-46 1064 -1059 -1061 0
-47 -1064 1059 0
-47 -1064 1062 0
-47 1064 -1059 -1062 0
-48 -1064 1059 0
-48 1064 -1059 0
-49 -1064 1059 0
-49 1064 -1059 0
-50 -1064 1059 0
-50 1064 -1059 0
-75 -1064 1059 0
-75 1064 -1059 0
-41 -1065 1060 0
-41 1065 -1060 0
-42 -1060 1065 0
-42 -1058 1065 0
-42 -1065 1060 1058 0
-43 -1065 1060 0
-43 1065 -1060 0
-44 -1065 1060 0
-44 1065 -1060 0
-45 -1060 1065 0
-45 -1059 1065 0
-45 -1065 1060 1059 0
-46 -1065 1060 0
-46 1065 -1060 0
-47 -1065 1060 0
-47 1065 -1060 0
-48 -1065 1060 0
-48 -1065 1061 0
-48 1065 -1060 -1061 0
-49 -1065 1060 0
-49 -1065 1062 0
-49 1065 -1060 -1062 0
-50 -1065 1060 0
-50 1065 -1060 0
-75 -1065 1060 0
-75 1065 -1060 0
-41 -1066 1061 0
-41 1066 -1061 0
-42 -1066 1061 0
-42 1066 -1061 0
-43 -1061 1066 0
-43 -1058 1066 0
-43 -1066 1061 1058 0
-44 -1066 1061 0
-44 1066 -1061 0
-45 -1066 1061 0
-45 1066 -1061 0
-46 -1061 1066 0
-46 -1059 1066 0
-46 -1066 1061 1059 0
-47 -1066 1061 0
-47 1066 -1061 0
-48 -1061 1066 0
-48 -1060 1066 0
-48 -1066 1061 1060 0
-49 -1066 1061 0
-49 1066 -1061 0
-50 -1066 1061 0
-50 -1066 1062 0
-50 1066 -1061 -1062 0
-75 -1066 1061 0
-75 1066 -1061 0
-41 -1067 1062 0
-41 1067 -1062 0
-42 -1067 1062 0
-42 1067 -1062 0
-43 -1067 1062 0
-43 1067 -1062 0
-44 -1062 1067 0
-44 -1058 1067 0
-44 -1067 1062 1058 0
-45 -1067 1062 0
-45 1067 -1062 0
-46 -1067 1062 0
-46 1067 -1062 0
-47 -1062 1067 0
-47 -1059 1067 0
-47 -1067 1062 1059 0
-48 -1067 1062 0
-48 1067 -1062 0
-49 -1062 1067 0
-49 -1060 1067 0
-49 -1067 1062 1060 0
-50 -1062 1067 0
-50 -1061 1067 0
-50 -1067 1062 1061 0
-75 -1067 1062 0
-75 1067 -1062 0
-51 -1068 1063 0
-51 -1068 1064 0
-51 1068 -1063 -1064 0
-52 -1068 1063 0
-52 -1068 1065 0
-52 1068 -1063 -1065 0
-53 -1068 1063 0
-53 -1068 1066 0
-53 1068 -1063 -1066 0
-54 -1068 1063 0
-54 -1068 1067 0
-54 1068 -1063 -1067 0
-55 -1068 1063 0
-55 1068 -1063 0
-56 -1068 1063 0
-56 1068 -1063 0
-57 -1068 1063 0
-57 1068 -1063 0
-58 -1068 1063 0
-58 1068 -1063 0
-59 -1068 1063 0
-59 1068 -1063 0
-60 -1068 1063 0
-60 1068 -1063 0
-76 -1068 1063 0
-76 1068 -1063 0
-51 -1064 1069 0
-51 -1063 1069 0
-51 -1069 1064 1063 0
-52 -1069 1064 0
-52 1069 -1064 0
-53 -1069 1064 0
-53 1069 -1064 0
-54 -1069 1064 0
-54 1069 -1064 0
-55 -1069 1064 0
-55 -1069 1065 0
-55 1069 -1064 -1065 0
-56 -1069 1064 0
-56 -1069 1066 0
-56 1069 -1064 -1066 0
-57 -1069 1064 0
-57 -1069 1067 0
-57 1069 -1064 -1067 0
-58 -1069 1064 0
-58 1069 -1064 0
-59 -1069 1064 0
-59 1069 -1064 0
-60 -1069 1064 0
-60 1069 -1064 0
-76 -1069 1064 0
-76 1069 -1064 0
-51 -1070 1065 0
-51 1070 -1065 0
-52 -1065 1070 0
-52 -1063 1070 0
-52 -1070 1065 1063 0
-53 -1070 1065 0
-53 1070 -1065 0
-54 -1070 1065 0
-54 1070 -1065 0
-55 -1065 1070 0
-55 -1064 1070 0
-55 -1070 1065 1064 0
-56 -1070 1065 0
-56 1070 -1065 0
-57 -1070 1065 0
-57 1070 -1065 0
-58 -1070 1065 0
-58 -1070 1066 0
-58 1070 -1065 -1066 0
-59 -1070 1065 0
-59 -1070 1067 0
-59 1070 -1065 -1067 0
-60 -1070 1065 0
-60 1070 -1065 0
-76 -1070 1065 0
-76 1070 -1065 0
-51 -1071 1066 0
-51 1071 -1066 0
-52 -1071 1066 0
-52 1071 -1066 0
-53 -1066 1071 0
-53 -1063 1071 0
-53 -1071 1066 1063 0
-54 -1071 1066 0
-54 1071 -1066 0
-55 -1071 1066 0
-55 1071 -1066 0
-56 -1066 1071 0
-56 -1064 1071 0
-56 -1071 1066 1064 0
-57 -1071 1066 0
-57 1071 -1066 0
-58 -1066 1071 0
-58 -1065 1071 0
-58 -1071 1066 1065 0
-59 -1071 1066 0
-59 1071 -1066 0
-60 -1071 1066 0
-60 -1071 1067 0
-60 1071 -1066 -1067 0
-76 -1071 1066 0
-76 1071 -1066 0
-51 -1072 1067 0
-51 1072 -1067 0
-52 -1072 1067 0
-52 1072 -1067 0
-53 -1072 1067 0
-53 1072 -1067 0
-54 -1067 1072 0
-54 -1063 1072 0
-54 -1072 1067 1063 0
-55 -1072 1067 0
-55 1072 -1067 0
-56 -1072 1067 0
-56 1072 -1067 0
-57 -1067 1072 0
-57 -1064 1072 0
-57 -1072 1067 1064 0
-58 -1072 1067 0
-58 1072 -1067 0
-59 -1067 1072 0
-59 -1065 1072 0
-59 -1072 1067 1065 0
-60 -1067 1072 0
-60 -1066 1072 0
-60 -1072 1067 1066 0
-76 -1072 1067 0
-76 1072 -1067 0
-61 -1073 1068 0
-61 -1073 1069 0
-61 1073 -1068 -1069 0
-62 -1073 1068 0
-62 -1073 1070 0
-62 1073 -1068 -1070 0
-63 -1073 1068 0
-63 -1073 1071 0
-63 1073 -1068 -1071 0
-64 -1073 1068 0
-64 -1073 1072 0
-64 1073 -1068 -1072 0
-65 -1073 1068 0
-65 1073 -1068 0
-66 -1073 1068 0
-66 1073 -1068 0
-67 -1073 1068 0
-67 1073 -1068 0
-68 -1073 1068 0
-68 1073 -1068 0
-69 -1073 1068 0
-69 1073 -1068 0
-70 -1073 1068 0
-70 1073 -1068 0
-77 -1073 1068 0
-77 1073 -1068 0
-61 -1069 1074 0
-61 -1068 1074 0
-61 -1074 1069 1068 0
-62 -1074 1069 0
-62 1074 -1069 0
-63 -1074 1069 0
-63 1074 -1069 0
-64 -1074 1069 0
-64 1074 -1069 0
-65 -1074 1069 0
-65 -1074 1070 0
-65 1074 -1069 -1070 0
-66 -1074 1069 0
-66 -1074 1071 0
-66 1074 -1069 -1071 0
-67 -1074 1069 0
-67 -1074 1072 0
-67 1074 -1069 -1072 0
-68 -1074 1069 0
-68 1074 -1069 0
-69 -1074 1069 0
-69 1074 -1069 0
-70 -1074 1069 0
-70 1074 -1069 0
-77 -1074 1069 0
-77 1074 -1069 0
-61 -1075 1070 0
-61 1075 -1070 0
-62 -1070 1075 0
-62 -1068 1075 0
-62 -1075 1070 1068 0
-63 -1075 1070 0
-63 1075 -1070 0
-64 -1075 1070 0
-64 1075 -1070 0
-65 -1070 1075 0
-65 -1069 1075 0
-65 -1075 1070 1069 0
-66 -1075 1070 0
-66 1075 -1070 0
-67 -1075 1070 0
-67 1075 -1070 0
-68 -1075 1070 0
-68 -1075 1071 0
-68 1075 -1070 -1071 0
-69 -1075 1070 0
-69 -1075 1072 0
-69 1075 -1070 -1072 0
-70 -1075 1070 0
-70 1075 -1070 0
-77 -1075 1070 0
-77 1075 -1070 0
-61 -1076 1071 0
-61 1076 -1071 0
-62 -1076 1071 0
-62 1076 -1071 0
-63 -1071 1076 0
-63 -1068 1076 0
-63 -1076 1071 1068 0
-64 -1076 1071 0
-64 1076 -1071 0
-65 -1076 1071 0
-65 1076 -1071 0
-66 -1071 1076 0
-66 -1069 1076 0
-66 -1076 1071 1069 0
-67 -1076 1071 0
-67 1076 -1071 0
-68 -1071 1076 0
-68 -1070 1076 0
-68 -1076 1071 1070 0
-69 -1076 1071 0
-69 1076 -1071 0
-70 -1076 1071 0
-70 -1076 1072 0
-70 1076 -1071 -1072 0
-77 -1076 1071 0
-77 1076 -1071 0
-61 -1077 1072 0
-61 1077 -1072 0
-62 -1077 1072 0
-62 1077 -1072 0
-63 -1077 1072 0
-63 1077 -1072 0
-64 -1072 1077 0
-64 -1068 1077 0
-64 -1077 1072 1068 0
-65 -1077 1072 0
-65 1077 -1072 0
-66 -1077 1072 0
-66 1077 -1072 0
-67 -1072 1077 0
-67 -1069 1077 0
-67 -1077 1072 1069 0
-68 -1077 1072 0
-68 1077 -1072 0
-69 -1072 1077 0
-69 -1070 1077 0
-69 -1077 1072 1070 0
-70 -1072 1077 0
-70 -1071 1077 0
-70 -1077 1072 1071 0
-77 -1077 1072 0
-77 1077 -1072 0
1078 0
-1 -1083 1078 0
-1 -1083 1079 0
-1 1083 -1078 -1079 0
-2 -1083 1078 0
-2 -1083 1080 0
-2 1083 -1078 -1080 0
-3 -1083 1078 0
-3 -1083 1081 0
-3 1083 -1078 -1081 0
-4 -1083 1078 0
-4 -1083 1082 0
-4 1083 -1078 -1082 0
-5 -1083 1078 0
-5 1083 -1078 0
-6 -1083 1078 0
-6 1083 -1078 0
-7 -1083 1078 0
-7 1083 -1078 0
-8 -1083 1078 0
-8 1083 -1078 0
-9 -1083 1078 0
-9 1083 -1078 0
-10 -1083 1078 0
-10 1083 -1078 0
-71 -1083 1078 0
-71 1083 -1078 0
1079 0
-1 -1079 1084 0
-1 -1078 1084 0
-1 -1084 1079 1078 0
-2 -1084 1079 0
-2 1084 -1079 0
-3 -1084 1079 0
-3 1084 -1079 0
-4 -1084 1079 0
-4 1084 -1079 0
-5 -1084 1079 0
-5 -1084 1080 0
-5 1084 -1079 -1080 0
-6 -1084 1079 0
-6 -1084 1081 0
-6 1084 -1079 -1081 0
-7 -1084 1079 0
-7 -1084 1082 0
-7 1084 -1079 -1082 0
-8 -1084 1079 0
-8 1084 -1079 0
-9 -1084 1079 0
-9 1084 -1079 0
-10 -1084 1079 0
-10 1084 -1079 0
-71 -1084 1079 0
-71 1084 -1079 0
1080 0
-1 -1085 1080 0
-1 1085 -1080 0
-2 -1080 1085 0
-2 -1078 1085 0
-2 -1085 1080 1078 0
-3 -1085 1080 0
-3 1085 -1080 0
-4 -1085 1080 0
-4 1085 -1080 0
-5 -1080 1085 0
-5 -1079 1085 0
-5 -1085 1080 1079 0
-6 -1085 1080 0
-6 1085 -1080 0
-7 -1085 1080 0
-7 1085 -1080 0
-8 -1085 1080 0
-8 -1085 1081 0
-8 1085 -1080 -1081 0
-9 -1085 1080 0
-9 -1085 1082 0
-9 1085 -1080 -1082 0
-10 -1085 1080 0
-10 1085 -1080 0
-71 -1085 1080 0
-71 1085 -1080 0
1081 0
-1 -1086 1081 0
-1 1086 -1081 0
-2 -1086 1081 0
-2 1086 -1081 0
-3 -1081 1086 0
-3 -1078 1086 0
-3 -1086 1081 1078 0
-4 -1086 1081 0
-4 1086 -1081 0
-5 -1086 1081 0
-5 1086 -1081 0
-6 -1081 1086 0
-6 -1079 1086 0
-6 -1086 1081 1079 0
-7 -1086 1081 0
-7 1086 -1081 0
-8 -1081 1086 0
-8 -1080 1086 0
-8 -1086 1081 1080 0
-9 -1086 1081 0
-9 1086 -1081 0
-10 -1086 1081 0
-10 -1086 1082 0
-10 1086 -1081 -1082 0
-71 -1086 1081 0
-71 1086 -1081 0
-1082 0
-1 -1087 1082 0
-1 1087 -1082 0
-2 -1087 1082 0
-2 1087 -1082 0
-3 -1087 1082 0
-3 1087 -1082 0
-4 -1082 1087 0
-4 -1078 1087 0
-4 -1087 1082 1078 0
-5 -1087 1082 0
-5 1087 -1082 0
-6 -1087 1082 0
-6 1087 -1082 0
-7 -1082 1087 0
-7 -1079 1087 0
-7 -1087 1082 1079 0
-8 -1087 1082 0
-8 1087 -1082 0
-9 -1082 1087 0
-9 -1080 1087 0
-9 -1087 1082 1080 0
-10 -1082 1087 0
-10 -1081 1087 0
-10 -1087 1082 1081 0
-71 -1087 1082 0
-71 1087 -1082 0
-11 -1088 1083 0
-11 -1088 1084 0
-11 1088 -1083 -1084 0
-12 -1088 1083 0
-12 -1088 1085 0
-12 1088 -1083 -1085 0
-13 -1088 1083 0
-13 -1088 1086 0
-13 1088 -1083 -1086 0
-14 -1088 1083 0
-14 -1088 1087 0
-14 1088 -1083 -1087 0
-15 -1088 1083 0
-15 1088 -1083 0
-16 -1088 1083 0
-16 1088 -1083 0
-17 -1088 1083 0
-17 1088 -1083 0
-18 -1088 1083 0
-18 1088 -1083 0
-19 -1088 1083 0
-19 1088 -1083 0
-20 -1088 1083 0
-20 1088 -1083 0
-72 -1088 1083 0
-72 1088 -1083 0
-11 -1084 1089 0
-11 -1083 1089 0
-11 -1089 1084 1083 0
-12 -1089 1084 0
-12 1089 -1084 0
-13 -1089 1084 0
-13 1089 -1084 0
-14 -1089 1084 0
-14 1089 -1084 0
-15 -1089 1084 0
-15 -1089 1085 0
-15 1089 -1084 -1085 0
-16 -1089 1084 0
-16 -1089 1086 0
-16 1089 -1084 -1086 0
-17 -1089 1084 0
-17 -1089 1087 0
-17 1089 -1084 -1087 0
-18 -1089 1084 0
-18 1089 -1084 0
-19 -1089 1084 0
-19 1089 -1084 0
-20 -1089 1084 0
-20 1089 -1084 0
-72 -1089 1084 0
-72 1089 -1084 0
-11 -1090 1085 0
-11 1090 -1085 0
-12 -1085 1090 0
-12 -1083 1090 0
-12 -1090 1085 1083 0
-13 -1090 1085 0
-13 1090 -1085 0
-14 -1090 1085 0
-14 1090 -1085 0
-15 -1085 1090 0
-15 -1084 1090 0
-15 -1090 1085 1084 0
-16 -1090 1085 0
-16 1090 -1085 0
-17 -1090 1085 0
-17 1090 -1085 0
-18 -1090 1085 0
-18 -1090 1086 0
-18 1090 -1085 -1086 0
-19 -1090 1085 0
-19 -1090 1087 0
-19 1090 -1085 -1087 0
-20 -1090 1085 0
-20 1090 -1085 0
-72 -1090 1085 0
-72 1090 -1085 0
-11 -1091 1086 0
-11 1091 -1086 0
-12 -1091 1086 0
-12 1091 -1086 0
-13 -1086 1091 0
-13 -1083 1091 0
-13 -1091 1086 1083 0
-14 -1091 1086 0
-14 1091 -1086 0
-15 -1091 1086 0
-15 1091 -1086 0
-16 -1086 1091 0
-16 -1084 1091 0
-16 -1091 1086 1084 0
-17 -1091 1086 0
-17 1091 -1086 0
-18 -1086 1091 0
-18 -1085 1091 0
-18 -1091 1086 1085 0
-19 -1091 1086 0
-19 1091 -1086 0
-20 -1091 1086 0
-20 -1091 1087 0
-20 1091 -1086 -1087 0
-72 -1091 1086 0
-72 1091 -1086 0
-11 -1092 1087 0
-11 1092 -1087 0
-12 -1092 1087 0
-12 1092 -1087 0
-13 -1092 1087 0
-13 1092 -1087 0
-14 -1087 1092 0
-14 -1083 1092 0
-14 -1092 1087 1083 0
-15 -1092 1087 0
-15 1092 -1087 0
-16 -1092 1087 0
-16 1092 -1087 0
-17 -1087 1092 0
-17 -1084 1092 0
-17 -1092 1087 1084 0
-18 -1092 1087 0
-18 1092 -1087 0
-19 -1087 1092 0
-19 -1085 1092 0
-19 -1092 1087 1085 0
-20 -1087 1092 0
-20 -1086 1092 0
-20 -1092 1087 1086 0
-72 -1092 1087 0
-72 1092 -1087 0
-21 -1093 1088 0
-21 -1093 1089 0
-21 1093 -1088 -1089 0
-22 -1093 1088 0
-22 -1093 1090 0
-22 1093 -1088 -1090 0
-23 -1093 1088 0
-23 -1093 1091 0
-23 1093 -1088 -1091 0
-24 -1093 1088 0
-24 -1093 1092 0
-24 1093 -1088 -1092 0
-25 -1093 1088 0
-25 1093 -1088 0
-26 -1093 1088 0
-26 1093 -1088 0
-27 -1093 1088 0
-27 1093 -1088 0
-28 -1093 1088 0
-28 1093 -1088 0
-29 -1093 1088 0
-29 1093 -1088 0
-30 -1093 1088 0
-30 1093 -1088 0
-73 -1093 1088 0
-73 1093 -1088 0
-21 -1089 1094 0
-21 -1088 1094 0
-21 -1094 1089 1088 0
-22 -1094 1089 0
-22 1094 -1089 0
-23 -1094 1089 0
-23 1094 -1089 0
-24 -1094 1089 0
-24 1094 -1089 0
-25 -1094 1089 0
-25 -1094 1090 0
-25 1094 -1089 -1090 0
-26 -1094 1089 0
-26 -1094 1091 0
-26 1094 -1089 -1091 0
-27 -1094 1089 0
-27 -1094 1092 0
-27 1094 -1089 -1092 0
-28 -1094 1089 0
-28 1094 -1089 0
-29 -1094 1089 0
-29 1094 -1089 0
-30 -1094 1089 0
-30 1094 -1089 0
-73 -1094 1089 0
-73 1094 -1089 0
-21 -1095 1090 0
-21 1095 -1090 0
-22 -1090 1095 0
-22 -1088 1095 0
-22 -1095 1090 1088 0
-23 -1095 1090 0
-23 1095 -1090 0
-24 -1095 1090 0
-24 1095 -1090 0
-25 -1090 1095 0
-25 -1089 1095 0
-25 -1095 1090 1089 0
-26 -1095 1090 0
-26 1095 -1090 0
-27 -1095 1090 0
-27 1095 -1090 0
-28 -1095 1090 0
-28 -1095 1091 0
-28 1095 -1090 -1091 0
-29 -1095 1090 0
-29 -1095 1092 0
-29 1095 -1090 -1092 0
-30 -1095 1090 0
-30 1095 -1090 0
-73 -1095 1090 0
-73 1095 -1090 0
-21 -1096 1091 0
-21 1096 -1091 0
-22 -1096 1091 0
-22 1096 -1091 0
-23 -1091 1096 0
-23 -1088 1096 0
-23 -1096 1091 1088 0
-24 -1096 1091 0
-24 1096 -1091 0
-25 -1096 1091 0
-25 1096 -1091 0
-26 -1091 1096 0
-26 -1089 1096 0
-26 -1096 1091 1089 0
-27 -1096 1091 0
-27 1096 -1091 0
-28 -1091 1096 0
-28 -1090 1096 0
-28 -1096 1091 1090 0
-29 -1096 1091 0
-29 1096 -1091 0
-30 -1096 1091 0
-30 -1096 1092 0
-30 1096 -1091 -1092 0
-73 -1096 1091 0
-73 1096 -1091 0
-21 -1097 1092 0
-21 1097 -1092 0
-22 -1097 1092 0
-22 1097 -1092 0
-23 -1097 1092 0
-23 1097 -1092 0
-24 -1092 1097 0
-24 -1088 1097 0
-24 -1097 1092 1088 0
-25 -1097 1092 0
-25 1097 -1092 0
-26 -1097 1092 0
-26 1097 -1092 0
-27 -1092 1097 0
-27 -1089 1097 0
-27 -1097 1092 1089 0
-28 -1097 1092 0
-28 1097 -1092 0
-29 -1092 1097 0
-29 -1090 1097 0
-29 -1097 1092 1090 0
-30 -1092 1097 0
-30 -1091 1097 0
-30 -1097 1092 1091 0
-73 -1097 1092 0
-73 1097 -1092 0
-31 -1098 1093 0
-31 -1098 1094 0
-31 1098 -1093 -1094 0
-32 -1098 1093 0
-32 -1098 1095 0
-32 1098 -1093 -1095 0
-33 -1098 1093 0
-33 -1098 1096 0
-33 1098 -1093 -1096 0
-34 -1098 1093 0
-34 -1098 1097 0
-34 1098 -1093 -1097 0
-35 -1098 1093 0
-35 1098 -1093 0
-36 -1098 1093 0
-36 1098 -1093 0
-37 -1098 1093 0
-37 1098 -1093 0
-38 -1098 1093 0
-38 1098 -1093 0
-39 -1098 1093 0
-39 1098 -1093 0
-40 -1098 1093 0
-40 1098 -1093 0
-74 -1098 1093 0
-74 1098 -1093 0
-31 -1094 1099 0
-31 -1093 1099 0
-31 -1099 1094 1093 0
-32 -1099 1094 0
-32 1099 -1094 0
-33 -1099 1094 0
-33 1099 -1094 0
-34 -1099 1094 0
-34 1099 -1094 0
-35 -1099 1094 0
-35 -1099 1095 0
-35 1099 -1094 -1095 0
-36 -1099 1094 0
-36 -1099 1096 0
-36 1099 -1094 -1096 0
-37 -1099 1094 0
-37 -1099 1097 0
-37 1099 -1094 -1097 0
-38 -1099 1094 0
-38 1099 -1094 0
-39 -1099 1094 0
-39 1099 -1094 0
-40 -1099 1094 0
-40 1099 -1094 0
-74 -1099 1094 0
-74 1099 -1094 0
-31 -1100 1095 0
-31 1100 -1095 0
-32 -1095 1100 0
-32 -1093 1100 0
-32 -1100 1095 1093 0
-33 -1100 1095 0
-33 1100 -1095 0
-34 -1100 1095 0
-34 1100 -1095 0
-35 -1095 1100 0
-35 -1094 1100 0
-35 -1100 1095 1094 0
-36 -1100 1095 0
-36 1100 -1095 0
-37 -1100 1095 0
-37 1100 -1095 0
-38 -1100 1095 0
-38 -1100 1096 0
-38 1100 -1095 -1096 0
-39 -1100 1095 0
-39 -1100 1097 0
-39 1100 -1095 -1097 0
-40 -1100 1095 0
-40 1100 -1095 0
-74 -1100 1095 0
-74 1100 -1095 0
-31 -1101 1096 0
-31 1101 -1096 0
-32 -1101 1096 0
-32 1101 -1096 0
-33 -1096 1101 0
-33 -1093 1101 0
-33 -1101 1096 1093 0
-34 -1101 1096 0
-34 1101 -1096 0
-35 -1101 1096 0
-35 1101 -1096 0
-36 -1096 1101 0
-36 -1094 1101 0
-36 -1101 1096 1094 0
-37 -1101 1096 0
-37 1101 -1096 0
-38 -1096 1101 0
-38 -1095 1101 0
-38 -1101 1096 1095 0
-39 -1101 1096 0
-39 1101 -1096 0
-40 -1101 1096 0
-40 -1101 1097 0
-40 1101 -1096 -1097 0
-74 -1101 1096 0
-74 1101 -1096 0
-31 -1102 1097 0
-31 1102 -1097 0
-32 -1102 1097 0
-32 1102 -1097 0
-33 -1102 1097 0
-33 1102 -1097 0
-34 -1097 1102 0
-34 -1093 1102 0
-34 -1102 1097 1093 0
-35 -1102 1097 0
-35 1102 -1097 0
-36 -1102 1097 0
-36 1102 -1097 0
-37 -1097 1102 0
-37 -1094 1102 0
-37 -1102 1097 1094 0
-38 -1102 1097 0
-38 1102 -1097 0
-39 -1097 1102 0
-39 -1095 1102 0
-39 -1102 1097 1095 0
-40 -1097 1102 0
-40 -1096 1102 0
-40 -1102 1097 1096 0
-74 -1102 1097 0
-74 1102 -1097 0
-41 -1103 1098 0
-41 -1103 1099 0
-41 1103 -1098 -1099 0
-42 -1103 1098 0
-42 -1103 1100 0
-42 1103 -1098 -1100 0
-43 -1103 1098 0
-43 -1103 1101 0
-43 1103 -1098 -1101 0
-44 -1103 1098 0
-44 -1103 1102 0
-44 1103 -1098 -1102 0
-45 -1103 1098 0
-45 1103 -1098 0
-46 -1103 1098 0
-46 1103 -1098 0
-47 -1103 1098 0
-47 1103 -1098 0
-48 -1103 1098 0
-48 1103 -1098 0
-49 -1103 1098 0
-49 1103 -1098 0
-50 -1103 1098 0
-50 1103 -1098 0
-75 -1103 1098 0
-75 1103 -1098 0
-41 -1099 1104 0
-41 -1098 1104 0
-41 -1104 1099 1098 0
-42 -1104 1099 0
-42 1104 -1099 0
-43 -1104 1099 0
-43 1104 -1099 0
-44 -1104 1099 0
-44 1104 -1099 0
-45 -1104 1099 0
-45 -1104 1100 0
-45 1104 -1099 -1100 0
-46 -1104 1099 0
-46 -1104 1101 0
-46 1104 -1099 -1101 0
-47 -1104 1099 0
-47 -1104 1102 0
-47 1104 -1099 -1102 0
-48 -1104 1099 0
-48 1104 -1099 0
-49 -1104 1099 0
-49 1104 -1099 0
-50 -1104 1099 0
-50 1104 -1099 0
-75 -1104 1099 0
-75 1104 -1099 0
-41 -1105 1100 0
-41 1105 -1100 0
-42 -1100 1105 0
-42 -1098 1105 0
-42 -1105 1100 1098 0
-43 -1105 1100 0
-43 1105 -1100 0
-44 -1105 1100 0
-44 1105 -1100 0
-45 -1100 1105 0
-45 -1099 1105 0
-45 -1105 1100 1099 0
-46 -1105 1100 0
-46 1105 -1100 0
-47 -1105 1100 0
-47 1105 -1100 0
-48 -1105 1100 0
-48 -1105 1101 0
-48 1105 -1100 -1101 0
-49 -1105 1100 0
-49 -1105 1102 0
-49 1105 -1100 -1102 0
-50 -1105 1100 0
-50 1105 -1100 0
-75 -1105 1100 0
-75 1105 -1100 0
-41 -1106 1101 0
-41 1106 -1101 0
-42 -1106 1101 0
-42 1106 -1101 0
-43 -1101 1106 0
-43 -1098 1106 0
-43 -1106 1101 1098 0
-44 -1106 1101 0
-44 1106 -1101 0
-45 -1106 1101 0
-45 1106 -1101 0
-46 -1101 1106 0
-46 -1099 1106 0
-46 -1106 1101 1099 0
-47 -1106 1101 0
-47 1106 -1101 0
-48 -1101 1106 0
-48 -1100 1106 0
-48 -1106 1101 1100 0
-49 -1106 1101 0
-49 1106 -1101 0
-50 -1106 1101 0
-50 -1106 1102 0
-50 1106 -1101 -1102 0
-75 -1106 1101 0
-75 1106 -1101 0
-41 -1107 1102 0
-41 1107 -1102 0
-42 -1107 1102 0
-42 1107 -1102 0
-43 -1107 1102 0
-43 1107 -1102 0
-44 -1102 1107 0
-44 -1098 1107 0
-44 -1107 1102 1098 0
-45 -1107 1102 0
-45 1107 -1102 0
-46 -1107 1102 0
-46 1107 -1102 0
-47 -1102 1107 0
-47 -1099 1107 0
-47 -1107 1102 1099 0
-48 -1107 1102 0
-48 1107 -1102 0
-49 -1102 1107 0
-49 -1100 1107 0
-49 -1107 1102 1100 0
-50 -1102 1107 0
-50 -1101 1107 0
-50 -1107 1102 1101 0
-75 -1107 1102 0
-75 1107 -1102 0
-51 -1108 1103 0
-51 -1108 1104 0
-51 1108 -1103 -1104 0
-52 -1108 1103 0
-52 -1108 1105 0
-52 1108 -1103 -1105 0
-53 -1108 1103 0
-53 -1108 1106 0
-53 1108 -1103 -1106 0
-54 -1108 1103 0
-54 -1108 1107 0
-54 1108 -1103 -1107 0
-55 -1108 1103 0
-55 1108 -1103 0
-56 -1108 1103 0
-56 1108 -1103 0
-57 -1108 1103 0
-57 1108 -1103 0
-58 -1108 1103 0
-58 1108 -1103 0
-59 -1108 1103 0
-59 1108 -1103 0
-60 -1108 1103 0
-60 1108 -1103 0
-76 -1108 1103 0
-76 1108 -1103 0
-51 -1104 1109 0
-51 -1103 1109 0
-51 -1109 1104 1103 0
-52 -1109 1104 0
-52 1109 -1104 0
-53 -1109 1104 0
-53 1109 -1104 0
-54 -1109 1104 0
-54 1109 -1104 0
-55 -1109 1104 0
-55 -1109 1105 0
-55 1109 -1104 -1105 0
-56 -1109 1104 0
-56 -1109 1106 0
-56 1109 -1104 -1106 0
-57 -1109 1104 0
-57 -1109 1107 0
-57 1109 -1104 -1107 0
-58 -1109 1104 0
-58 1109 -1104 0
-59 -1109 1104 0
-59 1109 -1104 0
-60 -1109 1104 0
-60 1109 -1104 0
-76 -1109 1104 0
-76 1109 -1104 0
-51 -1110 1105 0
-51 1110 -1105 0
-52 -1105 1110 0
-52 -1103 1110 0
-52 -1110 1105 1103 0
-53 -1110 1105 0
-53 1110 -1105 0
-54 -1110 1105 0
-54 1110 -1105 0
-55 -1105 1110 0
-55 -1104 1110 0
-55 -1110 1105 1104 0
-56 -1110 1105 0
-56 1110 -1105 0
-57 -1110 1105 0
-57 1110 -1105 0
-58 -1110 1105 0
-58 -1110 1106 0
-58 1110 -1105 -1106 0
-59 -1110 1105 0
-59 -1110 1107 0
-59 1110 -1105 -1107 0
-60 -1110 1105 0
-60 1110 -1105 0
-76 -1110 1105 0
-76 1110 -1105 0
-51 -1111 1106 0
-51 1111 -1106 0
-52 -1111 1106 0
-52 1111 -1106 0
-53 -1106 1111 0
-53 -1103 1111 0
-53 -1111 1106 1103 0
-54 -1111 1106 0
-54 1111 -1106 0
-55 -1111 1106 0
-55 1111 -1106 0
-56 -1106 1111 0
-56 -1104 1111 0
-56 -1111 1106 1104 0
-57 -1111 1106 0
-57 1111 -1106 0
-58 -1106 1111 0
-58 -1105 1111 0
-58 -1111 1106 1105 0
-59 -1111 1106 0
-59 1111 -1106 0
-60 -1111 1106 0
-60 -1111 1107 0
-60 1111 -1106 -1107 0
-76 -1111 1106 0
-76 1111 -1106 0
-51 -1112 1107 0
-51 1112 -1107 0
-52 -1112 1107 0
-52 1112 -1107 0
-53 -1112 1107 0
-53 1112 -1107 0
-54 -1107 1112 0
-54 -1103 1112 0
-54 -1112 1107 1103 0
-55 -1112 1107 0
-55 1112 -1107 0
-56 -1112 1107 0
-56 1112 -1107 0
-57 -1107 1112 0
-57 -1104 1112 0
-57 -1112 1107 1104 0
-58 -1112 1107 0
-58 1112 -1107 0
-59 -1107 1112 0
-59 -1105 1112 0
-59 -1112 1107 1105 0
-60 -1107 1112 0
-60 -1106 1112 0
-60 -1112 1107 1106 0
-76 -1112 1107 0
-76 1112 -1107 0
-61 -1113 1108 0
-61 -1113 1109 0
-61 1113 -1108 -1109 0
-62 -1113 1108 0
-62 -1113 1110 0
-62 1113 -1108 -1110 0
-63 -1113 1108 0
-63 -1113 1111 0
-63 1113 -1108 -1111 0
-64 -1113 1108 0
-64 -1113 1112 0
-64 1113 -1108 -1112 0
-65 -1113 1108 0
-65 1113 -1108 0
-66 -1113 1108 0
-66 1113 -1108 0
-67 -1113 1108 0
-67 1113 -1108 0
-68 -1113 1108 0
-68 1113 -1108 0
-69 -1113 1108 0
-69 1113 -1108 0
-70 -1113 1108 0
-70 1113 -1108 0
-77 -1113 1108 0
-77 1113 -1108 0
-61 -1109 1114 0
-61 -1108 1114 0
-61 -1114 1109 1108 0
-62 -1114 1109 0
-62 1114 -1109 0
-63 -1114 1109 0
-63 1114 -1109 0
-64 -1114 1109 0
-64 1114 -1109 0
-65 -1114 1109 0
-65 -1114 1110 0
-65 1114 -1109 -1110 0
-66 -1114 1109 0
-66 -1114 1111 0
-66 1114 -1109 -1111 0
-67 -1114 1109 0
-67 -1114 1112 0
-67 1114 -1109 -1112 0
-68 -1114 1109 0
-68 1114 -1109 0
-69 -1114 1109 0
-69 1114 -1109 0
-70 -1114 1109 0
-70 1114 -1109 0
-77 -1114 1109 0
-77 1114 -1109 0
-61 -1115 1110 0
-61 1115 -1110 0
-62 -1110 1115 0
-62 -1108 1115 0
-62 -1115 1110 1108 0
-63 -1115 1110 0
-63 1115 -1110 0
-64 -1115 1110 0
-64 1115 -1110 0
-65 -1110 1115 0
-65 -1109 1115 0
-65 -1115 1110 1109 0
-66 -1115 1110 0
-66 1115 -1110 0
-67 -1115 1110 0
-67 1115 -1110 0
-68 -1115 1110 0
-68 -1115 1111 0
-68 1115 -1110 -1111 0
-69 -1115 1110 0
-69 -1115 1112 0
-69 1115 -1110 -1112 0
-70 -1115 1110 0
-70 1115 -1110 0
-77 -1115 1110 0
-77 1115 -1110 0
-61 -1116 1111 0
-61 1116 -1111 0
-62 -1116 1111 0
-62 1116 -1111 0
-63 -1111 1116 0
-63 -1108 1116 0
-63 -1116 1111 1108 0
-64 -1116 1111 0
-64 1116 -1111 0
-65 -1116 1111 0
-65 1116 -1111 0
-66 -1111 1116 0
-66 -1109 1116 0
-66 -1116 1111 1109 0
-67 -1116 1111 0
-67 1116 -1111 0
-68 -1111 1116 0
-68 -1110 1116 0
-68 -1116 1111 1110 0
-69 -1116 1111 0
-69 1116 -1111 0
-70 -1116 1111 0
-70 -1116 1112 0
-70 1116 -1111 -1112 0
-77 -1116 1111 0
-77 1116 -1111 0
-61 -1117 1112 0
-61 1117 -1112 0
-62 -1117 1112 0
-62 1117 -1112 0
-63 -1117 1112 0
-63 1117 -1112 0
-64 -1112 1117 0
-64 -1108 1117 0
-64 -1117 1112 1108 0
-65 -1117 1112 0
-65 1117 -1112 0
-66 -1117 1112 0
-66 1117 -1112 0
-67 -1112 1117 0
-67 -1109 1117 0
-67 -1117 1112 1109 0
-68 -1117 1112 0
-68 1117 -1112 0
-69 -1112 1117 0
-69 -1110 1117 0
-69 -1117 1112 1110 0
-70 -1112 1117 0
-70 -1111 1117 0
-70 -1117 1112 1111 0
-77 -1117 1112 0
-77 1117 -1112 0
-115 0
-155 0
-195 0
-235 0
-275 0
-315 0
-355 0
395 0
-435 0
475 0
515 0
-555 0
-595 0
-635 0
675 0
-715 0
755 0
795 0
835 0
-875 0
915 0
955 0
995 0
1035 0
1075 0
1115 0
