p cnf 415 8288
1 2 3 4 5 6 7 8 9 10 51 0
-1 -2 0
-1 -3 0
-1 -4 0
-1 -5 0
-1 -6 0
-1 -7 0
-1 -8 0
-1 -9 0
-1 -10 0
-1 -51 0
-2 -3 0
-2 -4 0
-2 -5 0
-2 -6 0
-2 -7 0
-2 -8 0
-2 -9 0
-2 -10 0
-2 -51 0
-3 -4 0
-3 -5 0
-3 -6 0
-3 -7 0
-3 -8 0
-3 -9 0
-3 -10 0
-3 -51 0
-4 -5 0
-4 -6 0
-4 -7 0
-4 -8 0
-4 -9 0
-4 -10 0
-4 -51 0
-5 -6 0
-5 -7 0
-5 -8 0
-5 -9 0
-5 -10 0
-5 -51 0
-6 -7 0
-6 -8 0
-6 -9 0
-6 -10 0
-6 -51 0
-7 -8 0
-7 -9 0
-7 -10 0
-7 -51 0
-8 -9 0
-8 -10 0
-8 -51 0
-9 -10 0
-9 -51 0
-10 -51 0
11 12 13 14 15 16 17 18 19 20 52 0
-11 -12 0
-11 -13 0
-11 -14 0
-11 -15 0
-11 -16 0
-11 -17 0
-11 -18 0
-11 -19 0
-11 -20 0
-11 -52 0
-12 -13 0
-12 -14 0
-12 -15 0
-12 -16 0
-12 -17 0
-12 -18 0
-12 -19 0
-12 -20 0
-12 -52 0
-13 -14 0
-13 -15 0
-13 -16 0
-13 -17 0
-13 -18 0
-13 -19 0
-13 -20 0
-13 -52 0
-14 -15 0
-14 -16 0
-14 -17 0
-14 -18 0
-14 -19 0
-14 -20 0
-14 -52 0
-15 -16 0
-15 -17 0
-15 -18 0
-15 -19 0
-15 -20 0
-15 -52 0
-16 -17 0
-16 -18 0
-16 -19 0
-16 -20 0
-16 -52 0
-17 -18 0
-17 -19 0
-17 -20 0
-17 -52 0
-18 -19 0
-18 -20 0
-18 -52 0
-19 -20 0
-19 -52 0
-20 -52 0
21 22 23 24 25 26 27 28 29 30 53 0
-21 -22 0
-21 -23 0
-21 -24 0
-21 -25 0
-21 -26 0
-21 -27 0
-21 -28 0
-21 -29 0
-21 -30 0
-21 -53 0
-22 -23 0
-22 -24 0
-22 -25 0
-22 -26 0
-22 -27 0
-22 -28 0
-22 -29 0
-22 -30 0
-22 -53 0
-23 -24 0
-23 -25 0
-23 -26 0
-23 -27 0
-23 -28 0
-23 -29 0
-23 -30 0
-23 -53 0
-24 -25 0
-24 -26 0
-24 -27 0
-24 -28 0
-24 -29 0
-24 -30 0
-24 -53 0
-25 -26 0
-25 -27 0
-25 -28 0
-25 -29 0
-25 -30 0
-25 -53 0
-26 -27 0
-26 -28 0
-26 -29 0
-26 -30 0
-26 -53 0
-27 -28 0
-27 -29 0
-27 -30 0
-27 -53 0
-28 -29 0
-28 -30 0
-28 -53 0
-29 -30 0
-29 -53 0
-30 -53 0
31 32 33 34 35 36 37 38 39 40 54 0
-31 -32 0
-31 -33 0
-31 -34 0
-31 -35 0
-31 -36 0
-31 -37 0
-31 -38 0
-31 -39 0
-31 -40 0
-31 -54 0
-32 -33 0
-32 -34 0
-32 -35 0
-32 -36 0
-32 -37 0
-32 -38 0
-32 -39 0
-32 -40 0
-32 -54 0
-33 -34 0
-33 -35 0
-33 -36 0
-33 -37 0
-33 -38 0
-33 -39 0
-33 -40 0
-33 -54 0
-34 -35 0
-34 -36 0
-34 -37 0
-34 -38 0
-34 -39 0
-34 -40 0
-34 -54 0
-35 -36 0
-35 -37 0
-35 -38 0
-35 -39 0
-35 -40 0
-35 -54 0
-36 -37 0
-36 -38 0
-36 -39 0
-36 -40 0
-36 -54 0
-37 -38 0
-37 -39 0
-37 -40 0
-37 -54 0
-38 -39 0
-38 -40 0
-38 -54 0
-39 -40 0
-39 -54 0
-40 -54 0
41 42 43 44 45 46 47 48 49 50 55 0
-41 -42 0
-41 -43 0
-41 -44 0
-41 -45 0
-41 -46 0
-41 -47 0
-41 -48 0
-41 -49 0
-41 -50 0
-41 -55 0
-42 -43 0
-42 -44 0
-42 -45 0
-42 -46 0
-42 -47 0
-42 -48 0
-42 -49 0
-42 -50 0
-42 -55 0
-43 -44 0
-43 -45 0
-43 -46 0
-43 -47 0
-43 -48 0
-43 -49 0
-43 -50 0
-43 -55 0
-44 -45 0
-44 -46 0
-44 -47 0
-44 -48 0
-44 -49 0
-44 -50 0
-44 -55 0
-45 -46 0
-45 -47 0
-45 -48 0
-45 -49 0
-45 -50 0
-45 -55 0
-46 -47 0
-46 -48 0
-46 -49 0
-46 -50 0
-46 -55 0
-47 -48 0
-47 -49 0
-47 -50 0
-47 -55 0
-48 -49 0
-48 -50 0
-48 -55 0
-49 -50 0
-49 -55 0
-50 -55 0
-1 -11 0
-2 -12 0
-3 -13 0
-4 -14 0
-5 -15 0
-6 -16 0
-7 -17 0
-8 -18 0
-9 -19 0
-10 -20 0
-11 -21 0
-12 -22 0
-13 -23 0
-14 -24 0
-15 -25 0
-16 -26 0
-17 -27 0
-18 -28 0
-19 -29 0
-20 -30 0
-21 -31 0
-22 -32 0
-23 -33 0
-24 -34 0
-25 -35 0
-26 -36 0
-27 -37 0
-28 -38 0
-29 -39 0
-30 -40 0
-31 -41 0
-32 -42 0
-33 -43 0
-34 -44 0
-35 -45 0
-36 -46 0
-37 -47 0
-38 -48 0
-39 -49 0
-40 -50 0
-5 -13 0
-5 -14 0
-6 -12 0
-6 -14 0
-7 -12 0
-7 -13 0
-8 -11 0
-8 -14 0
-8 -17 0
-9 -11 0
-9 -13 0
-9 -16 0
-10 -11 0
-10 -12 0
-10 -15 0
-15 -23 0
-15 -24 0
-16 -22 0
-16 -24 0
-17 -22 0
-17 -23 0
-18 -21 0
-18 -24 0
-18 -27 0
-19 -21 0
-19 -23 0
-19 -26 0
-20 -21 0
-20 -22 0
-20 -25 0
-25 -33 0
-25 -34 0
-26 -32 0
-26 -34 0
-27 -32 0
-27 -33 0
-28 -31 0
-28 -34 0
-28 -37 0
-29 -31 0
-29 -33 0
-29 -36 0
-30 -31 0
-30 -32 0
-30 -35 0
-35 -43 0
-35 -44 0
-36 -42 0
-36 -44 0
-37 -42 0
-37 -43 0
-38 -41 0
-38 -44 0
-38 -47 0
-39 -41 0
-39 -43 0
-39 -46 0
-40 -41 0
-40 -42 0
-40 -45 0
-56 0
-1 -61 56 0
-1 -61 57 0
-1 61 -56 -57 0
-2 -61 56 0
-2 -61 58 0
-2 61 -56 -58 0
-3 -61 56 0
-3 -61 59 0
-3 61 -56 -59 0
-4 -61 56 0
-4 -61 60 0
-4 61 -56 -60 0
-5 -61 56 0
-5 61 -56 0
-6 -61 56 0
-6 61 -56 0
-7 -61 56 0
-7 61 -56 0
-8 -61 56 0
-8 61 -56 0
-9 -61 56 0
-9 61 -56 0
-10 -61 56 0
-10 61 -56 0
-51 -61 56 0
-51 61 -56 0
-57 0
-1 -57 62 0
-1 -56 62 0
-1 -62 57 56 0
-2 -62 57 0
-2 62 -57 0
-3 -62 57 0
-3 62 -57 0
-4 -62 57 0
-4 62 -57 0
-5 -62 57 0
-5 -62 58 0
-5 62 -57 -58 0
-6 -62 57 0
-6 -62 59 0
-6 62 -57 -59 0
-7 -62 57 0
-7 -62 60 0
-7 62 -57 -60 0
-8 -62 57 0
-8 62 -57 0
-9 -62 57 0
-9 62 -57 0
-10 -62 57 0
-10 62 -57 0
-51 -62 57 0
-51 62 -57 0
-58 0
-1 -63 58 0
-1 63 -58 0
-2 -58 63 0
-2 -56 63 0
-2 -63 58 56 0
-3 -63 58 0
-3 63 -58 0
-4 -63 58 0
-4 63 -58 0
-5 -58 63 0
-5 -57 63 0
-5 -63 58 57 0
-6 -63 58 0
-6 63 -58 0
-7 -63 58 0
-7 63 -58 0
-8 -63 58 0
-8 -63 59 0
-8 63 -58 -59 0
-9 -63 58 0
-9 -63 60 0
-9 63 -58 -60 0
-10 -63 58 0
-10 63 -58 0
-51 -63 58 0
-51 63 -58 0
-59 0
-1 -64 59 0
-1 64 -59 0
-2 -64 59 0
-2 64 -59 0
-3 -59 64 0
-3 -56 64 0
-3 -64 59 56 0
-4 -64 59 0
-4 64 -59 0
-5 -64 59 0
-5 64 -59 0
-6 -59 64 0
-6 -57 64 0
-6 -64 59 57 0
-7 -64 59 0
-7 64 -59 0
-8 -59 64 0
-8 -58 64 0
-8 -64 59 58 0
-9 -64 59 0
-9 64 -59 0
-10 -64 59 0
-10 -64 60 0
-10 64 -59 -60 0
-51 -64 59 0
-51 64 -59 0
-60 0
-1 -65 60 0
-1 65 -60 0
-2 -65 60 0
-2 65 -60 0
-3 -65 60 0
-3 65 -60 0
-4 -60 65 0
-4 -56 65 0
-4 -65 60 56 0
-5 -65 60 0
-5 65 -60 0
-6 -65 60 0
-6 65 -60 0
-7 -60 65 0
-7 -57 65 0
-7 -65 60 57 0
-8 -65 60 0
-8 65 -60 0
-9 -60 65 0
-9 -58 65 0
-9 -65 60 58 0
-10 -60 65 0
-10 -59 65 0
-10 -65 60 59 0
-51 -65 60 0
-51 65 -60 0
-11 -66 61 0
-11 -66 62 0
-11 66 -61 -62 0
-12 -66 61 0
-12 -66 63 0
-12 66 -61 -63 0
-13 -66 61 0
-13 -66 64 0
-13 66 -61 -64 0
-14 -66 61 0
-14 -66 65 0
-14 66 -61 -65 0
-15 -66 61 0
-15 66 -61 0
-16 -66 61 0
-16 66 -61 0
-17 -66 61 0
-17 66 -61 0
-18 -66 61 0
-18 66 -61 0
-19 -66 61 0
-19 66 -61 0
-20 -66 61 0
-20 66 -61 0
-52 -66 61 0
-52 66 -61 0
-11 -62 67 0
-11 -61 67 0
-11 -67 62 61 0
-12 -67 62 0
-12 67 -62 0
-13 -67 62 0
-13 67 -62 0
-14 -67 62 0
-14 67 -62 0
-15 -67 62 0
-15 -67 63 0
-15 67 -62 -63 0
-16 -67 62 0
-16 -67 64 0
-16 67 -62 -64 0
-17 -67 62 0
-17 -67 65 0
-17 67 -62 -65 0
-18 -67 62 0
-18 67 -62 0
-19 -67 62 0
-19 67 -62 0
-20 -67 62 0
-20 67 -62 0
-52 -67 62 0
-52 67 -62 0
-11 -68 63 0
-11 68 -63 0
-12 -63 68 0
-12 -61 68 0
-12 -68 63 61 0
-13 -68 63 0
-13 68 -63 0
-14 -68 63 0
-14 68 -63 0
-15 -63 68 0
-15 -62 68 0
-15 -68 63 62 0
-16 -68 63 0
-16 68 -63 0
-17 -68 63 0
-17 68 -63 0
-18 -68 63 0
-18 -68 64 0
-18 68 -63 -64 0
-19 -68 63 0
-19 -68 65 0
-19 68 -63 -65 0
-20 -68 63 0
-20 68 -63 0
-52 -68 63 0
-52 68 -63 0
-11 -69 64 0
-11 69 -64 0
-12 -69 64 0
-12 69 -64 0
-13 -64 69 0
-13 -61 69 0
-13 -69 64 61 0
-14 -69 64 0
-14 69 -64 0
-15 -69 64 0
-15 69 -64 0
-16 -64 69 0
-16 -62 69 0
-16 -69 64 62 0
-17 -69 64 0
-17 69 -64 0
-18 -64 69 0
-18 -63 69 0
-18 -69 64 63 0
-19 -69 64 0
-19 69 -64 0
-20 -69 64 0
-20 -69 65 0
-20 69 -64 -65 0
-52 -69 64 0
-52 69 -64 0
-11 -70 65 0
-11 70 -65 0
-12 -70 65 0
-12 70 -65 0
-13 -70 65 0
-13 70 -65 0
-14 -65 70 0
-14 -61 70 0
-14 -70 65 61 0
-15 -70 65 0
-15 70 -65 0
-16 -70 65 0
-16 70 -65 0
-17 -65 70 0
-17 -62 70 0
-17 -70 65 62 0
-18 -70 65 0
-18 70 -65 0
-19 -65 70 0
-19 -63 70 0
-19 -70 65 63 0
-20 -65 70 0
-20 -64 70 0
-20 -70 65 64 0
-52 -70 65 0
-52 70 -65 0
-21 -71 66 0
-21 -71 67 0
-21 71 -66 -67 0
-22 -71 66 0
-22 -71 68 0
-22 71 -66 -68 0
-23 -71 66 0
-23 -71 69 0
-23 71 -66 -69 0
-24 -71 66 0
-24 -71 70 0
-24 71 -66 -70 0
-25 -71 66 0
-25 71 -66 0
-26 -71 66 0
-26 71 -66 0
-27 -71 66 0
-27 71 -66 0
-28 -71 66 0
-28 71 -66 0
-29 -71 66 0
-29 71 -66 0
-30 -71 66 0
-30 71 -66 0
-53 -71 66 0
-53 71 -66 0
-21 -67 72 0
-21 -66 72 0
-21 -72 67 66 0
-22 -72 67 0
-22 72 -67 0
-23 -72 67 0
-23 72 -67 0
-24 -72 67 0
-24 72 -67 0
-25 -72 67 0
-25 -72 68 0
-25 72 -67 -68 0
-26 -72 67 0
-26 -72 69 0
-26 72 -67 -69 0
-27 -72 67 0
-27 -72 70 0
-27 72 -67 -70 0
-28 -72 67 0
-28 72 -67 0
-29 -72 67 0
-29 72 -67 0
-30 -72 67 0
-30 72 -67 0
-53 -72 67 0
-53 72 -67 0
-21 -73 68 0
-21 73 -68 0
-22 -68 73 0
-22 -66 73 0
-22 -73 68 66 0
-23 -73 68 0
-23 73 -68 0
-24 -73 68 0
-24 73 -68 0
-25 -68 73 0
-25 -67 73 0
-25 -73 68 67 0
-26 -73 68 0
-26 73 -68 0
-27 -73 68 0
-27 73 -68 0
-28 -73 68 0
-28 -73 69 0
-28 73 -68 -69 0
-29 -73 68 0
-29 -73 70 0
-29 73 -68 -70 0
-30 -73 68 0
-30 73 -68 0
-53 -73 68 0
-53 73 -68 0
-21 -74 69 0
-21 74 -69 0
-22 -74 69 0
-22 74 -69 0
-23 -69 74 0
-23 -66 74 0
-23 -74 69 66 0
-24 -74 69 0
-24 74 -69 0
-25 -74 69 0
-25 74 -69 0
-26 -69 74 0
-26 -67 74 0
-26 -74 69 67 0
-27 -74 69 0
-27 74 -69 0
-28 -69 74 0
-28 -68 74 0
-28 -74 69 68 0
-29 -74 69 0
-29 74 -69 0
-30 -74 69 0
-30 -74 70 0
-30 74 -69 -70 0
-53 -74 69 0
-53 74 -69 0
-21 -75 70 0
-21 75 -70 0
-22 -75 70 0
-22 75 -70 0
-23 -75 70 0
-23 75 -70 0
-24 -70 75 0
-24 -66 75 0
-24 -75 70 66 0
-25 -75 70 0
-25 75 -70 0
-26 -75 70 0
-26 75 -70 0
-27 -70 75 0
-27 -67 75 0
-27 -75 70 67 0
-28 -75 70 0
-28 75 -70 0
-29 -70 75 0
-29 -68 75 0
-29 -75 70 68 0
-30 -70 75 0
-30 -69 75 0
-30 -75 70 69 0
-53 -75 70 0
-53 75 -70 0
-31 -76 71 0
-31 -76 72 0
-31 76 -71 -72 0
-32 -76 71 0
-32 -76 73 0
-32 76 -71 -73 0
-33 -76 71 0
-33 -76 74 0
-33 76 -71 -74 0
-34 -76 71 0
-34 -76 75 0
-34 76 -71 -75 0
-35 -76 71 0
-35 76 -71 0
-36 -76 71 0
-36 76 -71 0
-37 -76 71 0
-37 76 -71 0
-38 -76 71 0
-38 76 -71 0
-39 -76 71 0
-39 76 -71 0
-40 -76 71 0
-40 76 -71 0
-54 -76 71 0
-54 76 -71 0
-31 -72 77 0
-31 -71 77 0
-31 -77 72 71 0
-32 -77 72 0
-32 77 -72 0
-33 -77 72 0
-33 77 -72 0
-34 -77 72 0
-34 77 -72 0
-35 -77 72 0
-35 -77 73 0
-35 77 -72 -73 0
-36 -77 72 0
-36 -77 74 0
-36 77 -72 -74 0
-37 -77 72 0
-37 -77 75 0
-37 77 -72 -75 0
-38 -77 72 0
-38 77 -72 0
-39 -77 72 0
-39 77 -72 0
-40 -77 72 0
-40 77 -72 0
-54 -77 72 0
-54 77 -72 0
-31 -78 73 0
-31 78 -73 0
-32 -73 78 0
-32 -71 78 0
-32 -78 73 71 0
-33 -78 73 0
-33 78 -73 0
-34 -78 73 0
-34 78 -73 0
-35 -73 78 0
-35 -72 78 0
-35 -78 73 72 0
-36 -78 73 0
-36 78 -73 0
-37 -78 73 0
-37 78 -73 0
-38 -78 73 0
-38 -78 74 0
-38 78 -73 -74 0
-39 -78 73 0
-39 -78 75 0
-39 78 -73 -75 0
-40 -78 73 0
-40 78 -73 0
-54 -78 73 0
-54 78 -73 0
-31 -79 74 0
-31 79 -74 0
-32 -79 74 0
-32 79 -74 0
-33 -74 79 0
-33 -71 79 0
-33 -79 74 71 0
-34 -79 74 0
-34 79 -74 0
-35 -79 74 0
-35 79 -74 0
-36 -74 79 0
-36 -72 79 0
-36 -79 74 72 0
-37 -79 74 0
-37 79 -74 0
-38 -74 79 0
-38 -73 79 0
-38 -79 74 73 0
-39 -79 74 0
-39 79 -74 0
-40 -79 74 0
-40 -79 75 0
-40 79 -74 -75 0
-54 -79 74 0
-54 79 -74 0
-31 -80 75 0
-31 80 -75 0
-32 -80 75 0
-32 80 -75 0
-33 -80 75 0
-33 80 -75 0
-34 -75 80 0
-34 -71 80 0
-34 -80 75 71 0
-35 -80 75 0
-35 80 -75 0
-36 -80 75 0
-36 80 -75 0
-37 -75 80 0
-37 -72 80 0
-37 -80 75 72 0
-38 -80 75 0
-38 80 -75 0
-39 -75 80 0
-39 -73 80 0
-39 -80 75 73 0
-40 -75 80 0
-40 -74 80 0
-40 -80 75 74 0
-54 -80 75 0
-54 80 -75 0
-41 -81 76 0
-41 -81 77 0
-41 81 -76 -77 0
-42 -81 76 0
-42 -81 78 0
-42 81 -76 -78 0
-43 -81 76 0
-43 -81 79 0
-43 81 -76 -79 0
-44 -81 76 0
-44 -81 80 0
-44 81 -76 -80 0
-45 -81 76 0
-45 81 -76 0
-46 -81 76 0
-46 81 -76 0
-47 -81 76 0
-47 81 -76 0
-48 -81 76 0
-48 81 -76 0
-49 -81 76 0
-49 81 -76 0
-50 -81 76 0
-50 81 -76 0
-55 -81 76 0
-55 81 -76 0
-41 -77 82 0
-41 -76 82 0
-41 -82 77 76 0
-42 -82 77 0
-42 82 -77 0
-43 -82 77 0
-43 82 -77 0
-44 -82 77 0
-44 82 -77 0
-45 -82 77 0
-45 -82 78 0
-45 82 -77 -78 0
-46 -82 77 0
-46 -82 79 0
-46 82 -77 -79 0
-47 -82 77 0
-47 -82 80 0
-47 82 -77 -80 0
-48 -82 77 0
-48 82 -77 0
-49 -82 77 0
-49 82 -77 0
-50 -82 77 0
-50 82 -77 0
-55 -82 77 0
-55 82 -77 0
-41 -83 78 0
-41 83 -78 0
-42 -78 83 0
-42 -76 83 0
-42 -83 78 76 0
-43 -83 78 0
-43 83 -78 0
-44 -83 78 0
-44 83 -78 0
-45 -78 83 0
-45 -77 83 0
-45 -83 78 77 0
-46 -83 78 0
-46 83 -78 0
-47 -83 78 0
-47 83 -78 0
-48 -83 78 0
-48 -83 79 0
-48 83 -78 -79 0
-49 -83 78 0
-49 -83 80 0
-49 83 -78 -80 0
-50 -83 78 0
-50 83 -78 0
-55 -83 78 0
-55 83 -78 0
-41 -84 79 0
-41 84 -79 0
-42 -84 79 0
-42 84 -79 0
-43 -79 84 0
-43 -76 84 0
-43 -84 79 76 0
-44 -84 79 0
-44 84 -79 0
-45 -84 79 0
-45 84 -79 0
-46 -79 84 0
-46 -77 84 0
-46 -84 79 77 0
-47 -84 79 0
-47 84 -79 0
-48 -79 84 0
-48 -78 84 0
-48 -84 79 78 0
-49 -84 79 0
-49 84 -79 0
-50 -84 79 0
-50 -84 80 0
-50 84 -79 -80 0
-55 -84 79 0
-55 84 -79 0
-41 -85 80 0
-41 85 -80 0
-42 -85 80 0
-42 85 -80 0
-43 -85 80 0
-43 85 -80 0
-44 -80 85 0
-44 -76 85 0
-44 -85 80 76 0
-45 -85 80 0
-45 85 -80 0
-46 -85 80 0
-46 85 -80 0
-47 -80 85 0
-47 -77 85 0
-47 -85 80 77 0
-48 -85 80 0
-48 85 -80 0
-49 -80 85 0
-49 -78 85 0
-49 -85 80 78 0
-50 -80 85 0
-50 -79 85 0
-50 -85 80 79 0
-55 -85 80 0
-55 85 -80 0
-86 0
-1 -91 86 0
-1 -91 87 0
-1 91 -86 -87 0
-2 -91 86 0
-2 -91 88 0
-2 91 -86 -88 0
-3 -91 86 0
-3 -91 89 0
-3 91 -86 -89 0
-4 -91 86 0
-4 -91 90 0
-4 91 -86 -90 0
-5 -91 86 0
-5 91 -86 0
-6 -91 86 0
-6 91 -86 0
-7 -91 86 0
-7 91 -86 0
-8 -91 86 0
-8 91 -86 0
-9 -91 86 0
-9 91 -86 0
-10 -91 86 0
-10 91 -86 0
-51 -91 86 0
-51 91 -86 0
-87 0
-1 -87 92 0
-1 -86 92 0
-1 -92 87 86 0
-2 -92 87 0
-2 92 -87 0
-3 -92 87 0
-3 92 -87 0
-4 -92 87 0
-4 92 -87 0
-5 -92 87 0
-5 -92 88 0
-5 92 -87 -88 0
-6 -92 87 0
-6 -92 89 0
-6 92 -87 -89 0
-7 -92 87 0
-7 -92 90 0
-7 92 -87 -90 0
-8 -92 87 0
-8 92 -87 0
-9 -92 87 0
-9 92 -87 0
-10 -92 87 0
-10 92 -87 0
-51 -92 87 0
-51 92 -87 0
-88 0
-1 -93 88 0
-1 93 -88 0
-2 -88 93 0
-2 -86 93 0
-2 -93 88 86 0
-3 -93 88 0
-3 93 -88 0
-4 -93 88 0
-4 93 -88 0
-5 -88 93 0
-5 -87 93 0
-5 -93 88 87 0
-6 -93 88 0
-6 93 -88 0
-7 -93 88 0
-7 93 -88 0
-8 -93 88 0
-8 -93 89 0
-8 93 -88 -89 0
-9 -93 88 0
-9 -93 90 0
-9 93 -88 -90 0
-10 -93 88 0
-10 93 -88 0
-51 -93 88 0
-51 93 -88 0
-89 0
-1 -94 89 0
-1 94 -89 0
-2 -94 89 0
-2 94 -89 0
-3 -89 94 0
-3 -86 94 0
-3 -94 89 86 0
-4 -94 89 0
-4 94 -89 0
-5 -94 89 0
-5 94 -89 0
-6 -89 94 0
-6 -87 94 0
-6 -94 89 87 0
-7 -94 89 0
-7 94 -89 0
-8 -89 94 0
-8 -88 94 0
-8 -94 89 88 0
-9 -94 89 0
-9 94 -89 0
-10 -94 89 0
-10 -94 90 0
-10 94 -89 -90 0
-51 -94 89 0
-51 94 -89 0
90 0
-1 -95 90 0
-1 95 -90 0
-2 -95 90 0
-2 95 -90 0
-3 -95 90 0
-3 95 -90 0
-4 -90 95 0
-4 -86 95 0
-4 -95 90 86 0
-5 -95 90 0
-5 95 -90 0
-6 -95 90 0
-6 95 -90 0
-7 -90 95 0
-7 -87 95 0
-7 -95 90 87 0
-8 -95 90 0
-8 95 -90 0
-9 -90 95 0
-9 -88 95 0
-9 -95 90 88 0
-10 -90 95 0
-10 -89 95 0
-10 -95 90 89 0
-51 -95 90 0
-51 95 -90 0
-11 -96 91 0
-11 -96 92 0
-11 96 -91 -92 0
-12 -96 91 0
-12 -96 93 0
-12 96 -91 -93 0
-13 -96 91 0
-13 -96 94 0
-13 96 -91 -94 0
-14 -96 91 0
-14 -96 95 0
-14 96 -91 -95 0
-15 -96 91 0
-15 96 -91 0
-16 -96 91 0
-16 96 -91 0
-17 -96 91 0
-17 96 -91 0
-18 -96 91 0
-18 96 -91 0
-19 -96 91 0
-19 96 -91 0
-20 -96 91 0
-20 96 -91 0
-52 -96 91 0
-52 96 -91 0
-11 -92 97 0
-11 -91 97 0
-11 -97 92 91 0
-12 -97 92 0
-12 97 -92 0
-13 -97 92 0
-13 97 -92 0
-14 -97 92 0
-14 97 -92 0
-15 -97 92 0
-15 -97 93 0
-15 97 -92 -93 0
-16 -97 92 0
-16 -97 94 0
-16 97 -92 -94 0
-17 -97 92 0
-17 -97 95 0
-17 97 -92 -95 0
-18 -97 92 0
-18 97 -92 0
-19 -97 92 0
-19 97 -92 0
-20 -97 92 0
-20 97 -92 0
-52 -97 92 0
-52 97 -92 0
-11 -98 93 0
-11 98 -93 0
-12 -93 98 0
-12 -91 98 0
-12 -98 93 91 0
-13 -98 93 0
-13 98 -93 0
-14 -98 93 0
-14 98 -93 0
-15 -93 98 0
-15 -92 98 0
-15 -98 93 92 0
-16 -98 93 0
-16 98 -93 0
-17 -98 93 0
-17 98 -93 0
-18 -98 93 0
-18 -98 94 0
-18 98 -93 -94 0
-19 -98 93 0
-19 -98 95 0
-19 98 -93 -95 0
-20 -98 93 0
-20 98 -93 0
-52 -98 93 0
-52 98 -93 0
-11 -99 94 0
-11 99 -94 0
-12 -99 94 0
-12 99 -94 0
-13 -94 99 0
-13 -91 99 0
-13 -99 94 91 0
-14 -99 94 0
-14 99 -94 0
-15 -99 94 0
-15 99 -94 0
-16 -94 99 0
-16 -92 99 0
-16 -99 94 92 0
-17 -99 94 0
-17 99 -94 0
-18 -94 99 0
-18 -93 99 0
-18 -99 94 93 0
-19 -99 94 0
-19 99 -94 0
-20 -99 94 0
-20 -99 95 0
-20 99 -94 -95 0
-52 -99 94 0
-52 99 -94 0
-11 -100 95 0
-11 100 -95 0
-12 -100 95 0
-12 100 -95 0
-13 -100 95 0
-13 100 -95 0
-14 -95 100 0
-14 -91 100 0
-14 -100 95 91 0
-15 -100 95 0
-15 100 -95 0
-16 -100 95 0
-16 100 -95 0
-17 -95 100 0
-17 -92 100 0
-17 -100 95 92 0
-18 -100 95 0
-18 100 -95 0
-19 -95 100 0
-19 -93 100 0
-19 -100 95 93 0
-20 -95 100 0
-20 -94 100 0
-20 -100 95 94 0
-52 -100 95 0
-52 100 -95 0
-21 -101 96 0
-21 -101 97 0
-21 101 -96 -97 0
-22 -101 96 0
-22 -101 98 0
-22 101 -96 -98 0
-23 -101 96 0
-23 -101 99 0
-23 101 -96 -99 0
-24 -101 96 0
-24 -101 100 0
-24 101 -96 -100 0
-25 -101 96 0
-25 101 -96 0
-26 -101 96 0
-26 101 -96 0
-27 -101 96 0
-27 101 -96 0
-28 -101 96 0
-28 101 -96 0
-29 -101 96 0
-29 101 -96 0
-30 -101 96 0
-30 101 -96 0
-53 -101 96 0
-53 101 -96 0
-21 -97 102 0
-21 -96 102 0
-21 -102 97 96 0
-22 -102 97 0
-22 102 -97 0
-23 -102 97 0
-23 102 -97 0
-24 -102 97 0
-24 102 -97 0
-25 -102 97 0
-25 -102 98 0
-25 102 -97 -98 0
-26 -102 97 0
-26 -102 99 0
-26 102 -97 -99 0
-27 -102 97 0
-27 -102 100 0
-27 102 -97 -100 0
-28 -102 97 0
-28 102 -97 0
-29 -102 97 0
-29 102 -97 0
-30 -102 97 0
-30 102 -97 0
-53 -102 97 0
-53 102 -97 0
-21 -103 98 0
-21 103 -98 0
-22 -98 103 0
-22 -96 103 0
-22 -103 98 96 0
-23 -103 98 0
-23 103 -98 0
-24 -103 98 0
-24 103 -98 0
-25 -98 103 0
-25 -97 103 0
-25 -103 98 97 0
-26 -103 98 0
-26 103 -98 0
-27 -103 98 0
-27 103 -98 0
-28 -103 98 0
-28 -103 99 0
-28 103 -98 -99 0
-29 -103 98 0
-29 -103 100 0
-29 103 -98 -100 0
-30 -103 98 0
-30 103 -98 0
-53 -103 98 0
-53 103 -98 0
-21 -104 99 0
-21 104 -99 0
-22 -104 99 0
-22 104 -99 0
-23 -99 104 0
-23 -96 104 0
-23 -104 99 96 0
-24 -104 99 0
-24 104 -99 0
-25 -104 99 0
-25 104 -99 0
-26 -99 104 0
-26 -97 104 0
-26 -104 99 97 0
-27 -104 99 0
-27 104 -99 0
-28 -99 104 0
-28 -98 104 0
-28 -104 99 98 0
-29 -104 99 0
-29 104 -99 0
-30 -104 99 0
-30 -104 100 0
-30 104 -99 -100 0
-53 -104 99 0
-53 104 -99 0
-21 -105 100 0
-21 105 -100 0
-22 -105 100 0
-22 105 -100 0
-23 -105 100 0
-23 105 -100 0
-24 -100 105 0
-24 -96 105 0
-24 -105 100 96 0
-25 -105 100 0
-25 105 -100 0
-26 -105 100 0
-26 105 -100 0
-27 -100 105 0
-27 -97 105 0
-27 -105 100 97 0
-28 -105 100 0
-28 105 -100 0
-29 -100 105 0
-29 -98 105 0
-29 -105 100 98 0
-30 -100 105 0
-30 -99 105 0
-30 -105 100 99 0
-53 -105 100 0
-53 105 -100 0
-31 -106 101 0
-31 -106 102 0
-31 106 -101 -102 0
-32 -106 101 0
-32 -106 103 0
-32 106 -101 -103 0
-33 -106 101 0
-33 -106 104 0
-33 106 -101 -104 0
-34 -106 101 0
-34 -106 105 0
-34 106 -101 -105 0
-35 -106 101 0
-35 106 -101 0
-36 -106 101 0
-36 106 -101 0
-37 -106 101 0
-37 106 -101 0
-38 -106 101 0
-38 106 -101 0
-39 -106 101 0
-39 106 -101 0
-40 -106 101 0
-40 106 -101 0
-54 -106 101 0
-54 106 -101 0
-31 -102 107 0
-31 -101 107 0
-31 -107 102 101 0
-32 -107 102 0
-32 107 -102 0
-33 -107 102 0
-33 107 -102 0
-34 -107 102 0
-34 107 -102 0
-35 -107 102 0
-35 -107 103 0
-35 107 -102 -103 0
-36 -107 102 0
-36 -107 104 0
-36 107 -102 -104 0
-37 -107 102 0
-37 -107 105 0
-37 107 -102 -105 0
-38 -107 102 0
-38 107 -102 0
-39 -107 102 0
-39 107 -102 0
-40 -107 102 0
-40 107 -102 0
-54 -107 102 0
-54 107 -102 0
-31 -108 103 0
-31 108 -103 0
-32 -103 108 0
-32 -101 108 0
-32 -108 103 101 0
-33 -108 103 0
-33 108 -103 0
-34 -108 103 0
-34 108 -103 0
-35 -103 108 0
-35 -102 108 0
-35 -108 103 102 0
-36 -108 103 0
-36 108 -103 0
-37 -108 103 0
-37 108 -103 0
-38 -108 103 0
-38 -108 104 0
-38 108 -103 -104 0
-39 -108 103 0
-39 -108 105 0
-39 108 -103 -105 0
-40 -108 103 0
-40 108 -103 0
-54 -108 103 0
-54 108 -103 0
-31 -109 104 0
-31 109 -104 0
-32 -109 104 0
-32 109 -104 0
-33 -104 109 0
-33 -101 109 0
-33 -109 104 101 0
-34 -109 104 0
-34 109 -104 0
-35 -109 104 0
-35 109 -104 0
-36 -104 109 0
-36 -102 109 0
-36 -109 104 102 0
-37 -109 104 0
-37 109 -104 0
-38 -104 109 0
-38 -103 109 0
-38 -109 104 103 0
-39 -109 104 0
-39 109 -104 0
-40 -109 104 0
-40 -109 105 0
-40 109 -104 -105 0
-54 -109 104 0
-54 109 -104 0
-31 -110 105 0
-31 110 -105 0
-32 -110 105 0
-32 110 -105 0
-33 -110 105 0
-33 110 -105 0
-34 -105 110 0
-34 -101 110 0
-34 -110 105 101 0
-35 -110 105 0
-35 110 -105 0
-36 -110 105 0
-36 110 -105 0
-37 -105 110 0
-37 -102 110 0
-37 -110 105 102 0
-38 -110 105 0
-38 110 -105 0
-39 -105 110 0
-39 -103 110 0
-39 -110 105 103 0
-40 -105 110 0
-40 -104 110 0
-40 -110 105 104 0
-54 -110 105 0
-54 110 -105 0
-41 -111 106 0
-41 -111 107 0
-41 111 -106 -107 0
-42 -111 106 0
-42 -111 108 0
-42 111 -106 -108 0
-43 -111 106 0
-43 -111 109 0
-43 111 -106 -109 0
-44 -111 106 0
-44 -111 110 0
-44 111 -106 -110 0
-45 -111 106 0
-45 111 -106 0
-46 -111 106 0
-46 111 -106 0
-47 -111 106 0
-47 111 -106 0
-48 -111 106 0
-48 111 -106 0
-49 -111 106 0
-49 111 -106 0
-50 -111 106 0
-50 111 -106 0
-55 -111 106 0
-55 111 -106 0
-41 -107 112 0
-41 -106 112 0
-41 -112 107 106 0
-42 -112 107 0
-42 112 -107 0
-43 -112 107 0
-43 112 -107 0
-44 -112 107 0
-44 112 -107 0
-45 -112 107 0
-45 -112 108 0
-45 112 -107 -108 0
-46 -112 107 0
-46 -112 109 0
-46 112 -107 -109 0
-47 -112 107 0
-47 -112 110 0
-47 112 -107 -110 0
-48 -112 107 0
-48 112 -107 0
-49 -112 107 0
-49 112 -107 0
-50 -112 107 0
-50 112 -107 0
-55 -112 107 0
-55 112 -107 0
-41 -113 108 0
-41 113 -108 0
-42 -108 113 0
-42 -106 113 0
-42 -113 108 106 0
-43 -113 108 0
-43 113 -108 0
-44 -113 108 0
-44 113 -108 0
-45 -108 113 0
-45 -107 113 0
-45 -113 108 107 0
-46 -113 108 0
-46 113 -108 0
-47 -113 108 0
-47 113 -108 0
-48 -113 108 0
-48 -113 109 0
-48 113 -108 -109 0
-49 -113 108 0
-49 -113 110 0
-49 113 -108 -110 0
-50 -113 108 0
-50 113 -108 0
-55 -113 108 0
-55 113 -108 0
-41 -114 109 0
-41 114 -109 0
-42 -114 109 0
-42 114 -109 0
-43 -109 114 0
-43 -106 114 0
-43 -114 109 106 0
-44 -114 109 0
-44 114 -109 0
-45 -114 109 0
-45 114 -109 0
-46 -109 114 0
-46 -107 114 0
-46 -114 109 107 0
-47 -114 109 0
-47 114 -109 0
-48 -109 114 0
-48 -108 114 0
-48 -114 109 108 0
-49 -114 109 0
-49 114 -109 0
-50 -114 109 0
-50 -114 110 0
-50 114 -109 -110 0
-55 -114 109 0
-55 114 -109 0
-41 -115 110 0
-41 115 -110 0
-42 -115 110 0
-42 115 -110 0
-43 -115 110 0
-43 115 -110 0
-44 -110 115 0
-44 -106 115 0
-44 -115 110 106 0
-45 -115 110 0
-45 115 -110 0
-46 -115 110 0
-46 115 -110 0
-47 -110 115 0
-47 -107 115 0
-47 -115 110 107 0
-48 -115 110 0
-48 115 -110 0
-49 -110 115 0
-49 -108 115 0
-49 -115 110 108 0
-50 -110 115 0
-50 -109 115 0
-50 -115 110 109 0
-55 -115 110 0
-55 115 -110 0
-116 0
-1 -121 116 0
-1 -121 117 0
-1 121 -116 -117 0
-2 -121 116 0
-2 -121 118 0
-2 121 -116 -118 0
-3 -121 116 0
-3 -121 119 0
-3 121 -116 -119 0
-4 -121 116 0
-4 -121 120 0
-4 121 -116 -120 0
-5 -121 116 0
-5 121 -116 0
-6 -121 116 0
-6 121 -116 0
-7 -121 116 0
-7 121 -116 0
-8 -121 116 0
-8 121 -116 0
-9 -121 116 0
-9 121 -116 0
-10 -121 116 0
-10 121 -116 0
-51 -121 116 0
-51 121 -116 0
-117 0
-1 -117 122 0
-1 -116 122 0
-1 -122 117 116 0
-2 -122 117 0
-2 122 -117 0
-3 -122 117 0
-3 122 -117 0
-4 -122 117 0
-4 122 -117 0
-5 -122 117 0
-5 -122 118 0
-5 122 -117 -118 0
-6 -122 117 0
-6 -122 119 0
-6 122 -117 -119 0
-7 -122 117 0
-7 -122 120 0
-7 122 -117 -120 0
-8 -122 117 0
-8 122 -117 0
-9 -122 117 0
-9 122 -117 0
-10 -122 117 0
-10 122 -117 0
-51 -122 117 0
-51 122 -117 0
-118 0
-1 -123 118 0
-1 123 -118 0
-2 -118 123 0
-2 -116 123 0
-2 -123 118 116 0
-3 -123 118 0
-3 123 -118 0
-4 -123 118 0
-4 123 -118 0
-5 -118 123 0
-5 -117 123 0
-5 -123 118 117 0
-6 -123 118 0
-6 123 -118 0
-7 -123 118 0
-7 123 -118 0
-8 -123 118 0
-8 -123 119 0
-8 123 -118 -119 0
-9 -123 118 0
-9 -123 120 0
-9 123 -118 -120 0
-10 -123 118 0
-10 123 -118 0
-51 -123 118 0
-51 123 -118 0
119 0
-1 -124 119 0
-1 124 -119 0
-2 -124 119 0
-2 124 -119 0
-3 -119 124 0
-3 -116 124 0
-3 -124 119 116 0
-4 -124 119 0
-4 124 -119 0
-5 -124 119 0
-5 124 -119 0
-6 -119 124 0
-6 -117 124 0
-6 -124 119 117 0
-7 -124 119 0
-7 124 -119 0
-8 -119 124 0
-8 -118 124 0
-8 -124 119 118 0
-9 -124 119 0
-9 124 -119 0
-10 -124 119 0
-10 -124 120 0
-10 124 -119 -120 0
-51 -124 119 0
-51 124 -119 0
120 0
-1 -125 120 0
-1 125 -120 0
-2 -125 120 0
-2 125 -120 0
-3 -125 120 0
-3 125 -120 0
-4 -120 125 0
-4 -116 125 0
-4 -125 120 116 0
-5 -125 120 0
-5 125 -120 0
-6 -125 120 0
-6 125 -120 0
-7 -120 125 0
-7 -117 125 0
-7 -125 120 117 0
-8 -125 120 0
-8 125 -120 0
-9 -120 125 0
-9 -118 125 0
-9 -125 120 118 0
-10 -120 125 0
-10 -119 125 0
-10 -125 120 119 0
-51 -125 120 0
-51 125 -120 0
-11 -126 121 0
-11 -126 122 0
-11 126 -121 -122 0
-12 -126 121 0
-12 -126 123 0
-12 126 -121 -123 0
-13 -126 121 0
-13 -126 124 0
-13 126 -121 -124 0
-14 -126 121 0
-14 -126 125 0
-14 126 -121 -125 0
-15 -126 121 0
-15 126 -121 0
-16 -126 121 0
-16 126 -121 0
-17 -126 121 0
-17 126 -121 0
-18 -126 121 0
-18 126 -121 0
-19 -126 121 0
-19 126 -121 0
-20 -126 121 0
-20 126 -121 0
-52 -126 121 0
-52 126 -121 0
-11 -122 127 0
-11 -121 127 0
-11 -127 122 121 0
-12 -127 122 0
-12 127 -122 0
-13 -127 122 0
-13 127 -122 0
-14 -127 122 0
-14 127 -122 0
-15 -127 122 0
-15 -127 123 0
-15 127 -122 -123 0
-16 -127 122 0
-16 -127 124 0
-16 127 -122 -124 0
-17 -127 122 0
-17 -127 125 0
-17 127 -122 -125 0
-18 -127 122 0
-18 127 -122 0
-19 -127 122 0
-19 127 -122 0
-20 -127 122 0
-20 127 -122 0
-52 -127 122 0
-52 127 -122 0
-11 -128 123 0
-11 128 -123 0
-12 -123 128 0
-12 -121 128 0
-12 -128 123 121 0
-13 -128 123 0
-13 128 -123 0
-14 -128 123 0
-14 128 -123 0
-15 -123 128 0
-15 -122 128 0
-15 -128 123 122 0
-16 -128 123 0
-16 128 -123 0
-17 -128 123 0
-17 128 -123 0
-18 -128 123 0
-18 -128 124 0
-18 128 -123 -124 0
-19 -128 123 0
-19 -128 125 0
-19 128 -123 -125 0
-20 -128 123 0
-20 128 -123 0
-52 -128 123 0
-52 128 -123 0
-11 -129 124 0
-11 129 -124 0
-12 -129 124 0
-12 129 -124 0
-13 -124 129 0
-13 -121 129 0
-13 -129 124 121 0
-14 -129 124 0
-14 129 -124 0
-15 -129 124 0
-15 129 -124 0
-16 -124 129 0
-16 -122 129 0
-16 -129 124 122 0
-17 -129 124 0
-17 129 -124 0
-18 -124 129 0
-18 -123 129 0
-18 -129 124 123 0
-19 -129 124 0
-19 129 -124 0
-20 -129 124 0
-20 -129 125 0
-20 129 -124 -125 0
-52 -129 124 0
-52 129 -124 0
-11 -130 125 0
-11 130 -125 0
-12 -130 125 0
-12 130 -125 0
-13 -130 125 0
-13 130 -125 0
-14 -125 130 0
-14 -121 130 0
-14 -130 125 121 0
-15 -130 125 0
-15 130 -125 0
-16 -130 125 0
-16 130 -125 0
-17 -125 130 0
-17 -122 130 0
-17 -130 125 122 0
-18 -130 125 0
-18 130 -125 0
-19 -125 130 0
-19 -123 130 0
-19 -130 125 123 0
-20 -125 130 0
-20 -124 130 0
-20 -130 125 124 0
-52 -130 125 0
-52 130 -125 0
-21 -131 126 0
-21 -131 127 0
-21 131 -126 -127 0
-22 -131 126 0
-22 -131 128 0
-22 131 -126 -128 0
-23 -131 126 0
-23 -131 129 0
-23 131 -126 -129 0
-24 -131 126 0
-24 -131 130 0
-24 131 -126 -130 0
-25 -131 126 0
-25 131 -126 0
-26 -131 126 0
-26 131 -126 0
-27 -131 126 0
-27 131 -126 0
-28 -131 126 0
-28 131 -126 0
-29 -131 126 0
-29 131 -126 0
-30 -131 126 0
-30 131 -126 0
-53 -131 126 0
-53 131 -126 0
-21 -127 132 0
-21 -126 132 0
-21 -132 127 126 0
-22 -132 127 0
-22 132 -127 0
-23 -132 127 0
-23 132 -127 0
-24 -132 127 0
-24 132 -127 0
-25 -132 127 0
-25 -132 128 0
-25 132 -127 -128 0
-26 -132 127 0
-26 -132 129 0
-26 132 -127 -129 0
-27 -132 127 0
-27 -132 130 0
-27 132 -127 -130 0
-28 -132 127 0
-28 132 -127 0
-29 -132 127 0
-29 132 -127 0
-30 -132 127 0
-30 132 -127 0
-53 -132 127 0
-53 132 -127 0
-21 -133 128 0
-21 133 -128 0
-22 -128 133 0
-22 -126 133 0
-22 -133 128 126 0
-23 -133 128 0
-23 133 -128 0
-24 -133 128 0
-24 133 -128 0
-25 -128 133 0
-25 -127 133 0
-25 -133 128 127 0
-26 -133 128 0
-26 133 -128 0
-27 -133 128 0
-27 133 -128 0
-28 -133 128 0
-28 -133 129 0
-28 133 -128 -129 0
-29 -133 128 0
-29 -133 130 0
-29 133 -128 -130 0
-30 -133 128 0
-30 133 -128 0
-53 -133 128 0
-53 133 -128 0
-21 -134 129 0
-21 134 -129 0
-22 -134 129 0
-22 134 -129 0
-23 -129 134 0
-23 -126 134 0
-23 -134 129 126 0
-24 -134 129 0
-24 134 -129 0
-25 -134 129 0
-25 134 -129 0
-26 -129 134 0
-26 -127 134 0
-26 -134 129 127 0
-27 -134 129 0
-27 134 -129 0
-28 -129 134 0
-28 -128 134 0
-28 -134 129 128 0
-29 -134 129 0
-29 134 -129 0
-30 -134 129 0
-30 -134 130 0
-30 134 -129 -130 0
-53 -134 129 0
-53 134 -129 0
-21 -135 130 0
-21 135 -130 0
-22 -135 130 0
-22 135 -130 0
-23 -135 130 0
-23 135 -130 0
-24 -130 135 0
-24 -126 135 0
-24 -135 130 126 0
-25 -135 130 0
-25 135 -130 0
-26 -135 130 0
-26 135 -130 0
-27 -130 135 0
-27 -127 135 0
-27 -135 130 127 0
-28 -135 130 0
-28 135 -130 0
-29 -130 135 0
-29 -128 135 0
-29 -135 130 128 0
-30 -130 135 0
-30 -129 135 0
-30 -135 130 129 0
-53 -135 130 0
-53 135 -130 0
-31 -136 131 0
-31 -136 132 0
-31 136 -131 -132 0
-32 -136 131 0
-32 -136 133 0
-32 136 -131 -133 0
-33 -136 131 0
-33 -136 134 0
-33 136 -131 -134 0
-34 -136 131 0
-34 -136 135 0
-34 136 -131 -135 0
-35 -136 131 0
-35 136 -131 0
-36 -136 131 0
-36 136 -131 0
-37 -136 131 0
-37 136 -131 0
-38 -136 131 0
-38 136 -131 0
-39 -136 131 0
-39 136 -131 0
-40 -136 131 0
-40 136 -131 0
-54 -136 131 0
-54 136 -131 0
-31 -132 137 0
-31 -131 137 0
-31 -137 132 131 0
-32 -137 132 0
-32 137 -132 0
-33 -137 132 0
-33 137 -132 0
-34 -137 132 0
-34 137 -132 0
-35 -137 132 0
-35 -137 133 0
-35 137 -132 -133 0
-36 -137 132 0
-36 -137 134 0
-36 137 -132 -134 0
-37 -137 132 0
-37 -137 135 0
-37 137 -132 -135 0
-38 -137 132 0
-38 137 -132 0
-39 -137 132 0
-39 137 -132 0
-40 -137 132 0
-40 137 -132 0
-54 -137 132 0
-54 137 -132 0
-31 -138 133 0
-31 138 -133 0
-32 -133 138 0
-32 -131 138 0
-32 -138 133 131 0
-33 -138 133 0
-33 138 -133 0
-34 -138 133 0
-34 138 -133 0
-35 -133 138 0
-35 -132 138 0
-35 -138 133 132 0
-36 -138 133 0
-36 138 -133 0
-37 -138 133 0
-37 138 -133 0
-38 -138 133 0
-38 -138 134 0
-38 138 -133 -134 0
-39 -138 133 0
-39 -138 135 0
-39 138 -133 -135 0
-40 -138 133 0
-40 138 -133 0
-54 -138 133 0
-54 138 -133 0
-31 -139 134 0
-31 139 -134 0
-32 -139 134 0
-32 139 -134 0
-33 -134 139 0
-33 -131 139 0
-33 -139 134 131 0
-34 -139 134 0
-34 139 -134 0
-35 -139 134 0
-35 139 -134 0
-36 -134 139 0
-36 -132 139 0
-36 -139 134 132 0
-37 -139 134 0
-37 139 -134 0
-38 -134 139 0
-38 -133 139 0
-38 -139 134 133 0
-39 -139 134 0
-39 139 -134 0
-40 -139 134 0
-40 -139 135 0
-40 139 -134 -135 0
-54 -139 134 0
-54 139 -134 0
-31 -140 135 0
-31 140 -135 0
-32 -140 135 0
-32 140 -135 0
-33 -140 135 0
-33 140 -135 0
-34 -135 140 0
-34 -131 140 0
-34 -140 135 131 0
-35 -140 135 0
-35 140 -135 0
-36 -140 135 0
-36 140 -135 0
-37 -135 140 0
-37 -132 140 0
-37 -140 135 132 0
-38 -140 135 0
-38 140 -135 0
-39 -135 140 0
-39 -133 140 0
-39 -140 135 133 0
-40 -135 140 0
-40 -134 140 0
-40 -140 135 134 0
-54 -140 135 0
-54 140 -135 0
-41 -141 136 0
-41 -141 137 0
-41 141 -136 -137 0
-42 -141 136 0
-42 -141 138 0
-42 141 -136 -138 0
-43 -141 136 0
-43 -141 139 0
-43 141 -136 -139 0
-44 -141 136 0
-44 -141 140 0
-44 141 -136 -140 0
-45 -141 136 0
-45 141 -136 0
-46 -141 136 0
-46 141 -136 0
-47 -141 136 0
-47 141 -136 0
-48 -141 136 0
-48 141 -136 0
-49 -141 136 0
-49 141 -136 0
-50 -141 136 0
-50 141 -136 0
-55 -141 136 0
-55 141 -136 0
-41 -137 142 0
-41 -136 142 0
-41 -142 137 136 0
-42 -142 137 0
-42 142 -137 0
-43 -142 137 0
-43 142 -137 0
-44 -142 137 0
-44 142 -137 0
-45 -142 137 0
-45 -142 138 0
-45 142 -137 -138 0
-46 -142 137 0
-46 -142 139 0
-46 142 -137 -139 0
-47 -142 137 0
-47 -142 140 0
-47 142 -137 -140 0
-48 -142 137 0
-48 142 -137 0
-49 -142 137 0
-49 142 -137 0
-50 -142 137 0
-50 142 -137 0
-55 -142 137 0
-55 142 -137 0
-41 -143 138 0
-41 143 -138 0
-42 -138 143 0
-42 -136 143 0
-42 -143 138 136 0
-43 -143 138 0
-43 143 -138 0
-44 -143 138 0
-44 143 -138 0
-45 -138 143 0
-45 -137 143 0
-45 -143 138 137 0
-46 -143 138 0
-46 143 -138 0
-47 -143 138 0
-47 143 -138 0
-48 -143 138 0
-48 -143 139 0
-48 143 -138 -139 0
-49 -143 138 0
-49 -143 140 0
-49 143 -138 -140 0
-50 -143 138 0
-50 143 -138 0
-55 -143 138 0
-55 143 -138 0
-41 -144 139 0
-41 144 -139 0
-42 -144 139 0
-42 144 -139 0
-43 -139 144 0
-43 -136 144 0
-43 -144 139 136 0
-44 -144 139 0
-44 144 -139 0
-45 -144 139 0
-45 144 -139 0
-46 -139 144 0
-46 -137 144 0
-46 -144 139 137 0
-47 -144 139 0
-47 144 -139 0
-48 -139 144 0
-48 -138 144 0
-48 -144 139 138 0
-49 -144 139 0
-49 144 -139 0
-50 -144 139 0
-50 -144 140 0
-50 144 -139 -140 0
-55 -144 139 0
-55 144 -139 0
-41 -145 140 0
-41 145 -140 0
-42 -145 140 0
-42 145 -140 0
-43 -145 140 0
-43 145 -140 0
-44 -140 145 0
-44 -136 145 0
-44 -145 140 136 0
-45 -145 140 0
-45 145 -140 0
-46 -145 140 0
-46 145 -140 0
-47 -140 145 0
-47 -137 145 0
-47 -145 140 137 0
-48 -145 140 0
-48 145 -140 0
-49 -140 145 0
-49 -138 145 0
-49 -145 140 138 0
-50 -140 145 0
-50 -139 145 0
-50 -145 140 139 0
-55 -145 140 0
-55 145 -140 0
-146 0
-1 -151 146 0
-1 -151 147 0
-1 151 -146 -147 0
-2 -151 146 0
-2 -151 148 0
-2 151 -146 -148 0
-3 -151 146 0
-3 -151 149 0
-3 151 -146 -149 0
-4 -151 146 0
-4 -151 150 0
-4 151 -146 -150 0
-5 -151 146 0
-5 151 -146 0
-6 -151 146 0
-6 151 -146 0
-7 -151 146 0
-7 151 -146 0
-8 -151 146 0
-8 151 -146 0
-9 -151 146 0
-9 151 -146 0
-10 -151 146 0
-10 151 -146 0
-51 -151 146 0
-51 151 -146 0
-147 0
-1 -147 152 0
-1 -146 152 0
-1 -152 147 146 0
-2 -152 147 0
-2 152 -147 0
-3 -152 147 0
-3 152 -147 0
-4 -152 147 0
-4 152 -147 0
-5 -152 147 0
-5 -152 148 0
-5 152 -147 -148 0
-6 -152 147 0
-6 -152 149 0
-6 152 -147 -149 0
-7 -152 147 0
-7 -152 150 0
-7 152 -147 -150 0
-8 -152 147 0
-8 152 -147 0
-9 -152 147 0
-9 152 -147 0
-10 -152 147 0
-10 152 -147 0
-51 -152 147 0
-51 152 -147 0
148 0
-1 -153 148 0
-1 153 -148 0
-2 -148 153 0
-2 -146 153 0
-2 -153 148 146 0
-3 -153 148 0
-3 153 -148 0
-4 -153 148 0
-4 153 -148 0
-5 -148 153 0
-5 -147 153 0
-5 -153 148 147 0
-6 -153 148 0
-6 153 -148 0
-7 -153 148 0
-7 153 -148 0
-8 -153 148 0
-8 -153 149 0
-8 153 -148 -149 0
-9 -153 148 0
-9 -153 150 0
-9 153 -148 -150 0
-10 -153 148 0
-10 153 -148 0
-51 -153 148 0
-51 153 -148 0
149 0
-1 -154 149 0
-1 154 -149 0
-2 -154 149 0
-2 154 -149 0
-3 -149 154 0
-3 -146 154 0
-3 -154 149 146 0
-4 -154 149 0
-4 154 -149 0
-5 -154 149 0
-5 154 -149 0
-6 -149 154 0
-6 -147 154 0
-6 -154 149 147 0
-7 -154 149 0
-7 154 -149 0
-8 -149 154 0
-8 -148 154 0
-8 -154 149 148 0
-9 -154 149 0
-9 154 -149 0
-10 -154 149 0
-10 -154 150 0
-10 154 -149 -150 0
-51 -154 149 0
-51 154 -149 0
150 0
-1 -155 150 0
-1 155 -150 0
-2 -155 150 0
-2 155 -150 0
-3 -155 150 0
-3 155 -150 0
-4 -150 155 0
-4 -146 155 0
-4 -155 150 146 0
-5 -155 150 0
-5 155 -150 0
-6 -155 150 0
-6 155 -150 0
-7 -150 155 0
-7 -147 155 0
-7 -155 150 147 0
-8 -155 150 0
-8 155 -150 0
-9 -150 155 0
-9 -148 155 0
-9 -155 150 148 0
-10 -150 155 0
-10 -149 155 0
-10 -155 150 149 0
-51 -155 150 0
-51 155 -150 0
-11 -156 151 0
-11 -156 152 0
-11 156 -151 -152 0
-12 -156 151 0
-12 -156 153 0
-12 156 -151 -153 0
-13 -156 151 0
-13 -156 154 0
-13 156 -151 -154 0
-14 -156 151 0
-14 -156 155 0
-14 156 -151 -155 0
-15 -156 151 0
-15 156 -151 0
-16 -156 151 0
-16 156 -151 0
-17 -156 151 0
-17 156 -151 0
-18 -156 151 0
-18 156 -151 0
-19 -156 151 0
-19 156 -151 0
-20 -156 151 0
-20 156 -151 0
-52 -156 151 0
-52 156 -151 0
-11 -152 157 0
-11 -151 157 0
-11 -157 152 151 0
-12 -157 152 0
-12 157 -152 0
-13 -157 152 0
-13 157 -152 0
-14 -157 152 0
-14 157 -152 0
-15 -157 152 0
-15 -157 153 0
-15 157 -152 -153 0
-16 -157 152 0
-16 -157 154 0
-16 157 -152 -154 0
-17 -157 152 0
-17 -157 155 0
-17 157 -152 -155 0
-18 -157 152 0
-18 157 -152 0
-19 -157 152 0
-19 157 -152 0
-20 -157 152 0
-20 157 -152 0
-52 -157 152 0
-52 157 -152 0
-11 -158 153 0
-11 158 -153 0
-12 -153 158 0
-12 -151 158 0
-12 -158 153 151 0
-13 -158 153 0
-13 158 -153 0
-14 -158 153 0
-14 158 -153 0
-15 -153 158 0
-15 -152 158 0
-15 -158 153 152 0
-16 -158 153 0
-16 158 -153 0
-17 -158 153 0
-17 158 -153 0
-18 -158 153 0
-18 -158 154 0
-18 158 -153 -154 0
-19 -158 153 0
-19 -158 155 0
-19 158 -153 -155 0
-20 -158 153 0
-20 158 -153 0
-52 -158 153 0
-52 158 -153 0
-11 -159 154 0
-11 159 -154 0
-12 -159 154 0
-12 159 -154 0
-13 -154 159 0
-13 -151 159 0
-13 -159 154 151 0
-14 -159 154 0
-14 159 -154 0
-15 -159 154 0
-15 159 -154 0
-16 -154 159 0
-16 -152 159 0
-16 -159 154 152 0
-17 -159 154 0
-17 159 -154 0
-18 -154 159 0
-18 -153 159 0
-18 -159 154 153 0
-19 -159 154 0
-19 159 -154 0
-20 -159 154 0
-20 -159 155 0
-20 159 -154 -155 0
-52 -159 154 0
-52 159 -154 0
-11 -160 155 0
-11 160 -155 0
-12 -160 155 0
-12 160 -155 0
-13 -160 155 0
-13 160 -155 0
-14 -155 160 0
-14 -151 160 0
-14 -160 155 151 0
-15 -160 155 0
-15 160 -155 0
-16 -160 155 0
-16 160 -155 0
-17 -155 160 0
-17 -152 160 0
-17 -160 155 152 0
-18 -160 155 0
-18 160 -155 0
-19 -155 160 0
-19 -153 160 0
-19 -160 155 153 0
-20 -155 160 0
-20 -154 160 0
-20 -160 155 154 0
-52 -160 155 0
-52 160 -155 0
-21 -161 156 0
-21 -161 157 0
-21 161 -156 -157 0
-22 -161 156 0
-22 -161 158 0
-22 161 -156 -158 0
-23 -161 156 0
-23 -161 159 0
-23 161 -156 -159 0
-24 -161 156 0
-24 -161 160 0
-24 161 -156 -160 0
-25 -161 156 0
-25 161 -156 0
-26 -161 156 0
-26 161 -156 0
-27 -161 156 0
-27 161 -156 0
-28 -161 156 0
-28 161 -156 0
-29 -161 156 0
-29 161 -156 0
-30 -161 156 0
-30 161 -156 0
-53 -161 156 0
-53 161 -156 0
-21 -157 162 0
-21 -156 162 0
-21 -162 157 156 0
-22 -162 157 0
-22 162 -157 0
-23 -162 157 0
-23 162 -157 0
-24 -162 157 0
-24 162 -157 0
-25 -162 157 0
-25 -162 158 0
-25 162 -157 -158 0
-26 -162 157 0
-26 -162 159 0
-26 162 -157 -159 0
-27 -162 157 0
-27 -162 160 0
-27 162 -157 -160 0
-28 -162 157 0
-28 162 -157 0
-29 -162 157 0
-29 162 -157 0
-30 -162 157 0
-30 162 -157 0
-53 -162 157 0
-53 162 -157 0
-21 -163 158 0
-21 163 -158 0
-22 -158 163 0
-22 -156 163 0
-22 -163 158 156 0
-23 -163 158 0
-23 163 -158 0
-24 -163 158 0
-24 163 -158 0
-25 -158 163 0
-25 -157 163 0
-25 -163 158 157 0
-26 -163 158 0
-26 163 -158 0
-27 -163 158 0
-27 163 -158 0
-28 -163 158 0
-28 -163 159 0
-28 163 -158 -159 0
-29 -163 158 0
-29 -163 160 0
-29 163 -158 -160 0
-30 -163 158 0
-30 163 -158 0
-53 -163 158 0
-53 163 -158 0
-21 -164 159 0
-21 164 -159 0
-22 -164 159 0
-22 164 -159 0
-23 -159 164 0
-23 -156 164 0
-23 -164 159 156 0
-24 -164 159 0
-24 164 -159 0
-25 -164 159 0
-25 164 -159 0
-26 -159 164 0
-26 -157 164 0
-26 -164 159 157 0
-27 -164 159 0
-27 164 -159 0
-28 -159 164 0
-28 -158 164 0
-28 -164 159 158 0
-29 -164 159 0
-29 164 -159 0
-30 -164 159 0
-30 -164 160 0
-30 164 -159 -160 0
-53 -164 159 0
-53 164 -159 0
-21 -165 160 0
-21 165 -160 0
-22 -165 160 0
-22 165 -160 0
-23 -165 160 0
-23 165 -160 0
-24 -160 165 0
-24 -156 165 0
-24 -165 160 156 0
-25 -165 160 0
-25 165 -160 0
-26 -165 160 0
-26 165 -160 0
-27 -160 165 0
-27 -157 165 0
-27 -165 160 157 0
-28 -165 160 0
-28 165 -160 0
-29 -160 165 0
-29 -158 165 0
-29 -165 160 158 0
-30 -160 165 0
-30 -159 165 0
-30 -165 160 159 0
-53 -165 160 0
-53 165 -160 0
-31 -166 161 0
-31 -166 162 0
-31 166 -161 -162 0
-32 -166 161 0
-32 -166 163 0
-32 166 -161 -163 0
-33 -166 161 0
-33 -166 164 0
-33 166 -161 -164 0
-34 -166 161 0
-34 -166 165 0
-34 166 -161 -165 0
-35 -166 161 0
-35 166 -161 0
-36 -166 161 0
-36 166 -161 0
-37 -166 161 0
-37 166 -161 0
-38 -166 161 0
-38 166 -161 0
-39 -166 161 0
-39 166 -161 0
-40 -166 161 0
-40 166 -161 0
-54 -166 161 0
-54 166 -161 0
-31 -162 167 0
-31 -161 167 0
-31 -167 162 161 0
-32 -167 162 0
-32 167 -162 0
-33 -167 162 0
-33 167 -162 0
-34 -167 162 0
-34 167 -162 0
-35 -167 162 0
-35 -167 163 0
-35 167 -162 -163 0
-36 -167 162 0
-36 -167 164 0
-36 167 -162 -164 0
-37 -167 162 0
-37 -167 165 0
-37 167 -162 -165 0
-38 -167 162 0
-38 167 -162 0
-39 -167 162 0
-39 167 -162 0
-40 -167 162 0
-40 167 -162 0
-54 -167 162 0
-54 167 -162 0
-31 -168 163 0
-31 168 -163 0
-32 -163 168 0
-32 -161 168 0
-32 -168 163 161 0
-33 -168 163 0
-33 168 -163 0
-34 -168 163 0
-34 168 -163 0
-35 -163 168 0
-35 -162 168 0
-35 -168 163 162 0
-36 -168 163 0
-36 168 -163 0
-37 -168 163 0
-37 168 -163 0
-38 -168 163 0
-38 -168 164 0
-38 168 -163 -164 0
-39 -168 163 0
-39 -168 165 0
-39 168 -163 -165 0
-40 -168 163 0
-40 168 -163 0
-54 -168 163 0
-54 168 -163 0
-31 -169 164 0
-31 169 -164 0
-32 -169 164 0
-32 169 -164 0
-33 -164 169 0
-33 -161 169 0
-33 -169 164 161 0
-34 -169 164 0
-34 169 -164 0
-35 -169 164 0
-35 169 -164 0
-36 -164 169 0
-36 -162 169 0
-36 -169 164 162 0
-37 -169 164 0
-37 169 -164 0
-38 -164 169 0
-38 -163 169 0
-38 -169 164 163 0
-39 -169 164 0
-39 169 -164 0
-40 -169 164 0
-40 -169 165 0
-40 169 -164 -165 0
-54 -169 164 0
-54 169 -164 0
-31 -170 165 0
-31 170 -165 0
-32 -170 165 0
-32 170 -165 0
-33 -170 165 0
-33 170 -165 0
-34 -165 170 0
-34 -161 170 0
-34 -170 165 161 0
-35 -170 165 0
-35 170 -165 0
-36 -170 165 0
-36 170 -165 0
-37 -165 170 0
-37 -162 170 0
-37 -170 165 162 0
-38 -170 165 0
-38 170 -165 0
-39 -165 170 0
-39 -163 170 0
-39 -170 165 163 0
-40 -165 170 0
-40 -164 170 0
-40 -170 165 164 0
-54 -170 165 0
-54 170 -165 0
-41 -171 166 0
-41 -171 167 0
-41 171 -166 -167 0
-42 -171 166 0
-42 -171 168 0
-42 171 -166 -168 0
-43 -171 166 0
-43 -171 169 0
-43 171 -166 -169 0
-44 -171 166 0
-44 -171 170 0
-44 171 -166 -170 0
-45 -171 166 0
-45 171 -166 0
-46 -171 166 0
-46 171 -166 0
-47 -171 166 0
-47 171 -166 0
-48 -171 166 0
-48 171 -166 0
-49 -171 166 0
-49 171 -166 0
-50 -171 166 0
-50 171 -166 0
-55 -171 166 0
-55 171 -166 0
-41 -167 172 0
-41 -166 172 0
-41 -172 167 166 0
-42 -172 167 0
-42 172 -167 0
-43 -172 167 0
-43 172 -167 0
-44 -172 167 0
-44 172 -167 0
-45 -172 167 0
-45 -172 168 0
-45 172 -167 -168 0
-46 -172 167 0
-46 -172 169 0
-46 172 -167 -169 0
-47 -172 167 0
-47 -172 170 0
-47 172 -167 -170 0
-48 -172 167 0
-48 172 -167 0
-49 -172 167 0
-49 172 -167 0
-50 -172 167 0
-50 172 -167 0
-55 -172 167 0
-55 172 -167 0
-41 -173 168 0
-41 173 -168 0
-42 -168 173 0
-42 -166 173 0
-42 -173 168 166 0
-43 -173 168 0
-43 173 -168 0
-44 -173 168 0
-44 173 -168 0
-45 -168 173 0
-45 -167 173 0
-45 -173 168 167 0
-46 -173 168 0
-46 173 -168 0
-47 -173 168 0
-47 173 -168 0
-48 -173 168 0
-48 -173 169 0
-48 173 -168 -169 0
-49 -173 168 0
-49 -173 170 0
-49 173 -168 -170 0
-50 -173 168 0
-50 173 -168 0
-55 -173 168 0
-55 173 -168 0
-41 -174 169 0
-41 174 -169 0
-42 -174 169 0
-42 174 -169 0
-43 -169 174 0
-43 -166 174 0
-43 -174 169 166 0
-44 -174 169 0
-44 174 -169 0
-45 -174 169 0
-45 174 -169 0
-46 -169 174 0
-46 -167 174 0
-46 -174 169 167 0
-47 -174 169 0
-47 174 -169 0
-48 -169 174 0
-48 -168 174 0
-48 -174 169 168 0
-49 -174 169 0
-49 174 -169 0
-50 -174 169 0
-50 -174 170 0
-50 174 -169 -170 0
-55 -174 169 0
-55 174 -169 0
-41 -175 170 0
-41 175 -170 0
-42 -175 170 0
-42 175 -170 0
-43 -175 170 0
-43 175 -170 0
-44 -170 175 0
-44 -166 175 0
-44 -175 170 166 0
-45 -175 170 0
-45 175 -170 0
-46 -175 170 0
-46 175 -170 0
-47 -170 175 0
-47 -167 175 0
-47 -175 170 167 0
-48 -175 170 0
-48 175 -170 0
-49 -170 175 0
-49 -168 175 0
-49 -175 170 168 0
-50 -170 175 0
-50 -169 175 0
-50 -175 170 169 0
-55 -175 170 0
-55 175 -170 0
-176 0
-1 -181 176 0
-1 -181 177 0
-1 181 -176 -177 0
-2 -181 176 0
-2 -181 178 0
-2 181 -176 -178 0
-3 -181 176 0
-3 -181 179 0
-3 181 -176 -179 0
-4 -181 176 0
-4 -181 180 0
-4 181 -176 -180 0
-5 -181 176 0
-5 181 -176 0
-6 -181 176 0
-6 181 -176 0
-7 -181 176 0
-7 181 -176 0
-8 -181 176 0
-8 181 -176 0
-9 -181 176 0
-9 181 -176 0
-10 -181 176 0
-10 181 -176 0
-51 -181 176 0
-51 181 -176 0
177 0
-1 -177 182 0
-1 -176 182 0
-1 -182 177 176 0
-2 -182 177 0
-2 182 -177 0
-3 -182 177 0
-3 182 -177 0
-4 -182 177 0
-4 182 -177 0
-5 -182 177 0
-5 -182 178 0
-5 182 -177 -178 0
-6 -182 177 0
-6 -182 179 0
-6 182 -177 -179 0
-7 -182 177 0
-7 -182 180 0
-7 182 -177 -180 0
-8 -182 177 0
-8 182 -177 0
-9 -182 177 0
-9 182 -177 0
-10 -182 177 0
-10 182 -177 0
-51 -182 177 0
-51 182 -177 0
-178 0
-1 -183 178 0
-1 183 -178 0
-2 -178 183 0
-2 -176 183 0
-2 -183 178 176 0
-3 -183 178 0
-3 183 -178 0
-4 -183 178 0
-4 183 -178 0
-5 -178 183 0
-5 -177 183 0
-5 -183 178 177 0
-6 -183 178 0
-6 183 -178 0
-7 -183 178 0
-7 183 -178 0
-8 -183 178 0
-8 -183 179 0
-8 183 -178 -179 0
-9 -183 178 0
-9 -183 180 0
-9 183 -178 -180 0
-10 -183 178 0
-10 183 -178 0
-51 -183 178 0
-51 183 -178 0
-179 0
-1 -184 179 0
-1 184 -179 0
-2 -184 179 0
-2 184 -179 0
-3 -179 184 0
-3 -176 184 0
-3 -184 179 176 0
-4 -184 179 0
-4 184 -179 0
-5 -184 179 0
-5 184 -179 0
-6 -179 184 0
-6 -177 184 0
-6 -184 179 177 0
-7 -184 179 0
-7 184 -179 0
-8 -179 184 0
-8 -178 184 0
-8 -184 179 178 0
-9 -184 179 0
-9 184 -179 0
-10 -184 179 0
-10 -184 180 0
-10 184 -179 -180 0
-51 -184 179 0
-51 184 -179 0
-180 0
-1 -185 180 0
-1 185 -180 0
-2 -185 180 0
-2 185 -180 0
-3 -185 180 0
-3 185 -180 0
-4 -180 185 0
-4 -176 185 0
-4 -185 180 176 0
-5 -185 180 0
-5 185 -180 0
-6 -185 180 0
-6 185 -180 0
-7 -180 185 0
-7 -177 185 0
-7 -185 180 177 0
-8 -185 180 0
-8 185 -180 0
-9 -180 185 0
-9 -178 185 0
-9 -185 180 178 0
-10 -180 185 0
-10 -179 185 0
-10 -185 180 179 0
-51 -185 180 0
-51 185 -180 0
-11 -186 181 0
-11 -186 182 0
-11 186 -181 -182 0
-12 -186 181 0
-12 -186 183 0
-12 186 -181 -183 0
-13 -186 181 0
-13 -186 184 0
-13 186 -181 -184 0
-14 -186 181 0
-14 -186 185 0
-14 186 -181 -185 0
-15 -186 181 0
-15 186 -181 0
-16 -186 181 0
-16 186 -181 0
-17 -186 181 0
-17 186 -181 0
-18 -186 181 0
-18 186 -181 0
-19 -186 181 0
-19 186 -181 0
-20 -186 181 0
-20 186 -181 0
-52 -186 181 0
-52 186 -181 0
-11 -182 187 0
-11 -181 187 0
-11 -187 182 181 0
-12 -187 182 0
-12 187 -182 0
-13 -187 182 0
-13 187 -182 0
-14 -187 182 0
-14 187 -182 0
-15 -187 182 0
-15 -187 183 0
-15 187 -182 -183 0
-16 -187 182 0
-16 -187 184 0
-16 187 -182 -184 0
-17 -187 182 0
-17 -187 185 0
-17 187 -182 -185 0
-18 -187 182 0
-18 187 -182 0
-19 -187 182 0
-19 187 -182 0
-20 -187 182 0
-20 187 -182 0
-52 -187 182 0
-52 187 -182 0
-11 -188 183 0
-11 188 -183 0
-12 -183 188 0
-12 -181 188 0
-12 -188 183 181 0
-13 -188 183 0
-13 188 -183 0
-14 -188 183 0
-14 188 -183 0
-15 -183 188 0
-15 -182 188 0
-15 -188 183 182 0
-16 -188 183 0
-16 188 -183 0
-17 -188 183 0
-17 188 -183 0
-18 -188 183 0
-18 -188 184 0
-18 188 -183 -184 0
-19 -188 183 0
-19 -188 185 0
-19 188 -183 -185 0
-20 -188 183 0
-20 188 -183 0
-52 -188 183 0
-52 188 -183 0
-11 -189 184 0
-11 189 -184 0
-12 -189 184 0
-12 189 -184 0
-13 -184 189 0
-13 -181 189 0
-13 -189 184 181 0
-14 -189 184 0
-14 189 -184 0
-15 -189 184 0
-15 189 -184 0
-16 -184 189 0
-16 -182 189 0
-16 -189 184 182 0
-17 -189 184 0
-17 189 -184 0
-18 -184 189 0
-18 -183 189 0
-18 -189 184 183 0
-19 -189 184 0
-19 189 -184 0
-20 -189 184 0
-20 -189 185 0
-20 189 -184 -185 0
-52 -189 184 0
-52 189 -184 0
-11 -190 185 0
-11 190 -185 0
-12 -190 185 0
-12 190 -185 0
-13 -190 185 0
-13 190 -185 0
-14 -185 190 0
-14 -181 190 0
-14 -190 185 181 0
-15 -190 185 0
-15 190 -185 0
-16 -190 185 0
-16 190 -185 0
-17 -185 190 0
-17 -182 190 0
-17 -190 185 182 0
-18 -190 185 0
-18 190 -185 0
-19 -185 190 0
-19 -183 190 0
-19 -190 185 183 0
-20 -185 190 0
-20 -184 190 0
-20 -190 185 184 0
-52 -190 185 0
-52 190 -185 0
-21 -191 186 0
-21 -191 187 0
-21 191 -186 -187 0
-22 -191 186 0
-22 -191 188 0
-22 191 -186 -188 0
-23 -191 186 0
-23 -191 189 0
-23 191 -186 -189 0
-24 -191 186 0
-24 -191 190 0
-24 191 -186 -190 0
-25 -191 186 0
-25 191 -186 0
-26 -191 186 0
-26 191 -186 0
-27 -191 186 0
-27 191 -186 0
-28 -191 186 0
-28 191 -186 0
-29 -191 186 0
-29 191 -186 0
-30 -191 186 0
-30 191 -186 0
-53 -191 186 0
-53 191 -186 0
-21 -187 192 0
-21 -186 192 0
-21 -192 187 186 0
-22 -192 187 0
-22 192 -187 0
-23 -192 187 0
-23 192 -187 0
-24 -192 187 0
-24 192 -187 0
-25 -192 187 0
-25 -192 188 0
-25 192 -187 -188 0
-26 -192 187 0
-26 -192 189 0
-26 192 -187 -189 0
-27 -192 187 0
-27 -192 190 0
-27 192 -187 -190 0
-28 -192 187 0
-28 192 -187 0
-29 -192 187 0
-29 192 -187 0
-30 -192 187 0
-30 192 -187 0
-53 -192 187 0
-53 192 -187 0
-21 -193 188 0
-21 193 -188 0
-22 -188 193 0
-22 -186 193 0
-22 -193 188 186 0
-23 -193 188 0
-23 193 -188 0
-24 -193 188 0
-24 193 -188 0
-25 -188 193 0
-25 -187 193 0
-25 -193 188 187 0
-26 -193 188 0
-26 193 -188 0
-27 -193 188 0
-27 193 -188 0
-28 -193 188 0
-28 -193 189 0
-28 193 -188 -189 0
-29 -193 188 0
-29 -193 190 0
-29 193 -188 -190 0
-30 -193 188 0
-30 193 -188 0
-53 -193 188 0
-53 193 -188 0
-21 -194 189 0
-21 194 -189 0
-22 -194 189 0
-22 194 -189 0
-23 -189 194 0
-23 -186 194 0
-23 -194 189 186 0
-24 -194 189 0
-24 194 -189 0
-25 -194 189 0
-25 194 -189 0
-26 -189 194 0
-26 -187 194 0
-26 -194 189 187 0
-27 -194 189 0
-27 194 -189 0
-28 -189 194 0
-28 -188 194 0
-28 -194 189 188 0
-29 -194 189 0
-29 194 -189 0
-30 -194 189 0
-30 -194 190 0
-30 194 -189 -190 0
-53 -194 189 0
-53 194 -189 0
-21 -195 190 0
-21 195 -190 0
-22 -195 190 0
-22 195 -190 0
-23 -195 190 0
-23 195 -190 0
-24 -190 195 0
-24 -186 195 0
-24 -195 190 186 0
-25 -195 190 0
-25 195 -190 0
-26 -195 190 0
-26 195 -190 0
-27 -190 195 0
-27 -187 195 0
-27 -195 190 187 0
-28 -195 190 0
-28 195 -190 0
-29 -190 195 0
-29 -188 195 0
-29 -195 190 188 0
-30 -190 195 0
-30 -189 195 0
-30 -195 190 189 0
-53 -195 190 0
-53 195 -190 0
-31 -196 191 0
-31 -196 192 0
-31 196 -191 -192 0
-32 -196 191 0
-32 -196 193 0
-32 196 -191 -193 0
-33 -196 191 0
-33 -196 194 0
-33 196 -191 -194 0
-34 -196 191 0
-34 -196 195 0
-34 196 -191 -195 0
-35 -196 191 0
-35 196 -191 0
-36 -196 191 0
-36 196 -191 0
-37 -196 191 0
-37 196 -191 0
-38 -196 191 0
-38 196 -191 0
-39 -196 191 0
-39 196 -191 0
-40 -196 191 0
-40 196 -191 0
-54 -196 191 0
-54 196 -191 0
-31 -192 197 0
-31 -191 197 0
-31 -197 192 191 0
-32 -197 192 0
-32 197 -192 0
-33 -197 192 0
-33 197 -192 0
-34 -197 192 0
-34 197 -192 0
-35 -197 192 0
-35 -197 193 0
-35 197 -192 -193 0
-36 -197 192 0
-36 -197 194 0
-36 197 -192 -194 0
-37 -197 192 0
-37 -197 195 0
-37 197 -192 -195 0
-38 -197 192 0
-38 197 -192 0
-39 -197 192 0
-39 197 -192 0
-40 -197 192 0
-40 197 -192 0
-54 -197 192 0
-54 197 -192 0
-31 -198 193 0
-31 198 -193 0
-32 -193 198 0
-32 -191 198 0
-32 -198 193 191 0
-33 -198 193 0
-33 198 -193 0
-34 -198 193 0
-34 198 -193 0
-35 -193 198 0
-35 -192 198 0
-35 -198 193 192 0
-36 -198 193 0
-36 198 -193 0
-37 -198 193 0
-37 198 -193 0
-38 -198 193 0
-38 -198 194 0
-38 198 -193 -194 0
-39 -198 193 0
-39 -198 195 0
-39 198 -193 -195 0
-40 -198 193 0
-40 198 -193 0
-54 -198 193 0
-54 198 -193 0
-31 -199 194 0
-31 199 -194 0
-32 -199 194 0
-32 199 -194 0
-33 -194 199 0
-33 -191 199 0
-33 -199 194 191 0
-34 -199 194 0
-34 199 -194 0
-35 -199 194 0
-35 199 -194 0
-36 -194 199 0
-36 -192 199 0
-36 -199 194 192 0
-37 -199 194 0
-37 199 -194 0
-38 -194 199 0
-38 -193 199 0
-38 -199 194 193 0
-39 -199 194 0
-39 199 -194 0
-40 -199 194 0
-40 -199 195 0
-40 199 -194 -195 0
-54 -199 194 0
-54 199 -194 0
-31 -200 195 0
-31 200 -195 0
-32 -200 195 0
-32 200 -195 0
-33 -200 195 0
-33 200 -195 0
-34 -195 200 0
-34 -191 200 0
-34 -200 195 191 0
-35 -200 195 0
-35 200 -195 0
-36 -200 195 0
-36 200 -195 0
-37 -195 200 0
-37 -192 200 0
-37 -200 195 192 0
-38 -200 195 0
-38 200 -195 0
-39 -195 200 0
-39 -193 200 0
-39 -200 195 193 0
-40 -195 200 0
-40 -194 200 0
-40 -200 195 194 0
-54 -200 195 0
-54 200 -195 0
-41 -201 196 0
-41 -201 197 0
-41 201 -196 -197 0
-42 -201 196 0
-42 -201 198 0
-42 201 -196 -198 0
-43 -201 196 0
-43 -201 199 0
-43 201 -196 -199 0
-44 -201 196 0
-44 -201 200 0
-44 201 -196 -200 0
-45 -201 196 0
-45 201 -196 0
-46 -201 196 0
-46 201 -196 0
-47 -201 196 0
-47 201 -196 0
-48 -201 196 0
-48 201 -196 0
-49 -201 196 0
-49 201 -196 0
-50 -201 196 0
-50 201 -196 0
-55 -201 196 0
-55 201 -196 0
-41 -197 202 0
-41 -196 202 0
-41 -202 197 196 0
-42 -202 197 0
-42 202 -197 0
-43 -202 197 0
-43 202 -197 0
-44 -202 197 0
-44 202 -197 0
-45 -202 197 0
-45 -202 198 0
-45 202 -197 -198 0
-46 -202 197 0
-46 -202 199 0
-46 202 -197 -199 0
-47 -202 197 0
-47 -202 200 0
-47 202 -197 -200 0
-48 -202 197 0
-48 202 -197 0
-49 -202 197 0
-49 202 -197 0
-50 -202 197 0
-50 202 -197 0
-55 -202 197 0
-55 202 -197 0
-41 -203 198 0
-41 203 -198 0
-42 -198 203 0
-42 -196 203 0
-42 -203 198 196 0
-43 -203 198 0
-43 203 -198 0
-44 -203 198 0
-44 203 -198 0
-45 -198 203 0
-45 -197 203 0
-45 -203 198 197 0
-46 -203 198 0
-46 203 -198 0
-47 -203 198 0
-47 203 -198 0
-48 -203 198 0
-48 -203 199 0
-48 203 -198 -199 0
-49 -203 198 0
-49 -203 200 0
-49 203 -198 -200 0
-50 -203 198 0
-50 203 -198 0
-55 -203 198 0
-55 203 -198 0
-41 -204 199 0
-41 204 -199 0
-42 -204 199 0
-42 204 -199 0
-43 -199 204 0
-43 -196 204 0
-43 -204 199 196 0
-44 -204 199 0
-44 204 -199 0
-45 -204 199 0
-45 204 -199 0
-46 -199 204 0
-46 -197 204 0
-46 -204 199 197 0
-47 -204 199 0
-47 204 -199 0
-48 -199 204 0
-48 -198 204 0
-48 -204 199 198 0
-49 -204 199 0
-49 204 -199 0
-50 -204 199 0
-50 -204 200 0
-50 204 -199 -200 0
-55 -204 199 0
-55 204 -199 0
-41 -205 200 0
-41 205 -200 0
-42 -205 200 0
-42 205 -200 0
-43 -205 200 0
-43 205 -200 0
-44 -200 205 0
-44 -196 205 0
-44 -205 200 196 0
-45 -205 200 0
-45 205 -200 0
-46 -205 200 0
-46 205 -200 0
-47 -200 205 0
-47 -197 205 0
-47 -205 200 197 0
-48 -205 200 0
-48 205 -200 0
-49 -200 205 0
-49 -198 205 0
-49 -205 200 198 0
-50 -200 205 0
-50 -199 205 0
-50 -205 200 199 0
-55 -205 200 0
-55 205 -200 0
-206 0
-1 -211 206 0
-1 -211 207 0
-1 211 -206 -207 0
-2 -211 206 0
-2 -211 208 0
-2 211 -206 -208 0
-3 -211 206 0
-3 -211 209 0
-3 211 -206 -209 0
-4 -211 206 0
-4 -211 210 0
-4 211 -206 -210 0
-5 -211 206 0
-5 211 -206 0
-6 -211 206 0
-6 211 -206 0
-7 -211 206 0
-7 211 -206 0
-8 -211 206 0
-8 211 -206 0
-9 -211 206 0
-9 211 -206 0
-10 -211 206 0
-10 211 -206 0
-51 -211 206 0
-51 211 -206 0
207 0
-1 -207 212 0
-1 -206 212 0
-1 -212 207 206 0
-2 -212 207 0
-2 212 -207 0
-3 -212 207 0
-3 212 -207 0
-4 -212 207 0
-4 212 -207 0
-5 -212 207 0
-5 -212 208 0
-5 212 -207 -208 0
-6 -212 207 0
-6 -212 209 0
-6 212 -207 -209 0
-7 -212 207 0
-7 -212 210 0
-7 212 -207 -210 0
-8 -212 207 0
-8 212 -207 0
-9 -212 207 0
-9 212 -207 0
-10 -212 207 0
-10 212 -207 0
-51 -212 207 0
-51 212 -207 0
-208 0
-1 -213 208 0
-1 213 -208 0
-2 -208 213 0
-2 -206 213 0
-2 -213 208 206 0
-3 -213 208 0
-3 213 -208 0
-4 -213 208 0
-4 213 -208 0
-5 -208 213 0
-5 -207 213 0
-5 -213 208 207 0
-6 -213 208 0
-6 213 -208 0
-7 -213 208 0
-7 213 -208 0
-8 -213 208 0
-8 -213 209 0
-8 213 -208 -209 0
-9 -213 208 0
-9 -213 210 0
-9 213 -208 -210 0
-10 -213 208 0
-10 213 -208 0
-51 -213 208 0
-51 213 -208 0
-209 0
-1 -214 209 0
-1 214 -209 0
-2 -214 209 0
-2 214 -209 0
-3 -209 214 0
-3 -206 214 0
-3 -214 209 206 0
-4 -214 209 0
-4 214 -209 0
-5 -214 209 0
-5 214 -209 0
-6 -209 214 0
-6 -207 214 0
-6 -214 209 207 0
-7 -214 209 0
-7 214 -209 0
-8 -209 214 0
-8 -208 214 0
-8 -214 209 208 0
-9 -214 209 0
-9 214 -209 0
-10 -214 209 0
-10 -214 210 0
-10 214 -209 -210 0
-51 -214 209 0
-51 214 -209 0
210 0
-1 -215 210 0
-1 215 -210 0
-2 -215 210 0
-2 215 -210 0
-3 -215 210 0
-3 215 -210 0
-4 -210 215 0
-4 -206 215 0
-4 -215 210 206 0
-5 -215 210 0
-5 215 -210 0
-6 -215 210 0
-6 215 -210 0
-7 -210 215 0
-7 -207 215 0
-7 -215 210 207 0
-8 -215 210 0
-8 215 -210 0
-9 -210 215 0
-9 -208 215 0
-9 -215 210 208 0
-10 -210 215 0
-10 -209 215 0
-10 -215 210 209 0
-51 -215 210 0
-51 215 -210 0
-11 -216 211 0
-11 -216 212 0
-11 216 -211 -212 0
-12 -216 211 0
-12 -216 213 0
-12 216 -211 -213 0
-13 -216 211 0
-13 -216 214 0
-13 216 -211 -214 0
-14 -216 211 0
-14 -216 215 0
-14 216 -211 -215 0
-15 -216 211 0
-15 216 -211 0
-16 -216 211 0
-16 216 -211 0
-17 -216 211 0
-17 216 -211 0
-18 -216 211 0
-18 216 -211 0
-19 -216 211 0
-19 216 -211 0
-20 -216 211 0
-20 216 -211 0
-52 -216 211 0
-52 216 -211 0
-11 -212 217 0
-11 -211 217 0
-11 -217 212 211 0
-12 -217 212 0
-12 217 -212 0
-13 -217 212 0
-13 217 -212 0
-14 -217 212 0
-14 217 -212 0
-15 -217 212 0
-15 -217 213 0
-15 217 -212 -213 0
-16 -217 212 0
-16 -217 214 0
-16 217 -212 -214 0
-17 -217 212 0
-17 -217 215 0
-17 217 -212 -215 0
-18 -217 212 0
-18 217 -212 0
-19 -217 212 0
-19 217 -212 0
-20 -217 212 0
-20 217 -212 0
-52 -217 212 0
-52 217 -212 0
-11 -218 213 0
-11 218 -213 0
-12 -213 218 0
-12 -211 218 0
-12 -218 213 211 0
-13 -218 213 0
-13 218 -213 0
-14 -218 213 0
-14 218 -213 0
-15 -213 218 0
-15 -212 218 0
-15 -218 213 212 0
-16 -218 213 0
-16 218 -213 0
-17 -218 213 0
-17 218 -213 0
-18 -218 213 0
-18 -218 214 0
-18 218 -213 -214 0
-19 -218 213 0
-19 -218 215 0
-19 218 -213 -215 0
-20 -218 213 0
-20 218 -213 0
-52 -218 213 0
-52 218 -213 0
-11 -219 214 0
-11 219 -214 0
-12 -219 214 0
-12 219 -214 0
-13 -214 219 0
-13 -211 219 0
-13 -219 214 211 0
-14 -219 214 0
-14 219 -214 0
-15 -219 214 0
-15 219 -214 0
-16 -214 219 0
-16 -212 219 0
-16 -219 214 212 0
-17 -219 214 0
-17 219 -214 0
-18 -214 219 0
-18 -213 219 0
-18 -219 214 213 0
-19 -219 214 0
-19 219 -214 0
-20 -219 214 0
-20 -219 215 0
-20 219 -214 -215 0
-52 -219 214 0
-52 219 -214 0
-11 -220 215 0
-11 220 -215 0
-12 -220 215 0
-12 220 -215 0
-13 -220 215 0
-13 220 -215 0
-14 -215 220 0
-14 -211 220 0
-14 -220 215 211 0
-15 -220 215 0
-15 220 -215 0
-16 -220 215 0
-16 220 -215 0
-17 -215 220 0
-17 -212 220 0
-17 -220 215 212 0
-18 -220 215 0
-18 220 -215 0
-19 -215 220 0
-19 -213 220 0
-19 -220 215 213 0
-20 -215 220 0
-20 -214 220 0
-20 -220 215 214 0
-52 -220 215 0
-52 220 -215 0
-21 -221 216 0
-21 -221 217 0
-21 221 -216 -217 0
-22 -221 216 0
-22 -221 218 0
-22 221 -216 -218 0
-23 -221 216 0
-23 -221 219 0
-23 221 -216 -219 0
-24 -221 216 0
-24 -221 220 0
-24 221 -216 -220 0
-25 -221 216 0
-25 221 -216 0
-26 -221 216 0
-26 221 -216 0
-27 -221 216 0
-27 221 -216 0
-28 -221 216 0
-28 221 -216 0
-29 -221 216 0
-29 221 -216 0
-30 -221 216 0
-30 221 -216 0
-53 -221 216 0
-53 221 -216 0
-21 -217 222 0
-21 -216 222 0
-21 -222 217 216 0
-22 -222 217 0
-22 222 -217 0
-23 -222 217 0
-23 222 -217 0
-24 -222 217 0
-24 222 -217 0
-25 -222 217 0
-25 -222 218 0
-25 222 -217 -218 0
-26 -222 217 0
-26 -222 219 0
-26 222 -217 -219 0
-27 -222 217 0
-27 -222 220 0
-27 222 -217 -220 0
-28 -222 217 0
-28 222 -217 0
-29 -222 217 0
-29 222 -217 0
-30 -222 217 0
-30 222 -217 0
-53 -222 217 0
-53 222 -217 0
-21 -223 218 0
-21 223 -218 0
-22 -218 223 0
-22 -216 223 0
-22 -223 218 216 0
-23 -223 218 0
-23 223 -218 0
-24 -223 218 0
-24 223 -218 0
-25 -218 223 0
-25 -217 223 0
-25 -223 218 217 0
-26 -223 218 0
-26 223 -218 0
-27 -223 218 0
-27 223 -218 0
-28 -223 218 0
-28 -223 219 0
-28 223 -218 -219 0
-29 -223 218 0
-29 -223 220 0
-29 223 -218 -220 0
-30 -223 218 0
-30 223 -218 0
-53 -223 218 0
-53 223 -218 0
-21 -224 219 0
-21 224 -219 0
-22 -224 219 0
-22 224 -219 0
-23 -219 224 0
-23 -216 224 0
-23 -224 219 216 0
-24 -224 219 0
-24 224 -219 0
-25 -224 219 0
-25 224 -219 0
-26 -219 224 0
-26 -217 224 0
-26 -224 219 217 0
-27 -224 219 0
-27 224 -219 0
-28 -219 224 0
-28 -218 224 0
-28 -224 219 218 0
-29 -224 219 0
-29 224 -219 0
-30 -224 219 0
-30 -224 220 0
-30 224 -219 -220 0
-53 -224 219 0
-53 224 -219 0
-21 -225 220 0
-21 225 -220 0
-22 -225 220 0
-22 225 -220 0
-23 -225 220 0
-23 225 -220 0
-24 -220 225 0
-24 -216 225 0
-24 -225 220 216 0
-25 -225 220 0
-25 225 -220 0
-26 -225 220 0
-26 225 -220 0
-27 -220 225 0
-27 -217 225 0
-27 -225 220 217 0
-28 -225 220 0
-28 225 -220 0
-29 -220 225 0
-29 -218 225 0
-29 -225 220 218 0
-30 -220 225 0
-30 -219 225 0
-30 -225 220 219 0
-53 -225 220 0
-53 225 -220 0
-31 -226 221 0
-31 -226 222 0
-31 226 -221 -222 0
-32 -226 221 0
-32 -226 223 0
-32 226 -221 -223 0
-33 -226 221 0
-33 -226 224 0
-33 226 -221 -224 0
-34 -226 221 0
-34 -226 225 0
-34 226 -221 -225 0
-35 -226 221 0
-35 226 -221 0
-36 -226 221 0
-36 226 -221 0
-37 -226 221 0
-37 226 -221 0
-38 -226 221 0
-38 226 -221 0
-39 -226 221 0
-39 226 -221 0
-40 -226 221 0
-40 226 -221 0
-54 -226 221 0
-54 226 -221 0
-31 -222 227 0
-31 -221 227 0
-31 -227 222 221 0
-32 -227 222 0
-32 227 -222 0
-33 -227 222 0
-33 227 -222 0
-34 -227 222 0
-34 227 -222 0
-35 -227 222 0
-35 -227 223 0
-35 227 -222 -223 0
-36 -227 222 0
-36 -227 224 0
-36 227 -222 -224 0
-37 -227 222 0
-37 -227 225 0
-37 227 -222 -225 0
-38 -227 222 0
-38 227 -222 0
-39 -227 222 0
-39 227 -222 0
-40 -227 222 0
-40 227 -222 0
-54 -227 222 0
-54 227 -222 0
-31 -228 223 0
-31 228 -223 0
-32 -223 228 0
-32 -221 228 0
-32 -228 223 221 0
-33 -228 223 0
-33 228 -223 0
-34 -228 223 0
-34 228 -223 0
-35 -223 228 0
-35 -222 228 0
-35 -228 223 222 0
-36 -228 223 0
-36 228 -223 0
-37 -228 223 0
-37 228 -223 0
-38 -228 223 0
-38 -228 224 0
-38 228 -223 -224 0
-39 -228 223 0
-39 -228 225 0
-39 228 -223 -225 0
-40 -228 223 0
-40 228 -223 0
-54 -228 223 0
-54 228 -223 0
-31 -229 224 0
-31 229 -224 0
-32 -229 224 0
-32 229 -224 0
-33 -224 229 0
-33 -221 229 0
-33 -229 224 221 0
-34 -229 224 0
-34 229 -224 0
-35 -229 224 0
-35 229 -224 0
-36 -224 229 0
-36 -222 229 0
-36 -229 224 222 0
-37 -229 224 0
-37 229 -224 0
-38 -224 229 0
-38 -223 229 0
-38 -229 224 223 0
-39 -229 224 0
-39 229 -224 0
-40 -229 224 0
-40 -229 225 0
-40 229 -224 -225 0
-54 -229 224 0
-54 229 -224 0
-31 -230 225 0
-31 230 -225 0
-32 -230 225 0
-32 230 -225 0
-33 -230 225 0
-33 230 -225 0
-34 -225 230 0
-34 -221 230 0
-34 -230 225 221 0
-35 -230 225 0
-35 230 -225 0
-36 -230 225 0
-36 230 -225 0
-37 -225 230 0
-37 -222 230 0
-37 -230 225 222 0
-38 -230 225 0
-38 230 -225 0
-39 -225 230 0
-39 -223 230 0
-39 -230 225 223 0
-40 -225 230 0
-40 -224 230 0
-40 -230 225 224 0
-54 -230 225 0
-54 230 -225 0
-41 -231 226 0
-41 -231 227 0
-41 231 -226 -227 0
-42 -231 226 0
-42 -231 228 0
-42 231 -226 -228 0
-43 -231 226 0
-43 -231 229 0
-43 231 -226 -229 0
-44 -231 226 0
-44 -231 230 0
-44 231 -226 -230 0
-45 -231 226 0
-45 231 -226 0
-46 -231 226 0
-46 231 -226 0
-47 -231 226 0
-47 231 -226 0
-48 -231 226 0
-48 231 -226 0
-49 -231 226 0
-49 231 -226 0
-50 -231 226 0
-50 231 -226 0
-55 -231 226 0
-55 231 -226 0
-41 -227 232 0
-41 -226 232 0
-41 -232 227 226 0
-42 -232 227 0
-42 232 -227 0
-43 -232 227 0
-43 232 -227 0
-44 -232 227 0
-44 232 -227 0
-45 -232 227 0
-45 -232 228 0
-45 232 -227 -228 0
-46 -232 227 0
-46 -232 229 0
-46 232 -227 -229 0
-47 -232 227 0
-47 -232 230 0
-47 232 -227 -230 0
-48 -232 227 0
-48 232 -227 0
-49 -232 227 0
-49 232 -227 0
-50 -232 227 0
-50 232 -227 0
-55 -232 227 0
-55 232 -227 0
-41 -233 228 0
-41 233 -228 0
-42 -228 233 0
-42 -226 233 0
-42 -233 228 226 0
-43 -233 228 0
-43 233 -228 0
-44 -233 228 0
-44 233 -228 0
-45 -228 233 0
-45 -227 233 0
-45 -233 228 227 0
-46 -233 228 0
-46 233 -228 0
-47 -233 228 0
-47 233 -228 0
-48 -233 228 0
-48 -233 229 0
-48 233 -228 -229 0
-49 -233 228 0
-49 -233 230 0
-49 233 -228 -230 0
-50 -233 228 0
-50 233 -228 0
-55 -233 228 0
-55 233 -228 0
-41 -234 229 0
-41 234 -229 0
-42 -234 229 0
-42 234 -229 0
-43 -229 234 0
-43 -226 234 0
-43 -234 229 226 0
-44 -234 229 0
-44 234 -229 0
-45 -234 229 0
-45 234 -229 0
-46 -229 234 0
-46 -227 234 0
-46 -234 229 227 0
-47 -234 229 0
-47 234 -229 0
-48 -229 234 0
-48 -228 234 0
-48 -234 229 228 0
-49 -234 229 0
-49 234 -229 0
-50 -234 229 0
-50 -234 230 0
-50 234 -229 -230 0
-55 -234 229 0
-55 234 -229 0
-41 -235 230 0
-41 235 -230 0
-42 -235 230 0
-42 235 -230 0
-43 -235 230 0
-43 235 -230 0
-44 -230 235 0
-44 -226 235 0
-44 -235 230 226 0
-45 -235 230 0
-45 235 -230 0
-46 -235 230 0
-46 235 -230 0
-47 -230 235 0
-47 -227 235 0
-47 -235 230 227 0
-48 -235 230 0
-48 235 -230 0
-49 -230 235 0
-49 -228 235 0
-49 -235 230 228 0
-50 -230 235 0
-50 -229 235 0
-50 -235 230 229 0
-55 -235 230 0
-55 235 -230 0
-236 0
-1 -241 236 0
-1 -241 237 0
-1 241 -236 -237 0
-2 -241 236 0
-2 -241 238 0
-2 241 -236 -238 0
-3 -241 236 0
-3 -241 239 0
-3 241 -236 -239 0
-4 -241 236 0
-4 -241 240 0
-4 241 -236 -240 0
-5 -241 236 0
-5 241 -236 0
-6 -241 236 0
-6 241 -236 0
-7 -241 236 0
-7 241 -236 0
-8 -241 236 0
-8 241 -236 0
-9 -241 236 0
-9 241 -236 0
-10 -241 236 0
-10 241 -236 0
-51 -241 236 0
-51 241 -236 0
237 0
-1 -237 242 0
-1 -236 242 0
-1 -242 237 236 0
-2 -242 237 0
-2 242 -237 0
-3 -242 237 0
-3 242 -237 0
-4 -242 237 0
-4 242 -237 0
-5 -242 237 0
-5 -242 238 0
-5 242 -237 -238 0
-6 -242 237 0
-6 -242 239 0
-6 242 -237 -239 0
-7 -242 237 0
-7 -242 240 0
-7 242 -237 -240 0
-8 -242 237 0
-8 242 -237 0
-9 -242 237 0
-9 242 -237 0
-10 -242 237 0
-10 242 -237 0
-51 -242 237 0
-51 242 -237 0
-238 0
-1 -243 238 0
-1 243 -238 0
-2 -238 243 0
-2 -236 243 0
-2 -243 238 236 0
-3 -243 238 0
-3 243 -238 0
-4 -243 238 0
-4 243 -238 0
-5 -238 243 0
-5 -237 243 0
-5 -243 238 237 0
-6 -243 238 0
-6 243 -238 0
-7 -243 238 0
-7 243 -238 0
-8 -243 238 0
-8 -243 239 0
-8 243 -238 -239 0
-9 -243 238 0
-9 -243 240 0
-9 243 -238 -240 0
-10 -243 238 0
-10 243 -238 0
-51 -243 238 0
-51 243 -238 0
239 0
-1 -244 239 0
-1 244 -239 0
-2 -244 239 0
-2 244 -239 0
-3 -239 244 0
-3 -236 244 0
-3 -244 239 236 0
-4 -244 239 0
-4 244 -239 0
-5 -244 239 0
-5 244 -239 0
-6 -239 244 0
-6 -237 244 0
-6 -244 239 237 0
-7 -244 239 0
-7 244 -239 0
-8 -239 244 0
-8 -238 244 0
-8 -244 239 238 0
-9 -244 239 0
-9 244 -239 0
-10 -244 239 0
-10 -244 240 0
-10 244 -239 -240 0
-51 -244 239 0
-51 244 -239 0
240 0
-1 -245 240 0
-1 245 -240 0
-2 -245 240 0
-2 245 -240 0
-3 -245 240 0
-3 245 -240 0
-4 -240 245 0
-4 -236 245 0
-4 -245 240 236 0
-5 -245 240 0
-5 245 -240 0
-6 -245 240 0
-6 245 -240 0
-7 -240 245 0
-7 -237 245 0
-7 -245 240 237 0
-8 -245 240 0
-8 245 -240 0
-9 -240 245 0
-9 -238 245 0
-9 -245 240 238 0
-10 -240 245 0
-10 -239 245 0
-10 -245 240 239 0
-51 -245 240 0
-51 245 -240 0
-11 -246 241 0
-11 -246 242 0
-11 246 -241 -242 0
-12 -246 241 0
-12 -246 243 0
-12 246 -241 -243 0
-13 -246 241 0
-13 -246 244 0
-13 246 -241 -244 0
-14 -246 241 0
-14 -246 245 0
-14 246 -241 -245 0
-15 -246 241 0
-15 246 -241 0
-16 -246 241 0
-16 246 -241 0
-17 -246 241 0
-17 246 -241 0
-18 -246 241 0
-18 246 -241 0
-19 -246 241 0
-19 246 -241 0
-20 -246 241 0
-20 246 -241 0
-52 -246 241 0
-52 246 -241 0
-11 -242 247 0
-11 -241 247 0
-11 -247 242 241 0
-12 -247 242 0
-12 247 -242 0
-13 -247 242 0
-13 247 -242 0
-14 -247 242 0
-14 247 -242 0
-15 -247 242 0
-15 -247 243 0
-15 247 -242 -243 0
-16 -247 242 0
-16 -247 244 0
-16 247 -242 -244 0
-17 -247 242 0
-17 -247 245 0
-17 247 -242 -245 0
-18 -247 242 0
-18 247 -242 0
-19 -247 242 0
-19 247 -242 0
-20 -247 242 0
-20 247 -242 0
-52 -247 242 0
-52 247 -242 0
-11 -248 243 0
-11 248 -243 0
-12 -243 248 0
-12 -241 248 0
-12 -248 243 241 0
-13 -248 243 0
-13 248 -243 0
-14 -248 243 0
-14 248 -243 0
-15 -243 248 0
-15 -242 248 0
-15 -248 243 242 0
-16 -248 243 0
-16 248 -243 0
-17 -248 243 0
-17 248 -243 0
-18 -248 243 0
-18 -248 244 0
-18 248 -243 -244 0
-19 -248 243 0
-19 -248 245 0
-19 248 -243 -245 0
-20 -248 243 0
-20 248 -243 0
-52 -248 243 0
-52 248 -243 0
-11 -249 244 0
-11 249 -244 0
-12 -249 244 0
-12 249 -244 0
-13 -244 249 0
-13 -241 249 0
-13 -249 244 241 0
-14 -249 244 0
-14 249 -244 0
-15 -249 244 0
-15 249 -244 0
-16 -244 249 0
-16 -242 249 0
-16 -249 244 242 0
-17 -249 244 0
-17 249 -244 0
-18 -244 249 0
-18 -243 249 0
-18 -249 244 243 0
-19 -249 244 0
-19 249 -244 0
-20 -249 244 0
-20 -249 245 0
-20 249 -244 -245 0
-52 -249 244 0
-52 249 -244 0
-11 -250 245 0
-11 250 -245 0
-12 -250 245 0
-12 250 -245 0
-13 -250 245 0
-13 250 -245 0
-14 -245 250 0
-14 -241 250 0
-14 -250 245 241 0
-15 -250 245 0
-15 250 -245 0
-16 -250 245 0
-16 250 -245 0
-17 -245 250 0
-17 -242 250 0
-17 -250 245 242 0
-18 -250 245 0
-18 250 -245 0
-19 -245 250 0
-19 -243 250 0
-19 -250 245 243 0
-20 -245 250 0
-20 -244 250 0
-20 -250 245 244 0
-52 -250 245 0
-52 250 -245 0
-21 -251 246 0
-21 -251 247 0
-21 251 -246 -247 0
-22 -251 246 0
-22 -251 248 0
-22 251 -246 -248 0
-23 -251 246 0
-23 -251 249 0
-23 251 -246 -249 0
-24 -251 246 0
-24 -251 250 0
-24 251 -246 -250 0
-25 -251 246 0
-25 251 -246 0
-26 -251 246 0
-26 251 -246 0
-27 -251 246 0
-27 251 -246 0
-28 -251 246 0
-28 251 -246 0
-29 -251 246 0
-29 251 -246 0
-30 -251 246 0
-30 251 -246 0
-53 -251 246 0
-53 251 -246 0
-21 -247 252 0
-21 -246 252 0
-21 -252 247 246 0
-22 -252 247 0
-22 252 -247 0
-23 -252 247 0
-23 252 -247 0
-24 -252 247 0
-24 252 -247 0
-25 -252 247 0
-25 -252 248 0
-25 252 -247 -248 0
-26 -252 247 0
-26 -252 249 0
-26 252 -247 -249 0
-27 -252 247 0
-27 -252 250 0
-27 252 -247 -250 0
-28 -252 247 0
-28 252 -247 0
-29 -252 247 0
-29 252 -247 0
-30 -252 247 0
-30 252 -247 0
-53 -252 247 0
-53 252 -247 0
-21 -253 248 0
-21 253 -248 0
-22 -248 253 0
-22 -246 253 0
-22 -253 248 246 0
-23 -253 248 0
-23 253 -248 0
-24 -253 248 0
-24 253 -248 0
-25 -248 253 0
-25 -247 253 0
-25 -253 248 247 0
-26 -253 248 0
-26 253 -248 0
-27 -253 248 0
-27 253 -248 0
-28 -253 248 0
-28 -253 249 0
-28 253 -248 -249 0
-29 -253 248 0
-29 -253 250 0
-29 253 -248 -250 0
-30 -253 248 0
-30 253 -248 0
-53 -253 248 0
-53 253 -248 0
-21 -254 249 0
-21 254 -249 0
-22 -254 249 0
-22 254 -249 0
-23 -249 254 0
-23 -246 254 0
-23 -254 249 246 0
-24 -254 249 0
-24 254 -249 0
-25 -254 249 0
-25 254 -249 0
-26 -249 254 0
-26 -247 254 0
-26 -254 249 247 0
-27 -254 249 0
-27 254 -249 0
-28 -249 254 0
-28 -248 254 0
-28 -254 249 248 0
-29 -254 249 0
-29 254 -249 0
-30 -254 249 0
-30 -254 250 0
-30 254 -249 -250 0
-53 -254 249 0
-53 254 -249 0
-21 -255 250 0
-21 255 -250 0
-22 -255 250 0
-22 255 -250 0
-23 -255 250 0
-23 255 -250 0
-24 -250 255 0
-24 -246 255 0
-24 -255 250 246 0
-25 -255 250 0
-25 255 -250 0
-26 -255 250 0
-26 255 -250 0
-27 -250 255 0
-27 -247 255 0
-27 -255 250 247 0
-28 -255 250 0
-28 255 -250 0
-29 -250 255 0
-29 -248 255 0
-29 -255 250 248 0
-30 -250 255 0
-30 -249 255 0
-30 -255 250 249 0
-53 -255 250 0
-53 255 -250 0
-31 -256 251 0
-31 -256 252 0
-31 256 -251 -252 0
-32 -256 251 0
-32 -256 253 0
-32 256 -251 -253 0
-33 -256 251 0
-33 -256 254 0
-33 256 -251 -254 0
-34 -256 251 0
-34 -256 255 0
-34 256 -251 -255 0
-35 -256 251 0
-35 256 -251 0
-36 -256 251 0
-36 256 -251 0
-37 -256 251 0
-37 256 -251 0
-38 -256 251 0
-38 256 -251 0
-39 -256 251 0
-39 256 -251 0
-40 -256 251 0
-40 256 -251 0
-54 -256 251 0
-54 256 -251 0
-31 -252 257 0
-31 -251 257 0
-31 -257 252 251 0
-32 -257 252 0
-32 257 -252 0
-33 -257 252 0
-33 257 -252 0
-34 -257 252 0
-34 257 -252 0
-35 -257 252 0
-35 -257 253 0
-35 257 -252 -253 0
-36 -257 252 0
-36 -257 254 0
-36 257 -252 -254 0
-37 -257 252 0
-37 -257 255 0
-37 257 -252 -255 0
-38 -257 252 0
-38 257 -252 0
-39 -257 252 0
-39 257 -252 0
-40 -257 252 0
-40 257 -252 0
-54 -257 252 0
-54 257 -252 0
-31 -258 253 0
-31 258 -253 0
-32 -253 258 0
-32 -251 258 0
-32 -258 253 251 0
-33 -258 253 0
-33 258 -253 0
-34 -258 253 0
-34 258 -253 0
-35 -253 258 0
-35 -252 258 0
-35 -258 253 252 0
-36 -258 253 0
-36 258 -253 0
-37 -258 253 0
-37 258 -253 0
-38 -258 253 0
-38 -258 254 0
-38 258 -253 -254 0
-39 -258 253 0
-39 -258 255 0
-39 258 -253 -255 0
-40 -258 253 0
-40 258 -253 0
-54 -258 253 0
-54 258 -253 0
-31 -259 254 0
-31 259 -254 0
-32 -259 254 0
-32 259 -254 0
-33 -254 259 0
-33 -251 259 0
-33 -259 254 251 0
-34 -259 254 0
-34 259 -254 0
-35 -259 254 0
-35 259 -254 0
-36 -254 259 0
-36 -252 259 0
-36 -259 254 252 0
-37 -259 254 0
-37 259 -254 0
-38 -254 259 0
-38 -253 259 0
-38 -259 254 253 0
-39 -259 254 0
-39 259 -254 0
-40 -259 254 0
-40 -259 255 0
-40 259 -254 -255 0
-54 -259 254 0
-54 259 -254 0
-31 -260 255 0
-31 260 -255 0
-32 -260 255 0
-32 260 -255 0
-33 -260 255 0
-33 260 -255 0
-34 -255 260 0
-34 -251 260 0
-34 -260 255 251 0
-35 -260 255 0
-35 260 -255 0
-36 -260 255 0
-36 260 -255 0
-37 -255 260 0
-37 -252 260 0
-37 -260 255 252 0
-38 -260 255 0
-38 260 -255 0
-39 -255 260 0
-39 -253 260 0
-39 -260 255 253 0
-40 -255 260 0
-40 -254 260 0
-40 -260 255 254 0
-54 -260 255 0
-54 260 -255 0
-41 -261 256 0
-41 -261 257 0
-41 261 -256 -257 0
-42 -261 256 0
-42 -261 258 0
-42 261 -256 -258 0
-43 -261 256 0
-43 -261 259 0
-43 261 -256 -259 0
-44 -261 256 0
-44 -261 260 0
-44 261 -256 -260 0
-45 -261 256 0
-45 261 -256 0
-46 -261 256 0
-46 261 -256 0
-47 -261 256 0
-47 261 -256 0
-48 -261 256 0
-48 261 -256 0
-49 -261 256 0
-49 261 -256 0
-50 -261 256 0
-50 261 -256 0
-55 -261 256 0
-55 261 -256 0
-41 -257 262 0
-41 -256 262 0
-41 -262 257 256 0
-42 -262 257 0
-42 262 -257 0
-43 -262 257 0
-43 262 -257 0
-44 -262 257 0
-44 262 -257 0
-45 -262 257 0
-45 -262 258 0
-45 262 -257 -258 0
-46 -262 257 0
-46 -262 259 0
-46 262 -257 -259 0
-47 -262 257 0
-47 -262 260 0
-47 262 -257 -260 0
-48 -262 257 0
-48 262 -257 0
-49 -262 257 0
-49 262 -257 0
-50 -262 257 0
-50 262 -257 0
-55 -262 257 0
-55 262 -257 0
-41 -263 258 0
-41 263 -258 0
-42 -258 263 0
-42 -256 263 0
-42 -263 258 256 0
-43 -263 258 0
-43 263 -258 0
-44 -263 258 0
-44 263 -258 0
-45 -258 263 0
-45 -257 263 0
-45 -263 258 257 0
-46 -263 258 0
-46 263 -258 0
-47 -263 258 0
-47 263 -258 0
-48 -263 258 0
-48 -263 259 0
-48 263 -258 -259 0
-49 -263 258 0
-49 -263 260 0
-49 263 -258 -260 0
-50 -263 258 0
-50 263 -258 0
-55 -263 258 0
-55 263 -258 0
-41 -264 259 0
-41 264 -259 0
-42 -264 259 0
-42 264 -259 0
-43 -259 264 0
-43 -256 264 0
-43 -264 259 256 0
-44 -264 259 0
-44 264 -259 0
-45 -264 259 0
-45 264 -259 0
-46 -259 264 0
-46 -257 264 0
-46 -264 259 257 0
-47 -264 259 0
-47 264 -259 0
-48 -259 264 0
-48 -258 264 0
-48 -264 259 258 0
-49 -264 259 0
-49 264 -259 0
-50 -264 259 0
-50 -264 260 0
-50 264 -259 -260 0
-55 -264 259 0
-55 264 -259 0
-41 -265 260 0
-41 265 -260 0
-42 -265 260 0
-42 265 -260 0
-43 -265 260 0
-43 265 -260 0
-44 -260 265 0
-44 -256 265 0
-44 -265 260 256 0
-45 -265 260 0
-45 265 -260 0
-46 -265 260 0
-46 265 -260 0
-47 -260 265 0
-47 -257 265 0
-47 -265 260 257 0
-48 -265 260 0
-48 265 -260 0
-49 -260 265 0
-49 -258 265 0
-49 -265 260 258 0
-50 -260 265 0
-50 -259 265 0
-50 -265 260 259 0
-55 -265 260 0
-55 265 -260 0
-266 0
-1 -271 266 0
-1 -271 267 0
-1 271 -266 -267 0
-2 -271 266 0
-2 -271 268 0
-2 271 -266 -268 0
-3 -271 266 0
-3 -271 269 0
-3 271 -266 -269 0
-4 -271 266 0
-4 -271 270 0
-4 271 -266 -270 0
-5 -271 266 0
-5 271 -266 0
-6 -271 266 0
-6 271 -266 0
-7 -271 266 0
-7 271 -266 0
-8 -271 266 0
-8 271 -266 0
-9 -271 266 0
-9 271 -266 0
-10 -271 266 0
-10 271 -266 0
-51 -271 266 0
-51 271 -266 0
267 0
-1 -267 272 0
-1 -266 272 0
-1 -272 267 266 0
-2 -272 267 0
-2 272 -267 0
-3 -272 267 0
-3 272 -267 0
-4 -272 267 0
-4 272 -267 0
-5 -272 267 0
-5 -272 268 0
-5 272 -267 -268 0
-6 -272 267 0
-6 -272 269 0
-6 272 -267 -269 0
-7 -272 267 0
-7 -272 270 0
-7 272 -267 -270 0
-8 -272 267 0
-8 272 -267 0
-9 -272 267 0
-9 272 -267 0
-10 -272 267 0
-10 272 -267 0
-51 -272 267 0
-51 272 -267 0
268 0
-1 -273 268 0
-1 273 -268 0
-2 -268 273 0
-2 -266 273 0
-2 -273 268 266 0
-3 -273 268 0
-3 273 -268 0
-4 -273 268 0
-4 273 -268 0
-5 -268 273 0
-5 -267 273 0
-5 -273 268 267 0
-6 -273 268 0
-6 273 -268 0
-7 -273 268 0
-7 273 -268 0
-8 -273 268 0
-8 -273 269 0
-8 273 -268 -269 0
-9 -273 268 0
-9 -273 270 0
-9 273 -268 -270 0
-10 -273 268 0
-10 273 -268 0
-51 -273 268 0
-51 273 -268 0
269 0
-1 -274 269 0
-1 274 -269 0
-2 -274 269 0
-2 274 -269 0
-3 -269 274 0
-3 -266 274 0
-3 -274 269 266 0
-4 -274 269 0
-4 274 -269 0
-5 -274 269 0
-5 274 -269 0
-6 -269 274 0
-6 -267 274 0
-6 -274 269 267 0
-7 -274 269 0
-7 274 -269 0
-8 -269 274 0
-8 -268 274 0
-8 -274 269 268 0
-9 -274 269 0
-9 274 -269 0
-10 -274 269 0
-10 -274 270 0
-10 274 -269 -270 0
-51 -274 269 0
-51 274 -269 0
270 0
-1 -275 270 0
-1 275 -270 0
-2 -275 270 0
-2 275 -270 0
-3 -275 270 0
-3 275 -270 0
-4 -270 275 0
-4 -266 275 0
-4 -275 270 266 0
-5 -275 270 0
-5 275 -270 0
-6 -275 270 0
-6 275 -270 0
-7 -270 275 0
-7 -267 275 0
-7 -275 270 267 0
-8 -275 270 0
-8 275 -270 0
-9 -270 275 0
-9 -268 275 0
-9 -275 270 268 0
-10 -270 275 0
-10 -269 275 0
-10 -275 270 269 0
-51 -275 270 0
-51 275 -270 0
-11 -276 271 0
-11 -276 272 0
-11 276 -271 -272 0
-12 -276 271 0
-12 -276 273 0
-12 276 -271 -273 0
-13 -276 271 0
-13 -276 274 0
-13 276 -271 -274 0
-14 -276 271 0
-14 -276 275 0
-14 276 -271 -275 0
-15 -276 271 0
-15 276 -271 0
-16 -276 271 0
-16 276 -271 0
-17 -276 271 0
-17 276 -271 0
-18 -276 271 0
-18 276 -271 0
-19 -276 271 0
-19 276 -271 0
-20 -276 271 0
-20 276 -271 0
-52 -276 271 0
-52 276 -271 0
-11 -272 277 0
-11 -271 277 0
-11 -277 272 271 0
-12 -277 272 0
-12 277 -272 0
-13 -277 272 0
-13 277 -272 0
-14 -277 272 0
-14 277 -272 0
-15 -277 272 0
-15 -277 273 0
-15 277 -272 -273 0
-16 -277 272 0
-16 -277 274 0
-16 277 -272 -274 0
-17 -277 272 0
-17 -277 275 0
-17 277 -272 -275 0
-18 -277 272 0
-18 277 -272 0
-19 -277 272 0
-19 277 -272 0
-20 -277 272 0
-20 277 -272 0
-52 -277 272 0
-52 277 -272 0
-11 -278 273 0
-11 278 -273 0
-12 -273 278 0
-12 -271 278 0
-12 -278 273 271 0
-13 -278 273 0
-13 278 -273 0
-14 -278 273 0
-14 278 -273 0
-15 -273 278 0
-15 -272 278 0
-15 -278 273 272 0
-16 -278 273 0
-16 278 -273 0
-17 -278 273 0
-17 278 -273 0
-18 -278 273 0
-18 -278 274 0
-18 278 -273 -274 0
-19 -278 273 0
-19 -278 275 0
-19 278 -273 -275 0
-20 -278 273 0
-20 278 -273 0
-52 -278 273 0
-52 278 -273 0
-11 -279 274 0
-11 279 -274 0
-12 -279 274 0
-12 279 -274 0
-13 -274 279 0
-13 -271 279 0
-13 -279 274 271 0
-14 -279 274 0
-14 279 -274 0
-15 -279 274 0
-15 279 -274 0
-16 -274 279 0
-16 -272 279 0
-16 -279 274 272 0
-17 -279 274 0
-17 279 -274 0
-18 -274 279 0
-18 -273 279 0
-18 -279 274 273 0
-19 -279 274 0
-19 279 -274 0
-20 -279 274 0
-20 -279 275 0
-20 279 -274 -275 0
-52 -279 274 0
-52 279 -274 0
-11 -280 275 0
-11 280 -275 0
-12 -280 275 0
-12 280 -275 0
-13 -280 275 0
-13 280 -275 0
-14 -275 280 0
-14 -271 280 0
-14 -280 275 271 0
-15 -280 275 0
-15 280 -275 0
-16 -280 275 0
-16 280 -275 0
-17 -275 280 0
-17 -272 280 0
-17 -280 275 272 0
-18 -280 275 0
-18 280 -275 0
-19 -275 280 0
-19 -273 280 0
-19 -280 275 273 0
-20 -275 280 0
-20 -274 280 0
-20 -280 275 274 0
-52 -280 275 0
-52 280 -275 0
-21 -281 276 0
-21 -281 277 0
-21 281 -276 -277 0
-22 -281 276 0
-22 -281 278 0
-22 281 -276 -278 0
-23 -281 276 0
-23 -281 279 0
-23 281 -276 -279 0
-24 -281 276 0
-24 -281 280 0
-24 281 -276 -280 0
-25 -281 276 0
-25 281 -276 0
-26 -281 276 0
-26 281 -276 0
-27 -281 276 0
-27 281 -276 0
-28 -281 276 0
-28 281 -276 0
-29 -281 276 0
-29 281 -276 0
-30 -281 276 0
-30 281 -276 0
-53 -281 276 0
-53 281 -276 0
-21 -277 282 0
-21 -276 282 0
-21 -282 277 276 0
-22 -282 277 0
-22 282 -277 0
-23 -282 277 0
-23 282 -277 0
-24 -282 277 0
-24 282 -277 0
-25 -282 277 0
-25 -282 278 0
-25 282 -277 -278 0
-26 -282 277 0
-26 -282 279 0
-26 282 -277 -279 0
-27 -282 277 0
-27 -282 280 0
-27 282 -277 -280 0
-28 -282 277 0
-28 282 -277 0
-29 -282 277 0
-29 282 -277 0
-30 -282 277 0
-30 282 -277 0
-53 -282 277 0
-53 282 -277 0
-21 -283 278 0
-21 283 -278 0
-22 -278 283 0
-22 -276 283 0
-22 -283 278 276 0
-23 -283 278 0
-23 283 -278 0
-24 -283 278 0
-24 283 -278 0
-25 -278 283 0
-25 -277 283 0
-25 -283 278 277 0
-26 -283 278 0
-26 283 -278 0
-27 -283 278 0
-27 283 -278 0
-28 -283 278 0
-28 -283 279 0
-28 283 -278 -279 0
-29 -283 278 0
-29 -283 280 0
-29 283 -278 -280 0
-30 -283 278 0
-30 283 -278 0
-53 -283 278 0
-53 283 -278 0
-21 -284 279 0
-21 284 -279 0
-22 -284 279 0
-22 284 -279 0
-23 -279 284 0
-23 -276 284 0
-23 -284 279 276 0
-24 -284 279 0
-24 284 -279 0
-25 -284 279 0
-25 284 -279 0
-26 -279 284 0
-26 -277 284 0
-26 -284 279 277 0
-27 -284 279 0
-27 284 -279 0
-28 -279 284 0
-28 -278 284 0
-28 -284 279 278 0
-29 -284 279 0
-29 284 -279 0
-30 -284 279 0
-30 -284 280 0
-30 284 -279 -280 0
-53 -284 279 0
-53 284 -279 0
-21 -285 280 0
-21 285 -280 0
-22 -285 280 0
-22 285 -280 0
-23 -285 280 0
-23 285 -280 0
-24 -280 285 0
-24 -276 285 0
-24 -285 280 276 0
-25 -285 280 0
-25 285 -280 0
-26 -285 280 0
-26 285 -280 0
-27 -280 285 0
-27 -277 285 0
-27 -285 280 277 0
-28 -285 280 0
-28 285 -280 0
-29 -280 285 0
-29 -278 285 0
-29 -285 280 278 0
-30 -280 285 0
-30 -279 285 0
-30 -285 280 279 0
-53 -285 280 0
-53 285 -280 0
-31 -286 281 0
-31 -286 282 0
-31 286 -281 -282 0
-32 -286 281 0
-32 -286 283 0
-32 286 -281 -283 0
-33 -286 281 0
-33 -286 284 0
-33 286 -281 -284 0
-34 -286 281 0
-34 -286 285 0
-34 286 -281 -285 0
-35 -286 281 0
-35 286 -281 0
-36 -286 281 0
-36 286 -281 0
-37 -286 281 0
-37 286 -281 0
-38 -286 281 0
-38 286 -281 0
-39 -286 281 0
-39 286 -281 0
-40 -286 281 0
-40 286 -281 0
-54 -286 281 0
-54 286 -281 0
-31 -282 287 0
-31 -281 287 0
-31 -287 282 281 0
-32 -287 282 0
-32 287 -282 0
-33 -287 282 0
-33 287 -282 0
-34 -287 282 0
-34 287 -282 0
-35 -287 282 0
-35 -287 283 0
-35 287 -282 -283 0
-36 -287 282 0
-36 -287 284 0
-36 287 -282 -284 0
-37 -287 282 0
-37 -287 285 0
-37 287 -282 -285 0
-38 -287 282 0
-38 287 -282 0
-39 -287 282 0
-39 287 -282 0
-40 -287 282 0
-40 287 -282 0
-54 -287 282 0
-54 287 -282 0
-31 -288 283 0
-31 288 -283 0
-32 -283 288 0
-32 -281 288 0
-32 -288 283 281 0
-33 -288 283 0
-33 288 -283 0
-34 -288 283 0
-34 288 -283 0
-35 -283 288 0
-35 -282 288 0
-35 -288 283 282 0
-36 -288 283 0
-36 288 -283 0
-37 -288 283 0
-37 288 -283 0
-38 -288 283 0
-38 -288 284 0
-38 288 -283 -284 0
-39 -288 283 0
-39 -288 285 0
-39 288 -283 -285 0
-40 -288 283 0
-40 288 -283 0
-54 -288 283 0
-54 288 -283 0
-31 -289 284 0
-31 289 -284 0
-32 -289 284 0
-32 289 -284 0
-33 -284 289 0
-33 -281 289 0
-33 -289 284 281 0
-34 -289 284 0
-34 289 -284 0
-35 -289 284 0
-35 289 -284 0
-36 -284 289 0
-36 -282 289 0
-36 -289 284 282 0
-37 -289 284 0
-37 289 -284 0
-38 -284 289 0
-38 -283 289 0
-38 -289 284 283 0
-39 -289 284 0
-39 289 -284 0
-40 -289 284 0
-40 -289 285 0
-40 289 -284 -285 0
-54 -289 284 0
-54 289 -284 0
-31 -290 285 0
-31 290 -285 0
-32 -290 285 0
-32 290 -285 0
-33 -290 285 0
-33 290 -285 0
-34 -285 290 0
-34 -281 290 0
-34 -290 285 281 0
-35 -290 285 0
-35 290 -285 0
-36 -290 285 0
-36 290 -285 0
-37 -285 290 0
-37 -282 290 0
-37 -290 285 282 0
-38 -290 285 0
-38 290 -285 0
-39 -285 290 0
-39 -283 290 0
-39 -290 285 283 0
-40 -285 290 0
-40 -284 290 0
-40 -290 285 284 0
-54 -290 285 0
-54 290 -285 0
-41 -291 286 0
-41 -291 287 0
-41 291 -286 -287 0
-42 -291 286 0
-42 -291 288 0
-42 291 -286 -288 0
-43 -291 286 0
-43 -291 289 0
-43 291 -286 -289 0
-44 -291 286 0
-44 -291 290 0
-44 291 -286 -290 0
-45 -291 286 0
-45 291 -286 0
-46 -291 286 0
-46 291 -286 0
-47 -291 286 0
-47 291 -286 0
-48 -291 286 0
-48 291 -286 0
-49 -291 286 0
-49 291 -286 0
-50 -291 286 0
-50 291 -286 0
-55 -291 286 0
-55 291 -286 0
-41 -287 292 0
-41 -286 292 0
-41 -292 287 286 0
-42 -292 287 0
-42 292 -287 0
-43 -292 287 0
-43 292 -287 0
-44 -292 287 0
-44 292 -287 0
-45 -292 287 0
-45 -292 288 0
-45 292 -287 -288 0
-46 -292 287 0
-46 -292 289 0
-46 292 -287 -289 0
-47 -292 287 0
-47 -292 290 0
-47 292 -287 -290 0
-48 -292 287 0
-48 292 -287 0
-49 -292 287 0
-49 292 -287 0
-50 -292 287 0
-50 292 -287 0
-55 -292 287 0
-55 292 -287 0
-41 -293 288 0
-41 293 -288 0
-42 -288 293 0
-42 -286 293 0
-42 -293 288 286 0
-43 -293 288 0
-43 293 -288 0
-44 -293 288 0
-44 293 -288 0
-45 -288 293 0
-45 -287 293 0
-45 -293 288 287 0
-46 -293 288 0
-46 293 -288 0
-47 -293 288 0
-47 293 -288 0
-48 -293 288 0
-48 -293 289 0
-48 293 -288 -289 0
-49 -293 288 0
-49 -293 290 0
-49 293 -288 -290 0
-50 -293 288 0
-50 293 -288 0
-55 -293 288 0
-55 293 -288 0
-41 -294 289 0
-41 294 -289 0
-42 -294 289 0
-42 294 -289 0
-43 -289 294 0
-43 -286 294 0
-43 -294 289 286 0
-44 -294 289 0
-44 294 -289 0
-45 -294 289 0
-45 294 -289 0
-46 -289 294 0
-46 -287 294 0
-46 -294 289 287 0
-47 -294 289 0
-47 294 -289 0
-48 -289 294 0
-48 -288 294 0
-48 -294 289 288 0
-49 -294 289 0
-49 294 -289 0
-50 -294 289 0
-50 -294 290 0
-50 294 -289 -290 0
-55 -294 289 0
-55 294 -289 0
-41 -295 290 0
-41 295 -290 0
-42 -295 290 0
-42 295 -290 0
-43 -295 290 0
-43 295 -290 0
-44 -290 295 0
-44 -286 295 0
-44 -295 290 286 0
-45 -295 290 0
-45 295 -290 0
-46 -295 290 0
-46 295 -290 0
-47 -290 295 0
-47 -287 295 0
-47 -295 290 287 0
-48 -295 290 0
-48 295 -290 0
-49 -290 295 0
-49 -288 295 0
-49 -295 290 288 0
-50 -290 295 0
-50 -289 295 0
-50 -295 290 289 0
-55 -295 290 0
-55 295 -290 0
296 0
-1 -301 296 0
-1 -301 297 0
-1 301 -296 -297 0
-2 -301 296 0
-2 -301 298 0
-2 301 -296 -298 0
-3 -301 296 0
-3 -301 299 0
-3 301 -296 -299 0
-4 -301 296 0
-4 -301 300 0
-4 301 -296 -300 0
-5 -301 296 0
-5 301 -296 0
-6 -301 296 0
-6 301 -296 0
-7 -301 296 0
-7 301 -296 0
-8 -301 296 0
-8 301 -296 0
-9 -301 296 0
-9 301 -296 0
-10 -301 296 0
-10 301 -296 0
-51 -301 296 0
-51 301 -296 0
297 0
-1 -297 302 0
-1 -296 302 0
-1 -302 297 296 0
-2 -302 297 0
-2 302 -297 0
-3 -302 297 0
-3 302 -297 0
-4 -302 297 0
-4 302 -297 0
-5 -302 297 0
-5 -302 298 0
-5 302 -297 -298 0
-6 -302 297 0
-6 -302 299 0
-6 302 -297 -299 0
-7 -302 297 0
-7 -302 300 0
-7 302 -297 -300 0
-8 -302 297 0
-8 302 -297 0
-9 -302 297 0
-9 302 -297 0
-10 -302 297 0
-10 302 -297 0
-51 -302 297 0
-51 302 -297 0
-298 0
-1 -303 298 0
-1 303 -298 0
-2 -298 303 0
-2 -296 303 0
-2 -303 298 296 0
-3 -303 298 0
-3 303 -298 0
-4 -303 298 0
-4 303 -298 0
-5 -298 303 0
-5 -297 303 0
-5 -303 298 297 0
-6 -303 298 0
-6 303 -298 0
-7 -303 298 0
-7 303 -298 0
-8 -303 298 0
-8 -303 299 0
-8 303 -298 -299 0
-9 -303 298 0
-9 -303 300 0
-9 303 -298 -300 0
-10 -303 298 0
-10 303 -298 0
-51 -303 298 0
-51 303 -298 0
-299 0
-1 -304 299 0
-1 304 -299 0
-2 -304 299 0
-2 304 -299 0
-3 -299 304 0
-3 -296 304 0
-3 -304 299 296 0
-4 -304 299 0
-4 304 -299 0
-5 -304 299 0
-5 304 -299 0
-6 -299 304 0
-6 -297 304 0
-6 -304 299 297 0
-7 -304 299 0
-7 304 -299 0
-8 -299 304 0
-8 -298 304 0
-8 -304 299 298 0
-9 -304 299 0
-9 304 -299 0
-10 -304 299 0
-10 -304 300 0
-10 304 -299 -300 0
-51 -304 299 0
-51 304 -299 0
-300 0
-1 -305 300 0
-1 305 -300 0
-2 -305 300 0
-2 305 -300 0
-3 -305 300 0
-3 305 -300 0
-4 -300 305 0
-4 -296 305 0
-4 -305 300 296 0
-5 -305 300 0
-5 305 -300 0
-6 -305 300 0
-6 305 -300 0
-7 -300 305 0
-7 -297 305 0
-7 -305 300 297 0
-8 -305 300 0
-8 305 -300 0
-9 -300 305 0
-9 -298 305 0
-9 -305 300 298 0
-10 -300 305 0
-10 -299 305 0
-10 -305 300 299 0
-51 -305 300 0
-51 305 -300 0
-11 -306 301 0
-11 -306 302 0
-11 306 -301 -302 0
-12 -306 301 0
-12 -306 303 0
-12 306 -301 -303 0
-13 -306 301 0
-13 -306 304 0
-13 306 -301 -304 0
-14 -306 301 0
-14 -306 305 0
-14 306 -301 -305 0
-15 -306 301 0
-15 306 -301 0
-16 -306 301 0
-16 306 -301 0
-17 -306 301 0
-17 306 -301 0
-18 -306 301 0
-18 306 -301 0
-19 -306 301 0
-19 306 -301 0
-20 -306 301 0
-20 306 -301 0
-52 -306 301 0
-52 306 -301 0
-11 -302 307 0
-11 -301 307 0
-11 -307 302 301 0
-12 -307 302 0
-12 307 -302 0
-13 -307 302 0
-13 307 -302 0
-14 -307 302 0
-14 307 -302 0
-15 -307 302 0
-15 -307 303 0
-15 307 -302 -303 0
-16 -307 302 0
-16 -307 304 0
-16 307 -302 -304 0
-17 -307 302 0
-17 -307 305 0
-17 307 -302 -305 0
-18 -307 302 0
-18 307 -302 0
-19 -307 302 0
-19 307 -302 0
-20 -307 302 0
-20 307 -302 0
-52 -307 302 0
-52 307 -302 0
-11 -308 303 0
-11 308 -303 0
-12 -303 308 0
-12 -301 308 0
-12 -308 303 301 0
-13 -308 303 0
-13 308 -303 0
-14 -308 303 0
-14 308 -303 0
-15 -303 308 0
-15 -302 308 0
-15 -308 303 302 0
-16 -308 303 0
-16 308 -303 0
-17 -308 303 0
-17 308 -303 0
-18 -308 303 0
-18 -308 304 0
-18 308 -303 -304 0
-19 -308 303 0
-19 -308 305 0
-19 308 -303 -305 0
-20 -308 303 0
-20 308 -303 0
-52 -308 303 0
-52 308 -303 0
-11 -309 304 0
-11 309 -304 0
-12 -309 304 0
-12 309 -304 0
-13 -304 309 0
-13 -301 309 0
-13 -309 304 301 0
-14 -309 304 0
-14 309 -304 0
-15 -309 304 0
-15 309 -304 0
-16 -304 309 0
-16 -302 309 0
-16 -309 304 302 0
-17 -309 304 0
-17 309 -304 0
-18 -304 309 0
-18 -303 309 0
-18 -309 304 303 0
-19 -309 304 0
-19 309 -304 0
-20 -309 304 0
-20 -309 305 0
-20 309 -304 -305 0
-52 -309 304 0
-52 309 -304 0
-11 -310 305 0
-11 310 -305 0
-12 -310 305 0
-12 310 -305 0
-13 -310 305 0
-13 310 -305 0
-14 -305 310 0
-14 -301 310 0
-14 -310 305 301 0
-15 -310 305 0
-15 310 -305 0
-16 -310 305 0
-16 310 -305 0
-17 -305 310 0
-17 -302 310 0
-17 -310 305 302 0
-18 -310 305 0
-18 310 -305 0
-19 -305 310 0
-19 -303 310 0
-19 -310 305 303 0
-20 -305 310 0
-20 -304 310 0
-20 -310 305 304 0
-52 -310 305 0
-52 310 -305 0
-21 -311 306 0
-21 -311 307 0
-21 311 -306 -307 0
-22 -311 306 0
-22 -311 308 0
-22 311 -306 -308 0
-23 -311 306 0
-23 -311 309 0
-23 311 -306 -309 0
-24 -311 306 0
-24 -311 310 0
-24 311 -306 -310 0
-25 -311 306 0
-25 311 -306 0
-26 -311 306 0
-26 311 -306 0
-27 -311 306 0
-27 311 -306 0
-28 -311 306 0
-28 311 -306 0
-29 -311 306 0
-29 311 -306 0
-30 -311 306 0
-30 311 -306 0
-53 -311 306 0
-53 311 -306 0
-21 -307 312 0
-21 -306 312 0
-21 -312 307 306 0
-22 -312 307 0
-22 312 -307 0
-23 -312 307 0
-23 312 -307 0
-24 -312 307 0
-24 312 -307 0
-25 -312 307 0
-25 -312 308 0
-25 312 -307 -308 0
-26 -312 307 0
-26 -312 309 0
-26 312 -307 -309 0
-27 -312 307 0
-27 -312 310 0
-27 312 -307 -310 0
-28 -312 307 0
-28 312 -307 0
-29 -312 307 0
-29 312 -307 0
-30 -312 307 0
-30 312 -307 0
-53 -312 307 0
-53 312 -307 0
-21 -313 308 0
-21 313 -308 0
-22 -308 313 0
-22 -306 313 0
-22 -313 308 306 0
-23 -313 308 0
-23 313 -308 0
-24 -313 308 0
-24 313 -308 0
-25 -308 313 0
-25 -307 313 0
-25 -313 308 307 0
-26 -313 308 0
-26 313 -308 0
-27 -313 308 0
-27 313 -308 0
-28 -313 308 0
-28 -313 309 0
-28 313 -308 -309 0
-29 -313 308 0
-29 -313 310 0
-29 313 -308 -310 0
-30 -313 308 0
-30 313 -308 0
-53 -313 308 0
-53 313 -308 0
-21 -314 309 0
-21 314 -309 0
-22 -314 309 0
-22 314 -309 0
-23 -309 314 0
-23 -306 314 0
-23 -314 309 306 0
-24 -314 309 0
-24 314 -309 0
-25 -314 309 0
-25 314 -309 0
-26 -309 314 0
-26 -307 314 0
-26 -314 309 307 0
-27 -314 309 0
-27 314 -309 0
-28 -309 314 0
-28 -308 314 0
-28 -314 309 308 0
-29 -314 309 0
-29 314 -309 0
-30 -314 309 0
-30 -314 310 0
-30 314 -309 -310 0
-53 -314 309 0
-53 314 -309 0
-21 -315 310 0
-21 315 -310 0
-22 -315 310 0
-22 315 -310 0
-23 -315 310 0
-23 315 -310 0
-24 -310 315 0
-24 -306 315 0
-24 -315 310 306 0
-25 -315 310 0
-25 315 -310 0
-26 -315 310 0
-26 315 -310 0
-27 -310 315 0
-27 -307 315 0
-27 -315 310 307 0
-28 -315 310 0
-28 315 -310 0
-29 -310 315 0
-29 -308 315 0
-29 -315 310 308 0
-30 -310 315 0
-30 -309 315 0
-30 -315 310 309 0
-53 -315 310 0
-53 315 -310 0
-31 -316 311 0
-31 -316 312 0
-31 316 -311 -312 0
-32 -316 311 0
-32 -316 313 0
-32 316 -311 -313 0
-33 -316 311 0
-33 -316 314 0
-33 316 -311 -314 0
-34 -316 311 0
-34 -316 315 0
-34 316 -311 -315 0
-35 -316 311 0
-35 316 -311 0
-36 -316 311 0
-36 316 -311 0
-37 -316 311 0
-37 316 -311 0
-38 -316 311 0
-38 316 -311 0
-39 -316 311 0
-39 316 -311 0
-40 -316 311 0
-40 316 -311 0
-54 -316 311 0
-54 316 -311 0
-31 -312 317 0
-31 -311 317 0
-31 -317 312 311 0
-32 -317 312 0
-32 317 -312 0
-33 -317 312 0
-33 317 -312 0
-34 -317 312 0
-34 317 -312 0
-35 -317 312 0
-35 -317 313 0
-35 317 -312 -313 0
-36 -317 312 0
-36 -317 314 0
-36 317 -312 -314 0
-37 -317 312 0
-37 -317 315 0
-37 317 -312 -315 0
-38 -317 312 0
-38 317 -312 0
-39 -317 312 0
-39 317 -312 0
-40 -317 312 0
-40 317 -312 0
-54 -317 312 0
-54 317 -312 0
-31 -318 313 0
-31 318 -313 0
-32 -313 318 0
-32 -311 318 0
-32 -318 313 311 0
-33 -318 313 0
-33 318 -313 0
-34 -318 313 0
-34 318 -313 0
-35 -313 318 0
-35 -312 318 0
-35 -318 313 312 0
-36 -318 313 0
-36 318 -313 0
-37 -318 313 0
-37 318 -313 0
-38 -318 313 0
-38 -318 314 0
-38 318 -313 -314 0
-39 -318 313 0
-39 -318 315 0
-39 318 -313 -315 0
-40 -318 313 0
-40 318 -313 0
-54 -318 313 0
-54 318 -313 0
-31 -319 314 0
-31 319 -314 0
-32 -319 314 0
-32 319 -314 0
-33 -314 319 0
-33 -311 319 0
-33 -319 314 311 0
-34 -319 314 0
-34 319 -314 0
-35 -319 314 0
-35 319 -314 0
-36 -314 319 0
-36 -312 319 0
-36 -319 314 312 0
-37 -319 314 0
-37 319 -314 0
-38 -314 319 0
-38 -313 319 0
-38 -319 314 313 0
-39 -319 314 0
-39 319 -314 0
-40 -319 314 0
-40 -319 315 0
-40 319 -314 -315 0
-54 -319 314 0
-54 319 -314 0
-31 -320 315 0
-31 320 -315 0
-32 -320 315 0
-32 320 -315 0
-33 -320 315 0
-33 320 -315 0
-34 -315 320 0
-34 -311 320 0
-34 -320 315 311 0
-35 -320 315 0
-35 320 -315 0
-36 -320 315 0
-36 320 -315 0
-37 -315 320 0
-37 -312 320 0
-37 -320 315 312 0
-38 -320 315 0
-38 320 -315 0
-39 -315 320 0
-39 -313 320 0
-39 -320 315 313 0
-40 -315 320 0
-40 -314 320 0
-40 -320 315 314 0
-54 -320 315 0
-54 320 -315 0
-41 -321 316 0
-41 -321 317 0
-41 321 -316 -317 0
-42 -321 316 0
-42 -321 318 0
-42 321 -316 -318 0
-43 -321 316 0
-43 -321 319 0
-43 321 -316 -319 0
-44 -321 316 0
-44 -321 320 0
-44 321 -316 -320 0
-45 -321 316 0
-45 321 -316 0
-46 -321 316 0
-46 321 -316 0
-47 -321 316 0
-47 321 -316 0
-48 -321 316 0
-48 321 -316 0
-49 -321 316 0
-49 321 -316 0
-50 -321 316 0
-50 321 -316 0
-55 -321 316 0
-55 321 -316 0
-41 -317 322 0
-41 -316 322 0
-41 -322 317 316 0
-42 -322 317 0
-42 322 -317 0
-43 -322 317 0
-43 322 -317 0
-44 -322 317 0
-44 322 -317 0
-45 -322 317 0
-45 -322 318 0
-45 322 -317 -318 0
-46 -322 317 0
-46 -322 319 0
-46 322 -317 -319 0
-47 -322 317 0
-47 -322 320 0
-47 322 -317 -320 0
-48 -322 317 0
-48 322 -317 0
-49 -322 317 0
-49 322 -317 0
-50 -322 317 0
-50 322 -317 0
-55 -322 317 0
-55 322 -317 0
-41 -323 318 0
-41 323 -318 0
-42 -318 323 0
-42 -316 323 0
-42 -323 318 316 0
-43 -323 318 0
-43 323 -318 0
-44 -323 318 0
-44 323 -318 0
-45 -318 323 0
-45 -317 323 0
-45 -323 318 317 0
-46 -323 318 0
-46 323 -318 0
-47 -323 318 0
-47 323 -318 0
-48 -323 318 0
-48 -323 319 0
-48 323 -318 -319 0
-49 -323 318 0
-49 -323 320 0
-49 323 -318 -320 0
-50 -323 318 0
-50 323 -318 0
-55 -323 318 0
-55 323 -318 0
-41 -324 319 0
-41 324 -319 0
-42 -324 319 0
-42 324 -319 0
-43 -319 324 0
-43 -316 324 0
-43 -324 319 316 0
-44 -324 319 0
-44 324 -319 0
-45 -324 319 0
-45 324 -319 0
-46 -319 324 0
-46 -317 324 0
-46 -324 319 317 0
-47 -324 319 0
-47 324 -319 0
-48 -319 324 0
-48 -318 324 0
-48 -324 319 318 0
-49 -324 319 0
-49 324 -319 0
-50 -324 319 0
-50 -324 320 0
-50 324 -319 -320 0
-55 -324 319 0
-55 324 -319 0
-41 -325 320 0
-41 325 -320 0
-42 -325 320 0
-42 325 -320 0
-43 -325 320 0
-43 325 -320 0
-44 -320 325 0
-44 -316 325 0
-44 -325 320 316 0
-45 -325 320 0
-45 325 -320 0
-46 -325 320 0
-46 325 -320 0
-47 -320 325 0
-47 -317 325 0
-47 -325 320 317 0
-48 -325 320 0
-48 325 -320 0
-49 -320 325 0
-49 -318 325 0
-49 -325 320 318 0
-50 -320 325 0
-50 -319 325 0
-50 -325 320 319 0
-55 -325 320 0
-55 325 -320 0
326 0
-1 -331 326 0
-1 -331 327 0
-1 331 -326 -327 0
-2 -331 326 0
-2 -331 328 0
-2 331 -326 -328 0
-3 -331 326 0
-3 -331 329 0
-3 331 -326 -329 0
-4 -331 326 0
-4 -331 330 0
-4 331 -326 -330 0
-5 -331 326 0
-5 331 -326 0
-6 -331 326 0
-6 331 -326 0
-7 -331 326 0
-7 331 -326 0
-8 -331 326 0
-8 331 -326 0
-9 -331 326 0
-9 331 -326 0
-10 -331 326 0
-10 331 -326 0
-51 -331 326 0
-51 331 -326 0
327 0
-1 -327 332 0
-1 -326 332 0
-1 -332 327 326 0
-2 -332 327 0
-2 332 -327 0
-3 -332 327 0
-3 332 -327 0
-4 -332 327 0
-4 332 -327 0
-5 -332 327 0
-5 -332 328 0
-5 332 -327 -328 0
-6 -332 327 0
-6 -332 329 0
-6 332 -327 -329 0
-7 -332 327 0
-7 -332 330 0
-7 332 -327 -330 0
-8 -332 327 0
-8 332 -327 0
-9 -332 327 0
-9 332 -327 0
-10 -332 327 0
-10 332 -327 0
-51 -332 327 0
-51 332 -327 0
-328 0
-1 -333 328 0
-1 333 -328 0
-2 -328 333 0
-2 -326 333 0
-2 -333 328 326 0
-3 -333 328 0
-3 333 -328 0
-4 -333 328 0
-4 333 -328 0
-5 -328 333 0
-5 -327 333 0
-5 -333 328 327 0
-6 -333 328 0
-6 333 -328 0
-7 -333 328 0
-7 333 -328 0
-8 -333 328 0
-8 -333 329 0
-8 333 -328 -329 0
-9 -333 328 0
-9 -333 330 0
-9 333 -328 -330 0
-10 -333 328 0
-10 333 -328 0
-51 -333 328 0
-51 333 -328 0
-329 0
-1 -334 329 0
-1 334 -329 0
-2 -334 329 0
-2 334 -329 0
-3 -329 334 0
-3 -326 334 0
-3 -334 329 326 0
-4 -334 329 0
-4 334 -329 0
-5 -334 329 0
-5 334 -329 0
-6 -329 334 0
-6 -327 334 0
-6 -334 329 327 0
-7 -334 329 0
-7 334 -329 0
-8 -329 334 0
-8 -328 334 0
-8 -334 329 328 0
-9 -334 329 0
-9 334 -329 0
-10 -334 329 0
-10 -334 330 0
-10 334 -329 -330 0
-51 -334 329 0
-51 334 -329 0
330 0
-1 -335 330 0
-1 335 -330 0
-2 -335 330 0
-2 335 -330 0
-3 -335 330 0
-3 335 -330 0
-4 -330 335 0
-4 -326 335 0
-4 -335 330 326 0
-5 -335 330 0
-5 335 -330 0
-6 -335 330 0
-6 335 -330 0
-7 -330 335 0
-7 -327 335 0
-7 -335 330 327 0
-8 -335 330 0
-8 335 -330 0
-9 -330 335 0
-9 -328 335 0
-9 -335 330 328 0
-10 -330 335 0
-10 -329 335 0
-10 -335 330 329 0
-51 -335 330 0
-51 335 -330 0
-11 -336 331 0
-11 -336 332 0
-11 336 -331 -332 0
-12 -336 331 0
-12 -336 333 0
-12 336 -331 -333 0
-13 -336 331 0
-13 -336 334 0
-13 336 -331 -334 0
-14 -336 331 0
-14 -336 335 0
-14 336 -331 -335 0
-15 -336 331 0
-15 336 -331 0
-16 -336 331 0
-16 336 -331 0
-17 -336 331 0
-17 336 -331 0
-18 -336 331 0
-18 336 -331 0
-19 -336 331 0
-19 336 -331 0
-20 -336 331 0
-20 336 -331 0
-52 -336 331 0
-52 336 -331 0
-11 -332 337 0
-11 -331 337 0
-11 -337 332 331 0
-12 -337 332 0
-12 337 -332 0
-13 -337 332 0
-13 337 -332 0
-14 -337 332 0
-14 337 -332 0
-15 -337 332 0
-15 -337 333 0
-15 337 -332 -333 0
-16 -337 332 0
-16 -337 334 0
-16 337 -332 -334 0
-17 -337 332 0
-17 -337 335 0
-17 337 -332 -335 0
-18 -337 332 0
-18 337 -332 0
-19 -337 332 0
-19 337 -332 0
-20 -337 332 0
-20 337 -332 0
-52 -337 332 0
-52 337 -332 0
-11 -338 333 0
-11 338 -333 0
-12 -333 338 0
-12 -331 338 0
-12 -338 333 331 0
-13 -338 333 0
-13 338 -333 0
-14 -338 333 0
-14 338 -333 0
-15 -333 338 0
-15 -332 338 0
-15 -338 333 332 0
-16 -338 333 0
-16 338 -333 0
-17 -338 333 0
-17 338 -333 0
-18 -338 333 0
-18 -338 334 0
-18 338 -333 -334 0
-19 -338 333 0
-19 -338 335 0
-19 338 -333 -335 0
-20 -338 333 0
-20 338 -333 0
-52 -338 333 0
-52 338 -333 0
-11 -339 334 0
-11 339 -334 0
-12 -339 334 0
-12 339 -334 0
-13 -334 339 0
-13 -331 339 0
-13 -339 334 331 0
-14 -339 334 0
-14 339 -334 0
-15 -339 334 0
-15 339 -334 0
-16 -334 339 0
-16 -332 339 0
-16 -339 334 332 0
-17 -339 334 0
-17 339 -334 0
-18 -334 339 0
-18 -333 339 0
-18 -339 334 333 0
-19 -339 334 0
-19 339 -334 0
-20 -339 334 0
-20 -339 335 0
-20 339 -334 -335 0
-52 -339 334 0
-52 339 -334 0
-11 -340 335 0
-11 340 -335 0
-12 -340 335 0
-12 340 -335 0
-13 -340 335 0
-13 340 -335 0
-14 -335 340 0
-14 -331 340 0
-14 -340 335 331 0
-15 -340 335 0
-15 340 -335 0
-16 -340 335 0
-16 340 -335 0
-17 -335 340 0
-17 -332 340 0
-17 -340 335 332 0
-18 -340 335 0
-18 340 -335 0
-19 -335 340 0
-19 -333 340 0
-19 -340 335 333 0
-20 -335 340 0
-20 -334 340 0
-20 -340 335 334 0
-52 -340 335 0
-52 340 -335 0
-21 -341 336 0
-21 -341 337 0
-21 341 -336 -337 0
-22 -341 336 0
-22 -341 338 0
-22 341 -336 -338 0
-23 -341 336 0
-23 -341 339 0
-23 341 -336 -339 0
-24 -341 336 0
-24 -341 340 0
-24 341 -336 -340 0
-25 -341 336 0
-25 341 -336 0
-26 -341 336 0
-26 341 -336 0
-27 -341 336 0
-27 341 -336 0
-28 -341 336 0
-28 341 -336 0
-29 -341 336 0
-29 341 -336 0
-30 -341 336 0
-30 341 -336 0
-53 -341 336 0
-53 341 -336 0
-21 -337 342 0
-21 -336 342 0
-21 -342 337 336 0
-22 -342 337 0
-22 342 -337 0
-23 -342 337 0
-23 342 -337 0
-24 -342 337 0
-24 342 -337 0
-25 -342 337 0
-25 -342 338 0
-25 342 -337 -338 0
-26 -342 337 0
-26 -342 339 0
-26 342 -337 -339 0
-27 -342 337 0
-27 -342 340 0
-27 342 -337 -340 0
-28 -342 337 0
-28 342 -337 0
-29 -342 337 0
-29 342 -337 0
-30 -342 337 0
-30 342 -337 0
-53 -342 337 0
-53 342 -337 0
-21 -343 338 0
-21 343 -338 0
-22 -338 343 0
-22 -336 343 0
-22 -343 338 336 0
-23 -343 338 0
-23 343 -338 0
-24 -343 338 0
-24 343 -338 0
-25 -338 343 0
-25 -337 343 0
-25 -343 338 337 0
-26 -343 338 0
-26 343 -338 0
-27 -343 338 0
-27 343 -338 0
-28 -343 338 0
-28 -343 339 0
-28 343 -338 -339 0
-29 -343 338 0
-29 -343 340 0
-29 343 -338 -340 0
-30 -343 338 0
-30 343 -338 0
-53 -343 338 0
-53 343 -338 0
-21 -344 339 0
-21 344 -339 0
-22 -344 339 0
-22 344 -339 0
-23 -339 344 0
-23 -336 344 0
-23 -344 339 336 0
-24 -344 339 0
-24 344 -339 0
-25 -344 339 0
-25 344 -339 0
-26 -339 344 0
-26 -337 344 0
-26 -344 339 337 0
-27 -344 339 0
-27 344 -339 0
-28 -339 344 0
-28 -338 344 0
-28 -344 339 338 0
-29 -344 339 0
-29 344 -339 0
-30 -344 339 0
-30 -344 340 0
-30 344 -339 -340 0
-53 -344 339 0
-53 344 -339 0
-21 -345 340 0
-21 345 -340 0
-22 -345 340 0
-22 345 -340 0
-23 -345 340 0
-23 345 -340 0
-24 -340 345 0
-24 -336 345 0
-24 -345 340 336 0
-25 -345 340 0
-25 345 -340 0
-26 -345 340 0
-26 345 -340 0
-27 -340 345 0
-27 -337 345 0
-27 -345 340 337 0
-28 -345 340 0
-28 345 -340 0
-29 -340 345 0
-29 -338 345 0
-29 -345 340 338 0
-30 -340 345 0
-30 -339 345 0
-30 -345 340 339 0
-53 -345 340 0
-53 345 -340 0
-31 -346 341 0
-31 -346 342 0
-31 346 -341 -342 0
-32 -346 341 0
-32 -346 343 0
-32 346 -341 -343 0
-33 -346 341 0
-33 -346 344 0
-33 346 -341 -344 0
-34 -346 341 0
-34 -346 345 0
-34 346 -341 -345 0
-35 -346 341 0
-35 346 -341 0
-36 -346 341 0
-36 346 -341 0
-37 -346 341 0
-37 346 -341 0
-38 -346 341 0
-38 346 -341 0
-39 -346 341 0
-39 346 -341 0
-40 -346 341 0
-40 346 -341 0
-54 -346 341 0
-54 346 -341 0
-31 -342 347 0
-31 -341 347 0
-31 -347 342 341 0
-32 -347 342 0
-32 347 -342 0
-33 -347 342 0
-33 347 -342 0
-34 -347 342 0
-34 347 -342 0
-35 -347 342 0
-35 -347 343 0
-35 347 -342 -343 0
-36 -347 342 0
-36 -347 344 0
-36 347 -342 -344 0
-37 -347 342 0
-37 -347 345 0
-37 347 -342 -345 0
-38 -347 342 0
-38 347 -342 0
-39 -347 342 0
-39 347 -342 0
-40 -347 342 0
-40 347 -342 0
-54 -347 342 0
-54 347 -342 0
-31 -348 343 0
-31 348 -343 0
-32 -343 348 0
-32 -341 348 0
-32 -348 343 341 0
-33 -348 343 0
-33 348 -343 0
-34 -348 343 0
-34 348 -343 0
-35 -343 348 0
-35 -342 348 0
-35 -348 343 342 0
-36 -348 343 0
-36 348 -343 0
-37 -348 343 0
-37 348 -343 0
-38 -348 343 0
-38 -348 344 0
-38 348 -343 -344 0
-39 -348 343 0
-39 -348 345 0
-39 348 -343 -345 0
-40 -348 343 0
-40 348 -343 0
-54 -348 343 0
-54 348 -343 0
-31 -349 344 0
-31 349 -344 0
-32 -349 344 0
-32 349 -344 0
-33 -344 349 0
-33 -341 349 0
-33 -349 344 341 0
-34 -349 344 0
-34 349 -344 0
-35 -349 344 0
-35 349 -344 0
-36 -344 349 0
-36 -342 349 0
-36 -349 344 342 0
-37 -349 344 0
-37 349 -344 0
-38 -344 349 0
-38 -343 349 0
-38 -349 344 343 0
-39 -349 344 0
-39 349 -344 0
-40 -349 344 0
-40 -349 345 0
-40 349 -344 -345 0
-54 -349 344 0
-54 349 -344 0
-31 -350 345 0
-31 350 -345 0
-32 -350 345 0
-32 350 -345 0
-33 -350 345 0
-33 350 -345 0
-34 -345 350 0
-34 -341 350 0
-34 -350 345 341 0
-35 -350 345 0
-35 350 -345 0
-36 -350 345 0
-36 350 -345 0
-37 -345 350 0
-37 -342 350 0
-37 -350 345 342 0
-38 -350 345 0
-38 350 -345 0
-39 -345 350 0
-39 -343 350 0
-39 -350 345 343 0
-40 -345 350 0
-40 -344 350 0
-40 -350 345 344 0
-54 -350 345 0
-54 350 -345 0
-41 -351 346 0
-41 -351 347 0
-41 351 -346 -347 0
-42 -351 346 0
-42 -351 348 0
-42 351 -346 -348 0
-43 -351 346 0
-43 -351 349 0
-43 351 -346 -349 0
-44 -351 346 0
-44 -351 350 0
-44 351 -346 -350 0
-45 -351 346 0
-45 351 -346 0
-46 -351 346 0
-46 351 -346 0
-47 -351 346 0
-47 351 -346 0
-48 -351 346 0
-48 351 -346 0
-49 -351 346 0
-49 351 -346 0
-50 -351 346 0
-50 351 -346 0
-55 -351 346 0
-55 351 -346 0
-41 -347 352 0
-41 -346 352 0
-41 -352 347 346 0
-42 -352 347 0
-42 352 -347 0
-43 -352 347 0
-43 352 -347 0
-44 -352 347 0
-44 352 -347 0
-45 -352 347 0
-45 -352 348 0
-45 352 -347 -348 0
-46 -352 347 0
-46 -352 349 0
-46 352 -347 -349 0
-47 -352 347 0
-47 -352 350 0
-47 352 -347 -350 0
-48 -352 347 0
-48 352 -347 0
-49 -352 347 0
-49 352 -347 0
-50 -352 347 0
-50 352 -347 0
-55 -352 347 0
-55 352 -347 0
-41 -353 348 0
-41 353 -348 0
-42 -348 353 0
-42 -346 353 0
-42 -353 348 346 0
-43 -353 348 0
-43 353 -348 0
-44 -353 348 0
-44 353 -348 0
-45 -348 353 0
-45 -347 353 0
-45 -353 348 347 0
-46 -353 348 0
-46 353 -348 0
-47 -353 348 0
-47 353 -348 0
-48 -353 348 0
-48 -353 349 0
-48 353 -348 -349 0
-49 -353 348 0
-49 -353 350 0
-49 353 -348 -350 0
-50 -353 348 0
-50 353 -348 0
-55 -353 348 0
-55 353 -348 0
-41 -354 349 0
-41 354 -349 0
-42 -354 349 0
-42 354 -349 0
-43 -349 354 0
-43 -346 354 0
-43 -354 349 346 0
-44 -354 349 0
-44 354 -349 0
-45 -354 349 0
-45 354 -349 0
-46 -349 354 0
-46 -347 354 0
-46 -354 349 347 0
-47 -354 349 0
-47 354 -349 0
-48 -349 354 0
-48 -348 354 0
-48 -354 349 348 0
-49 -354 349 0
-49 354 -349 0
-50 -354 349 0
-50 -354 350 0
-50 354 -349 -350 0
-55 -354 349 0
-55 354 -349 0
-41 -355 350 0
-41 355 -350 0
-42 -355 350 0
-42 355 -350 0
-43 -355 350 0
-43 355 -350 0
-44 -350 355 0
-44 -346 355 0
-44 -355 350 346 0
-45 -355 350 0
-45 355 -350 0
-46 -355 350 0
-46 355 -350 0
-47 -350 355 0
-47 -347 355 0
-47 -355 350 347 0
-48 -355 350 0
-48 355 -350 0
-49 -350 355 0
-49 -348 355 0
-49 -355 350 348 0
-50 -350 355 0
-50 -349 355 0
-50 -355 350 349 0
-55 -355 350 0
-55 355 -350 0
356 0
-1 -361 356 0
-1 -361 357 0
-1 361 -356 -357 0
-2 -361 356 0
-2 -361 358 0
-2 361 -356 -358 0
-3 -361 356 0
-3 -361 359 0
-3 361 -356 -359 0
-4 -361 356 0
-4 -361 360 0
-4 361 -356 -360 0
-5 -361 356 0
-5 361 -356 0
-6 -361 356 0
-6 361 -356 0
-7 -361 356 0
-7 361 -356 0
-8 -361 356 0
-8 361 -356 0
-9 -361 356 0
-9 361 -356 0
-10 -361 356 0
-10 361 -356 0
-51 -361 356 0
-51 361 -356 0
357 0
-1 -357 362 0
-1 -356 362 0
-1 -362 357 356 0
-2 -362 357 0
-2 362 -357 0
-3 -362 357 0
-3 362 -357 0
-4 -362 357 0
-4 362 -357 0
-5 -362 357 0
-5 -362 358 0
-5 362 -357 -358 0
-6 -362 357 0
-6 -362 359 0
-6 362 -357 -359 0
-7 -362 357 0
-7 -362 360 0
-7 362 -357 -360 0
-8 -362 357 0
-8 362 -357 0
-9 -362 357 0
-9 362 -357 0
-10 -362 357 0
-10 362 -357 0
-51 -362 357 0
-51 362 -357 0
-358 0
-1 -363 358 0
-1 363 -358 0
-2 -358 363 0
-2 -356 363 0
-2 -363 358 356 0
-3 -363 358 0
-3 363 -358 0
-4 -363 358 0
-4 363 -358 0
-5 -358 363 0
-5 -357 363 0
-5 -363 358 357 0
-6 -363 358 0
-6 363 -358 0
-7 -363 358 0
-7 363 -358 0
-8 -363 358 0
-8 -363 359 0
-8 363 -358 -359 0
-9 -363 358 0
-9 -363 360 0
-9 363 -358 -360 0
-10 -363 358 0
-10 363 -358 0
-51 -363 358 0
-51 363 -358 0
359 0
-1 -364 359 0
-1 364 -359 0
-2 -364 359 0
-2 364 -359 0
-3 -359 364 0
-3 -356 364 0
-3 -364 359 356 0
-4 -364 359 0
-4 364 -359 0
-5 -364 359 0
-5 364 -359 0
-6 -359 364 0
-6 -357 364 0
-6 -364 359 357 0
-7 -364 359 0
-7 364 -359 0
-8 -359 364 0
-8 -358 364 0
-8 -364 359 358 0
-9 -364 359 0
-9 364 -359 0
-10 -364 359 0
-10 -364 360 0
-10 364 -359 -360 0
-51 -364 359 0
-51 364 -359 0
360 0
-1 -365 360 0
-1 365 -360 0
-2 -365 360 0
-2 365 -360 0
-3 -365 360 0
-3 365 -360 0
-4 -360 365 0
-4 -356 365 0
-4 -365 360 356 0
-5 -365 360 0
-5 365 -360 0
-6 -365 360 0
-6 365 -360 0
-7 -360 365 0
-7 -357 365 0
-7 -365 360 357 0
-8 -365 360 0
-8 365 -360 0
-9 -360 365 0
-9 -358 365 0
-9 -365 360 358 0
-10 -360 365 0
-10 -359 365 0
-10 -365 360 359 0
-51 -365 360 0
-51 365 -360 0
-11 -366 361 0
-11 -366 362 0
-11 366 -361 -362 0
-12 -366 361 0
-12 -366 363 0
-12 366 -361 -363 0
-13 -366 361 0
-13 -366 364 0
-13 366 -361 -364 0
-14 -366 361 0
-14 -366 365 0
-14 366 -361 -365 0
-15 -366 361 0
-15 366 -361 0
-16 -366 361 0
-16 366 -361 0
-17 -366 361 0
-17 366 -361 0
-18 -366 361 0
-18 366 -361 0
-19 -366 361 0
-19 366 -361 0
-20 -366 361 0
-20 366 -361 0
-52 -366 361 0
-52 366 -361 0
-11 -362 367 0
-11 -361 367 0
-11 -367 362 361 0
-12 -367 362 0
-12 367 -362 0
-13 -367 362 0
-13 367 -362 0
-14 -367 362 0
-14 367 -362 0
-15 -367 362 0
-15 -367 363 0
-15 367 -362 -363 0
-16 -367 362 0
-16 -367 364 0
-16 367 -362 -364 0
-17 -367 362 0
-17 -367 365 0
-17 367 -362 -365 0
-18 -367 362 0
-18 367 -362 0
-19 -367 362 0
-19 367 -362 0
-20 -367 362 0
-20 367 -362 0
-52 -367 362 0
-52 367 -362 0
-11 -368 363 0
-11 368 -363 0
-12 -363 368 0
-12 -361 368 0
-12 -368 363 361 0
-13 -368 363 0
-13 368 -363 0
-14 -368 363 0
-14 368 -363 0
-15 -363 368 0
-15 -362 368 0
-15 -368 363 362 0
-16 -368 363 0
-16 368 -363 0
-17 -368 363 0
-17 368 -363 0
-18 -368 363 0
-18 -368 364 0
-18 368 -363 -364 0
-19 -368 363 0
-19 -368 365 0
-19 368 -363 -365 0
-20 -368 363 0
-20 368 -363 0
-52 -368 363 0
-52 368 -363 0
-11 -369 364 0
-11 369 -364 0
-12 -369 364 0
-12 369 -364 0
-13 -364 369 0
-13 -361 369 0
-13 -369 364 361 0
-14 -369 364 0
-14 369 -364 0
-15 -369 364 0
-15 369 -364 0
-16 -364 369 0
-16 -362 369 0
-16 -369 364 362 0
-17 -369 364 0
-17 369 -364 0
-18 -364 369 0
-18 -363 369 0
-18 -369 364 363 0
-19 -369 364 0
-19 369 -364 0
-20 -369 364 0
-20 -369 365 0
-20 369 -364 -365 0
-52 -369 364 0
-52 369 -364 0
-11 -370 365 0
-11 370 -365 0
-12 -370 365 0
-12 370 -365 0
-13 -370 365 0
-13 370 -365 0
-14 -365 370 0
-14 -361 370 0
-14 -370 365 361 0
-15 -370 365 0
-15 370 -365 0
-16 -370 365 0
-16 370 -365 0
-17 -365 370 0
-17 -362 370 0
-17 -370 365 362 0
-18 -370 365 0
-18 370 -365 0
-19 -365 370 0
-19 -363 370 0
-19 -370 365 363 0
-20 -365 370 0
-20 -364 370 0
-20 -370 365 364 0
-52 -370 365 0
-52 370 -365 0
-21 -371 366 0
-21 -371 367 0
-21 371 -366 -367 0
-22 -371 366 0
-22 -371 368 0
-22 371 -366 -368 0
-23 -371 366 0
-23 -371 369 0
-23 371 -366 -369 0
-24 -371 366 0
-24 -371 370 0
-24 371 -366 -370 0
-25 -371 366 0
-25 371 -366 0
-26 -371 366 0
-26 371 -366 0
-27 -371 366 0
-27 371 -366 0
-28 -371 366 0
-28 371 -366 0
-29 -371 366 0
-29 371 -366 0
-30 -371 366 0
-30 371 -366 0
-53 -371 366 0
-53 371 -366 0
-21 -367 372 0
-21 -366 372 0
-21 -372 367 366 0
-22 -372 367 0
-22 372 -367 0
-23 -372 367 0
-23 372 -367 0
-24 -372 367 0
-24 372 -367 0
-25 -372 367 0
-25 -372 368 0
-25 372 -367 -368 0
-26 -372 367 0
-26 -372 369 0
-26 372 -367 -369 0
-27 -372 367 0
-27 -372 370 0
-27 372 -367 -370 0
-28 -372 367 0
-28 372 -367 0
-29 -372 367 0
-29 372 -367 0
-30 -372 367 0
-30 372 -367 0
-53 -372 367 0
-53 372 -367 0
-21 -373 368 0
-21 373 -368 0
-22 -368 373 0
-22 -366 373 0
-22 -373 368 366 0
-23 -373 368 0
-23 373 -368 0
-24 -373 368 0
-24 373 -368 0
-25 -368 373 0
-25 -367 373 0
-25 -373 368 367 0
-26 -373 368 0
-26 373 -368 0
-27 -373 368 0
-27 373 -368 0
-28 -373 368 0
-28 -373 369 0
-28 373 -368 -369 0
-29 -373 368 0
-29 -373 370 0
-29 373 -368 -370 0
-30 -373 368 0
-30 373 -368 0
-53 -373 368 0
-53 373 -368 0
-21 -374 369 0
-21 374 -369 0
-22 -374 369 0
-22 374 -369 0
-23 -369 374 0
-23 -366 374 0
-23 -374 369 366 0
-24 -374 369 0
-24 374 -369 0
-25 -374 369 0
-25 374 -369 0
-26 -369 374 0
-26 -367 374 0
-26 -374 369 367 0
-27 -374 369 0
-27 374 -369 0
-28 -369 374 0
-28 -368 374 0
-28 -374 369 368 0
-29 -374 369 0
-29 374 -369 0
-30 -374 369 0
-30 -374 370 0
-30 374 -369 -370 0
-53 -374 369 0
-53 374 -369 0
-21 -375 370 0
-21 375 -370 0
-22 -375 370 0
-22 375 -370 0
-23 -375 370 0
-23 375 -370 0
-24 -370 375 0
-24 -366 375 0
-24 -375 370 366 0
-25 -375 370 0
-25 375 -370 0
-26 -375 370 0
-26 375 -370 0
-27 -370 375 0
-27 -367 375 0
-27 -375 370 367 0
-28 -375 370 0
-28 375 -370 0
-29 -370 375 0
-29 -368 375 0
-29 -375 370 368 0
-30 -370 375 0
-30 -369 375 0
-30 -375 370 369 0
-53 -375 370 0
-53 375 -370 0
-31 -376 371 0
-31 -376 372 0
-31 376 -371 -372 0
-32 -376 371 0
-32 -376 373 0
-32 376 -371 -373 0
-33 -376 371 0
-33 -376 374 0
-33 376 -371 -374 0
-34 -376 371 0
-34 -376 375 0
-34 376 -371 -375 0
-35 -376 371 0
-35 376 -371 0
-36 -376 371 0
-36 376 -371 0
-37 -376 371 0
-37 376 -371 0
-38 -376 371 0
-38 376 -371 0
-39 -376 371 0
-39 376 -371 0
-40 -376 371 0
-40 376 -371 0
-54 -376 371 0
-54 376 -371 0
-31 -372 377 0
-31 -371 377 0
-31 -377 372 371 0
-32 -377 372 0
-32 377 -372 0
-33 -377 372 0
-33 377 -372 0
-34 -377 372 0
-34 377 -372 0
-35 -377 372 0
-35 -377 373 0
-35 377 -372 -373 0
-36 -377 372 0
-36 -377 374 0
-36 377 -372 -374 0
-37 -377 372 0
-37 -377 375 0
-37 377 -372 -375 0
-38 -377 372 0
-38 377 -372 0
-39 -377 372 0
-39 377 -372 0
-40 -377 372 0
-40 377 -372 0
-54 -377 372 0
-54 377 -372 0
-31 -378 373 0
-31 378 -373 0
-32 -373 378 0
-32 -371 378 0
-32 -378 373 371 0
-33 -378 373 0
-33 378 -373 0
-34 -378 373 0
-34 378 -373 0
-35 -373 378 0
-35 -372 378 0
-35 -378 373 372 0
-36 -378 373 0
-36 378 -373 0
-37 -378 373 0
-37 378 -373 0
-38 -378 373 0
-38 -378 374 0
-38 378 -373 -374 0
-39 -378 373 0
-39 -378 375 0
-39 378 -373 -375 0
-40 -378 373 0
-40 378 -373 0
-54 -378 373 0
-54 378 -373 0
-31 -379 374 0
-31 379 -374 0
-32 -379 374 0
-32 379 -374 0
-33 -374 379 0
-33 -371 379 0
-33 -379 374 371 0
-34 -379 374 0
-34 379 -374 0
-35 -379 374 0
-35 379 -374 0
-36 -374 379 0
-36 -372 379 0
-36 -379 374 372 0
-37 -379 374 0
-37 379 -374 0
-38 -374 379 0
-38 -373 379 0
-38 -379 374 373 0
-39 -379 374 0
-39 379 -374 0
-40 -379 374 0
-40 -379 375 0
-40 379 -374 -375 0
-54 -379 374 0
-54 379 -374 0
-31 -380 375 0
-31 380 -375 0
-32 -380 375 0
-32 380 -375 0
-33 -380 375 0
-33 380 -375 0
-34 -375 380 0
-34 -371 380 0
-34 -380 375 371 0
-35 -380 375 0
-35 380 -375 0
-36 -380 375 0
-36 380 -375 0
-37 -375 380 0
-37 -372 380 0
-37 -380 375 372 0
-38 -380 375 0
-38 380 -375 0
-39 -375 380 0
-39 -373 380 0
-39 -380 375 373 0
-40 -375 380 0
-40 -374 380 0
-40 -380 375 374 0
-54 -380 375 0
-54 380 -375 0
-41 -381 376 0
-41 -381 377 0
-41 381 -376 -377 0
-42 -381 376 0
-42 -381 378 0
-42 381 -376 -378 0
-43 -381 376 0
-43 -381 379 0
-43 381 -376 -379 0
-44 -381 376 0
-44 -381 380 0
-44 381 -376 -380 0
-45 -381 376 0
-45 381 -376 0
-46 -381 376 0
-46 381 -376 0
-47 -381 376 0
-47 381 -376 0
-48 -381 376 0
-48 381 -376 0
-49 -381 376 0
-49 381 -376 0
-50 -381 376 0
-50 381 -376 0
-55 -381 376 0
-55 381 -376 0
-41 -377 382 0
-41 -376 382 0
-41 -382 377 376 0
-42 -382 377 0
-42 382 -377 0
-43 -382 377 0
-43 382 -377 0
-44 -382 377 0
-44 382 -377 0
-45 -382 377 0
-45 -382 378 0
-45 382 -377 -378 0
-46 -382 377 0
-46 -382 379 0
-46 382 -377 -379 0
-47 -382 377 0
-47 -382 380 0
-47 382 -377 -380 0
-48 -382 377 0
-48 382 -377 0
-49 -382 377 0
-49 382 -377 0
-50 -382 377 0
-50 382 -377 0
-55 -382 377 0
-55 382 -377 0
-41 -383 378 0
-41 383 -378 0
-42 -378 383 0
-42 -376 383 0
-42 -383 378 376 0
-43 -383 378 0
-43 383 -378 0
-44 -383 378 0
-44 383 -378 0
-45 -378 383 0
-45 -377 383 0
-45 -383 378 377 0
-46 -383 378 0
-46 383 -378 0
-47 -383 378 0
-47 383 -378 0
-48 -383 378 0
-48 -383 379 0
-48 383 -378 -379 0
-49 -383 378 0
-49 -383 380 0
-49 383 -378 -380 0
-50 -383 378 0
-50 383 -378 0
-55 -383 378 0
-55 383 -378 0
-41 -384 379 0
-41 384 -379 0
-42 -384 379 0
-42 384 -379 0
-43 -379 384 0
-43 -376 384 0
-43 -384 379 376 0
-44 -384 379 0
-44 384 -379 0
-45 -384 379 0
-45 384 -379 0
-46 -379 384 0
-46 -377 384 0
-46 -384 379 377 0
-47 -384 379 0
-47 384 -379 0
-48 -379 384 0
-48 -378 384 0
-48 -384 379 378 0
-49 -384 379 0
-49 384 -379 0
-50 -384 379 0
-50 -384 380 0
-50 384 -379 -380 0
-55 -384 379 0
-55 384 -379 0
-41 -385 380 0
-41 385 -380 0
-42 -385 380 0
-42 385 -380 0
-43 -385 380 0
-43 385 -380 0
-44 -380 385 0
-44 -376 385 0
-44 -385 380 376 0
-45 -385 380 0
-45 385 -380 0
-46 -385 380 0
-46 385 -380 0
-47 -380 385 0
-47 -377 385 0
-47 -385 380 377 0
-48 -385 380 0
-48 385 -380 0
-49 -380 385 0
-49 -378 385 0
-49 -385 380 378 0
-50 -380 385 0
-50 -379 385 0
-50 -385 380 379 0
-55 -385 380 0
-55 385 -380 0
386 0
-1 -391 386 0
-1 -391 387 0
-1 391 -386 -387 0
-2 -391 386 0
-2 -391 388 0
-2 391 -386 -388 0
-3 -391 386 0
-3 -391 389 0
-3 391 -386 -389 0
-4 -391 386 0
-4 -391 390 0
-4 391 -386 -390 0
-5 -391 386 0
-5 391 -386 0
-6 -391 386 0
-6 391 -386 0
-7 -391 386 0
-7 391 -386 0
-8 -391 386 0
-8 391 -386 0
-9 -391 386 0
-9 391 -386 0
-10 -391 386 0
-10 391 -386 0
-51 -391 386 0
-51 391 -386 0
387 0
-1 -387 392 0
-1 -386 392 0
-1 -392 387 386 0
-2 -392 387 0
-2 392 -387 0
-3 -392 387 0
-3 392 -387 0
-4 -392 387 0
-4 392 -387 0
-5 -392 387 0
-5 -392 388 0
-5 392 -387 -388 0
-6 -392 387 0
-6 -392 389 0
-6 392 -387 -389 0
-7 -392 387 0
-7 -392 390 0
-7 392 -387 -390 0
-8 -392 387 0
-8 392 -387 0
-9 -392 387 0
-9 392 -387 0
-10 -392 387 0
-10 392 -387 0
-51 -392 387 0
-51 392 -387 0
388 0
-1 -393 388 0
-1 393 -388 0
-2 -388 393 0
-2 -386 393 0
-2 -393 388 386 0
-3 -393 388 0
-3 393 -388 0
-4 -393 388 0
-4 393 -388 0
-5 -388 393 0
-5 -387 393 0
-5 -393 388 387 0
-6 -393 388 0
-6 393 -388 0
-7 -393 388 0
-7 393 -388 0
-8 -393 388 0
-8 -393 389 0
-8 393 -388 -389 0
-9 -393 388 0
-9 -393 390 0
-9 393 -388 -390 0
-10 -393 388 0
-10 393 -388 0
-51 -393 388 0
-51 393 -388 0
389 0
-1 -394 389 0
-1 394 -389 0
-2 -394 389 0
-2 394 -389 0
-3 -389 394 0
-3 -386 394 0
-3 -394 389 386 0
-4 -394 389 0
-4 394 -389 0
-5 -394 389 0
-5 394 -389 0
-6 -389 394 0
-6 -387 394 0
-6 -394 389 387 0
-7 -394 389 0
-7 394 -389 0
-8 -389 394 0
-8 -388 394 0
-8 -394 389 388 0
-9 -394 389 0
-9 394 -389 0
-10 -394 389 0
-10 -394 390 0
-10 394 -389 -390 0
-51 -394 389 0
-51 394 -389 0
390 0
-1 -395 390 0
-1 395 -390 0
-2 -395 390 0
-2 395 -390 0
-3 -395 390 0
-3 395 -390 0
-4 -390 395 0
-4 -386 395 0
-4 -395 390 386 0
-5 -395 390 0
-5 395 -390 0
-6 -395 390 0
-6 395 -390 0
-7 -390 395 0
-7 -387 395 0
-7 -395 390 387 0
-8 -395 390 0
-8 395 -390 0
-9 -390 395 0
-9 -388 395 0
-9 -395 390 388 0
-10 -390 395 0
-10 -389 395 0
-10 -395 390 389 0
-51 -395 390 0
-51 395 -390 0
-11 -396 391 0
-11 -396 392 0
-11 396 -391 -392 0
-12 -396 391 0
-12 -396 393 0
-12 396 -391 -393 0
-13 -396 391 0
-13 -396 394 0
-13 396 -391 -394 0
-14 -396 391 0
-14 -396 395 0
-14 396 -391 -395 0
-15 -396 391 0
-15 396 -391 0
-16 -396 391 0
-16 396 -391 0
-17 -396 391 0
-17 396 -391 0
-18 -396 391 0
-18 396 -391 0
-19 -396 391 0
-19 396 -391 0
-20 -396 391 0
-20 396 -391 0
-52 -396 391 0
-52 396 -391 0
-11 -392 397 0
-11 -391 397 0
-11 -397 392 391 0
-12 -397 392 0
-12 397 -392 0
-13 -397 392 0
-13 397 -392 0
-14 -397 392 0
-14 397 -392 0
-15 -397 392 0
-15 -397 393 0
-15 397 -392 -393 0
-16 -397 392 0
-16 -397 394 0
-16 397 -392 -394 0
-17 -397 392 0
-17 -397 395 0
-17 397 -392 -395 0
-18 -397 392 0
-18 397 -392 0
-19 -397 392 0
-19 397 -392 0
-20 -397 392 0
-20 397 -392 0
-52 -397 392 0
-52 397 -392 0
-11 -398 393 0
-11 398 -393 0
-12 -393 398 0
-12 -391 398 0
-12 -398 393 391 0
-13 -398 393 0
-13 398 -393 0
-14 -398 393 0
-14 398 -393 0
-15 -393 398 0
-15 -392 398 0
-15 -398 393 392 0
-16 -398 393 0
-16 398 -393 0
-17 -398 393 0
-17 398 -393 0
-18 -398 393 0
-18 -398 394 0
-18 398 -393 -394 0
-19 -398 393 0
-19 -398 395 0
-19 398 -393 -395 0
-20 -398 393 0
-20 398 -393 0
-52 -398 393 0
-52 398 -393 0
-11 -399 394 0
-11 399 -394 0
-12 -399 394 0
-12 399 -394 0
-13 -394 399 0
-13 -391 399 0
-13 -399 394 391 0
-14 -399 394 0
-14 399 -394 0
-15 -399 394 0
-15 399 -394 0
-16 -394 399 0
-16 -392 399 0
-16 -399 394 392 0
-17 -399 394 0
-17 399 -394 0
-18 -394 399 0
-18 -393 399 0
-18 -399 394 393 0
-19 -399 394 0
-19 399 -394 0
-20 -399 394 0
-20 -399 395 0
-20 399 -394 -395 0
-52 -399 394 0
-52 399 -394 0
-11 -400 395 0
-11 400 -395 0
-12 -400 395 0
-12 400 -395 0
-13 -400 395 0
-13 400 -395 0
-14 -395 400 0
-14 -391 400 0
-14 -400 395 391 0
-15 -400 395 0
-15 400 -395 0
-16 -400 395 0
-16 400 -395 0
-17 -395 400 0
-17 -392 400 0
-17 -400 395 392 0
-18 -400 395 0
-18 400 -395 0
-19 -395 400 0
-19 -393 400 0
-19 -400 395 393 0
-20 -395 400 0
-20 -394 400 0
-20 -400 395 394 0
-52 -400 395 0
-52 400 -395 0
-21 -401 396 0
-21 -401 397 0
-21 401 -396 -397 0
-22 -401 396 0
-22 -401 398 0
-22 401 -396 -398 0
-23 -401 396 0
-23 -401 399 0
-23 401 -396 -399 0
-24 -401 396 0
-24 -401 400 0
-24 401 -396 -400 0
-25 -401 396 0
-25 401 -396 0
-26 -401 396 0
-26 401 -396 0
-27 -401 396 0
-27 401 -396 0
-28 -401 396 0
-28 401 -396 0
-29 -401 396 0
-29 401 -396 0
-30 -401 396 0
-30 401 -396 0
-53 -401 396 0
-53 401 -396 0
-21 -397 402 0
-21 -396 402 0
-21 -402 397 396 0
-22 -402 397 0
-22 402 -397 0
-23 -402 397 0
-23 402 -397 0
-24 -402 397 0
-24 402 -397 0
-25 -402 397 0
-25 -402 398 0
-25 402 -397 -398 0
-26 -402 397 0
-26 -402 399 0
-26 402 -397 -399 0
-27 -402 397 0
-27 -402 400 0
-27 402 -397 -400 0
-28 -402 397 0
-28 402 -397 0
-29 -402 397 0
-29 402 -397 0
-30 -402 397 0
-30 402 -397 0
-53 -402 397 0
-53 402 -397 0
-21 -403 398 0
-21 403 -398 0
-22 -398 403 0
-22 -396 403 0
-22 -403 398 396 0
-23 -403 398 0
-23 403 -398 0
-24 -403 398 0
-24 403 -398 0
-25 -398 403 0
-25 -397 403 0
-25 -403 398 397 0
-26 -403 398 0
-26 403 -398 0
-27 -403 398 0
-27 403 -398 0
-28 -403 398 0
-28 -403 399 0
-28 403 -398 -399 0
-29 -403 398 0
-29 -403 400 0
-29 403 -398 -400 0
-30 -403 398 0
-30 403 -398 0
-53 -403 398 0
-53 403 -398 0
-21 -404 399 0
-21 404 -399 0
-22 -404 399 0
-22 404 -399 0
-23 -399 404 0
-23 -396 404 0
-23 -404 399 396 0
-24 -404 399 0
-24 404 -399 0
-25 -404 399 0
-25 404 -399 0
-26 -399 404 0
-26 -397 404 0
-26 -404 399 397 0
-27 -404 399 0
-27 404 -399 0
-28 -399 404 0
-28 -398 404 0
-28 -404 399 398 0
-29 -404 399 0
-29 404 -399 0
-30 -404 399 0
-30 -404 400 0
-30 404 -399 -400 0
-53 -404 399 0
-53 404 -399 0
-21 -405 400 0
-21 405 -400 0
-22 -405 400 0
-22 405 -400 0
-23 -405 400 0
-23 405 -400 0
-24 -400 405 0
-24 -396 405 0
-24 -405 400 396 0
-25 -405 400 0
-25 405 -400 0
-26 -405 400 0
-26 405 -400 0
-27 -400 405 0
-27 -397 405 0
-27 -405 400 397 0
-28 -405 400 0
-28 405 -400 0
-29 -400 405 0
-29 -398 405 0
-29 -405 400 398 0
-30 -400 405 0
-30 -399 405 0
-30 -405 400 399 0
-53 -405 400 0
-53 405 -400 0
-31 -406 401 0
-31 -406 402 0
-31 406 -401 -402 0
-32 -406 401 0
-32 -406 403 0
-32 406 -401 -403 0
-33 -406 401 0
-33 -406 404 0
-33 406 -401 -404 0
-34 -406 401 0
-34 -406 405 0
-34 406 -401 -405 0
-35 -406 401 0
-35 406 -401 0
-36 -406 401 0
-36 406 -401 0
-37 -406 401 0
-37 406 -401 0
-38 -406 401 0
-38 406 -401 0
-39 -406 401 0
-39 406 -401 0
-40 -406 401 0
-40 406 -401 0
-54 -406 401 0
-54 406 -401 0
-31 -402 407 0
-31 -401 407 0
-31 -407 402 401 0
-32 -407 402 0
-32 407 -402 0
-33 -407 402 0
-33 407 -402 0
-34 -407 402 0
-34 407 -402 0
-35 -407 402 0
-35 -407 403 0
-35 407 -402 -403 0
-36 -407 402 0
-36 -407 404 0
-36 407 -402 -404 0
-37 -407 402 0
-37 -407 405 0
-37 407 -402 -405 0
-38 -407 402 0
-38 407 -402 0
-39 -407 402 0
-39 407 -402 0
-40 -407 402 0
-40 407 -402 0
-54 -407 402 0
-54 407 -402 0
-31 -408 403 0
-31 408 -403 0
-32 -403 408 0
-32 -401 408 0
-32 -408 403 401 0
-33 -408 403 0
-33 408 -403 0
-34 -408 403 0
-34 408 -403 0
-35 -403 408 0
-35 -402 408 0
-35 -408 403 402 0
-36 -408 403 0
-36 408 -403 0
-37 -408 403 0
-37 408 -403 0
-38 -408 403 0
-38 -408 404 0
-38 408 -403 -404 0
-39 -408 403 0
-39 -408 405 0
-39 408 -403 -405 0
-40 -408 403 0
-40 408 -403 0
-54 -408 403 0
-54 408 -403 0
-31 -409 404 0
-31 409 -404 0
-32 -409 404 0
-32 409 -404 0
-33 -404 409 0
-33 -401 409 0
-33 -409 404 401 0
-34 -409 404 0
-34 409 -404 0
-35 -409 404 0
-35 409 -404 0
-36 -404 409 0
-36 -402 409 0
-36 -409 404 402 0
-37 -409 404 0
-37 409 -404 0
-38 -404 409 0
-38 -403 409 0
-38 -409 404 403 0
-39 -409 404 0
-39 409 -404 0
-40 -409 404 0
-40 -409 405 0
-40 409 -404 -405 0
-54 -409 404 0
-54 409 -404 0
-31 -410 405 0
-31 410 -405 0
-32 -410 405 0
-32 410 -405 0
-33 -410 405 0
-33 410 -405 0
-34 -405 410 0
-34 -401 410 0
-34 -410 405 401 0
-35 -410 405 0
-35 410 -405 0
-36 -410 405 0
-36 410 -405 0
-37 -405 410 0
-37 -402 410 0
-37 -410 405 402 0
-38 -410 405 0
-38 410 -405 0
-39 -405 410 0
-39 -403 410 0
-39 -410 405 403 0
-40 -405 410 0
-40 -404 410 0
-40 -410 405 404 0
-54 -410 405 0
-54 410 -405 0
-41 -411 406 0
-41 -411 407 0
-41 411 -406 -407 0
-42 -411 406 0
-42 -411 408 0
-42 411 -406 -408 0
-43 -411 406 0
-43 -411 409 0
-43 411 -406 -409 0
-44 -411 406 0
-44 -411 410 0
-44 411 -406 -410 0
-45 -411 406 0
-45 411 -406 0
-46 -411 406 0
-46 411 -406 0
-47 -411 406 0
-47 411 -406 0
-48 -411 406 0
-48 411 -406 0
-49 -411 406 0
-49 411 -406 0
-50 -411 406 0
-50 411 -406 0
-55 -411 406 0
-55 411 -406 0
-41 -407 412 0
-41 -406 412 0
-41 -412 407 406 0
-42 -412 407 0
-42 412 -407 0
-43 -412 407 0
-43 412 -407 0
-44 -412 407 0
-44 412 -407 0
-45 -412 407 0
-45 -412 408 0
-45 412 -407 -408 0
-46 -412 407 0
-46 -412 409 0
-46 412 -407 -409 0
-47 -412 407 0
-47 -412 410 0
-47 412 -407 -410 0
-48 -412 407 0
-48 412 -407 0
-49 -412 407 0
-49 412 -407 0
-50 -412 407 0
-50 412 -407 0
-55 -412 407 0
-55 412 -407 0
-41 -413 408 0
-41 413 -408 0
-42 -408 413 0
-42 -406 413 0
-42 -413 408 406 0
-43 -413 408 0
-43 413 -408 0
-44 -413 408 0
-44 413 -408 0
-45 -408 413 0
-45 -407 413 0
-45 -413 408 407 0
-46 -413 408 0
-46 413 -408 0
-47 -413 408 0
-47 413 -408 0
-48 -413 408 0
-48 -413 409 0
-48 413 -408 -409 0
-49 -413 408 0
-49 -413 410 0
-49 413 -408 -410 0
-50 -413 408 0
-50 413 -408 0
-55 -413 408 0
-55 413 -408 0
-41 -414 409 0
-41 414 -409 0
-42 -414 409 0
-42 414 -409 0
-43 -409 414 0
-43 -406 414 0
-43 -414 409 406 0
-44 -414 409 0
-44 414 -409 0
-45 -414 409 0
-45 414 -409 0
-46 -409 414 0
-46 -407 414 0
-46 -414 409 407 0
-47 -414 409 0
-47 414 -409 0
-48 -409 414 0
-48 -408 414 0
-48 -414 409 408 0
-49 -414 409 0
-49 414 -409 0
-50 -414 409 0
-50 -414 410 0
-50 414 -409 -410 0
-55 -414 409 0
-55 414 -409 0
-41 -415 410 0
-41 415 -410 0
-42 -415 410 0
-42 415 -410 0
-43 -415 410 0
-43 415 -410 0
-44 -410 415 0
-44 -406 415 0
-44 -415 410 406 0
-45 -415 410 0
-45 415 -410 0
-46 -415 410 0
-46 415 -410 0
-47 -410 415 0
-47 -407 415 0
-47 -415 410 407 0
-48 -415 410 0
-48 415 -410 0
-49 -410 415 0
-49 -408 415 0
-49 -415 410 408 0
-50 -410 415 0
-50 -409 415 0
-50 -415 410 409 0
-55 -415 410 0
-55 415 -410 0
-81 82 0
-82 83 0
-83 84 0
-84 85 0
-111 112 0
-112 113 0
-113 114 0
-114 115 0
-141 142 0
-142 143 0
-143 144 0
-144 145 0
-171 172 0
-172 173 0
-173 174 0
-174 175 0
-201 202 0
-202 203 0
-203 204 0
-204 205 0
-231 232 0
-232 233 0
-233 234 0
-234 235 0
-261 262 0
-262 263 0
-263 264 0
-264 265 0
-291 292 0
-292 293 0
-293 294 0
-294 295 0
-321 322 0
-322 323 0
-323 324 0
-324 325 0
-351 352 0
-352 353 0
-353 354 0
-354 355 0
-381 382 0
-382 383 0
-383 384 0
-384 385 0
-411 412 0
-412 413 0
-413 414 0
-414 415 0
