p cnf 273 5006
1 2 3 4 5 6 7 8 9 10 31 0
-1 -2 0
-1 -3 0
-1 -4 0
-1 -5 0
-1 -6 0
-1 -7 0
-1 -8 0
-1 -9 0
-1 -10 0
-1 -31 0
-2 -3 0
-2 -4 0
-2 -5 0
-2 -6 0
-2 -7 0
-2 -8 0
-2 -9 0
-2 -10 0
-2 -31 0
-3 -4 0
-3 -5 0
-3 -6 0
-3 -7 0
-3 -8 0
-3 -9 0
-3 -10 0
-3 -31 0
-4 -5 0
-4 -6 0
-4 -7 0
-4 -8 0
-4 -9 0
-4 -10 0
-4 -31 0
-5 -6 0
-5 -7 0
-5 -8 0
-5 -9 0
-5 -10 0
-5 -31 0
-6 -7 0
-6 -8 0
-6 -9 0
-6 -10 0
-6 -31 0
-7 -8 0
-7 -9 0
-7 -10 0
-7 -31 0
-8 -9 0
-8 -10 0
-8 -31 0
-9 -10 0
-9 -31 0
-10 -31 0
11 12 13 14 15 16 17 18 19 20 32 0
-11 -12 0
-11 -13 0
-11 -14 0
-11 -15 0
-11 -16 0
-11 -17 0
-11 -18 0
-11 -19 0
-11 -20 0
-11 -32 0
-12 -13 0
-12 -14 0
-12 -15 0
-12 -16 0
-12 -17 0
-12 -18 0
-12 -19 0
-12 -20 0
-12 -32 0
-13 -14 0
-13 -15 0
-13 -16 0
-13 -17 0
-13 -18 0
-13 -19 0
-13 -20 0
-13 -32 0
-14 -15 0
-14 -16 0
-14 -17 0
-14 -18 0
-14 -19 0
-14 -20 0
-14 -32 0
-15 -16 0
-15 -17 0
-15 -18 0
-15 -19 0
-15 -20 0
-15 -32 0
-16 -17 0
-16 -18 0
-16 -19 0
-16 -20 0
-16 -32 0
-17 -18 0
-17 -19 0
-17 -20 0
-17 -32 0
-18 -19 0
-18 -20 0
-18 -32 0
-19 -20 0
-19 -32 0
-20 -32 0
21 22 23 24 25 26 27 28 29 30 33 0
-21 -22 0
-21 -23 0
-21 -24 0
-21 -25 0
-21 -26 0
-21 -27 0
-21 -28 0
-21 -29 0
-21 -30 0
-21 -33 0
-22 -23 0
-22 -24 0
-22 -25 0
-22 -26 0
-22 -27 0
-22 -28 0
-22 -29 0
-22 -30 0
-22 -33 0
-23 -24 0
-23 -25 0
-23 -26 0
-23 -27 0
-23 -28 0
-23 -29 0
-23 -30 0
-23 -33 0
-24 -25 0
-24 -26 0
-24 -27 0
-24 -28 0
-24 -29 0
-24 -30 0
-24 -33 0
-25 -26 0
-25 -27 0
-25 -28 0
-25 -29 0
-25 -30 0
-25 -33 0
-26 -27 0
-26 -28 0
-26 -29 0
-26 -30 0
-26 -33 0
-27 -28 0
-27 -29 0
-27 -30 0
-27 -33 0
-28 -29 0
-28 -30 0
-28 -33 0
-29 -30 0
-29 -33 0
-30 -33 0
-1 -11 0
-2 -12 0
-3 -13 0
-4 -14 0
-5 -15 0
-6 -16 0
-7 -17 0
-8 -18 0
-9 -19 0
-10 -20 0
-11 -21 0
-12 -22 0
-13 -23 0
-14 -24 0
-15 -25 0
-16 -26 0
-17 -27 0
-18 -28 0
-19 -29 0
-20 -30 0
-5 -13 0
-5 -14 0
-6 -12 0
-6 -14 0
-7 -12 0
-7 -13 0
-8 -11 0
-8 -14 0
-8 -17 0
-9 -11 0
-9 -13 0
-9 -16 0
-10 -11 0
-10 -12 0
-10 -15 0
-15 -23 0
-15 -24 0
-16 -22 0
-16 -24 0
-17 -22 0
-17 -23 0
-18 -21 0
-18 -24 0
-18 -27 0
-19 -21 0
-19 -23 0
-19 -26 0
-20 -21 0
-20 -22 0
-20 -25 0
-34 0
-1 -39 34 0
-1 -39 35 0
-1 39 -34 -35 0
-2 -39 34 0
-2 -39 36 0
-2 39 -34 -36 0
-3 -39 34 0
-3 -39 37 0
-3 39 -34 -37 0
-4 -39 34 0
-4 -39 38 0
-4 39 -34 -38 0
-5 -39 34 0
-5 39 -34 0
-6 -39 34 0
-6 39 -34 0
-7 -39 34 0
-7 39 -34 0
-8 -39 34 0
-8 39 -34 0
-9 -39 34 0
-9 39 -34 0
-10 -39 34 0
-10 39 -34 0
-31 -39 34 0
-31 39 -34 0
-35 0
-1 -35 40 0
-1 -34 40 0
-1 -40 35 34 0
-2 -40 35 0
-2 40 -35 0
-3 -40 35 0
-3 40 -35 0
-4 -40 35 0
-4 40 -35 0
-5 -40 35 0
-5 -40 36 0
-5 40 -35 -36 0
-6 -40 35 0
-6 -40 37 0
-6 40 -35 -37 0
-7 -40 35 0
-7 -40 38 0
-7 40 -35 -38 0
-8 -40 35 0
-8 40 -35 0
-9 -40 35 0
-9 40 -35 0
-10 -40 35 0
-10 40 -35 0
-31 -40 35 0
-31 40 -35 0
-36 0
-1 -41 36 0
-1 41 -36 0
-2 -36 41 0
-2 -34 41 0
-2 -41 36 34 0
-3 -41 36 0
-3 41 -36 0
-4 -41 36 0
-4 41 -36 0
-5 -36 41 0
-5 -35 41 0
-5 -41 36 35 0
-6 -41 36 0
-6 41 -36 0
-7 -41 36 0
-7 41 -36 0
-8 -41 36 0
-8 -41 37 0
-8 41 -36 -37 0
-9 -41 36 0
-9 -41 38 0
-9 41 -36 -38 0
-10 -41 36 0
-10 41 -36 0
-31 -41 36 0
-31 41 -36 0
-37 0
-1 -42 37 0
-1 42 -37 0
-2 -42 37 0
-2 42 -37 0
-3 -37 42 0
-3 -34 42 0
-3 -42 37 34 0
-4 -42 37 0
-4 42 -37 0
-5 -42 37 0
-5 42 -37 0
-6 -37 42 0
-6 -35 42 0
-6 -42 37 35 0
-7 -42 37 0
-7 42 -37 0
-8 -37 42 0
-8 -36 42 0
-8 -42 37 36 0
-9 -42 37 0
-9 42 -37 0
-10 -42 37 0
-10 -42 38 0
-10 42 -37 -38 0
-31 -42 37 0
-31 42 -37 0
-38 0
-1 -43 38 0
-1 43 -38 0
-2 -43 38 0
-2 43 -38 0
-3 -43 38 0
-3 43 -38 0
-4 -38 43 0
-4 -34 43 0
-4 -43 38 34 0
-5 -43 38 0
-5 43 -38 0
-6 -43 38 0
-6 43 -38 0
-7 -38 43 0
-7 -35 43 0
-7 -43 38 35 0
-8 -43 38 0
-8 43 -38 0
-9 -38 43 0
-9 -36 43 0
-9 -43 38 36 0
-10 -38 43 0
-10 -37 43 0
-10 -43 38 37 0
-31 -43 38 0
-31 43 -38 0
-11 -44 39 0
-11 -44 40 0
-11 44 -39 -40 0
-12 -44 39 0
-12 -44 41 0
-12 44 -39 -41 0
-13 -44 39 0
-13 -44 42 0
-13 44 -39 -42 0
-14 -44 39 0
-14 -44 43 0
-14 44 -39 -43 0
-15 -44 39 0
-15 44 -39 0
-16 -44 39 0
-16 44 -39 0
-17 -44 39 0
-17 44 -39 0
-18 -44 39 0
-18 44 -39 0
-19 -44 39 0
-19 44 -39 0
-20 -44 39 0
-20 44 -39 0
-32 -44 39 0
-32 44 -39 0
-11 -40 45 0
-11 -39 45 0
-11 -45 40 39 0
-12 -45 40 0
-12 45 -40 0
-13 -45 40 0
-13 45 -40 0
-14 -45 40 0
-14 45 -40 0
-15 -45 40 0
-15 -45 41 0
-15 45 -40 -41 0
-16 -45 40 0
-16 -45 42 0
-16 45 -40 -42 0
-17 -45 40 0
-17 -45 43 0
-17 45 -40 -43 0
-18 -45 40 0
-18 45 -40 0
-19 -45 40 0
-19 45 -40 0
-20 -45 40 0
-20 45 -40 0
-32 -45 40 0
-32 45 -40 0
-11 -46 41 0
-11 46 -41 0
-12 -41 46 0
-12 -39 46 0
-12 -46 41 39 0
-13 -46 41 0
-13 46 -41 0
-14 -46 41 0
-14 46 -41 0
-15 -41 46 0
-15 -40 46 0
-15 -46 41 40 0
-16 -46 41 0
-16 46 -41 0
-17 -46 41 0
-17 46 -41 0
-18 -46 41 0
-18 -46 42 0
-18 46 -41 -42 0
-19 -46 41 0
-19 -46 43 0
-19 46 -41 -43 0
-20 -46 41 0
-20 46 -41 0
-32 -46 41 0
-32 46 -41 0
-11 -47 42 0
-11 47 -42 0
-12 -47 42 0
-12 47 -42 0
-13 -42 47 0
-13 -39 47 0
-13 -47 42 39 0
-14 -47 42 0
-14 47 -42 0
-15 -47 42 0
-15 47 -42 0
-16 -42 47 0
-16 -40 47 0
-16 -47 42 40 0
-17 -47 42 0
-17 47 -42 0
-18 -42 47 0
-18 -41 47 0
-18 -47 42 41 0
-19 -47 42 0
-19 47 -42 0
-20 -47 42 0
-20 -47 43 0
-20 47 -42 -43 0
-32 -47 42 0
-32 47 -42 0
-11 -48 43 0
-11 48 -43 0
-12 -48 43 0
-12 48 -43 0
-13 -48 43 0
-13 48 -43 0
-14 -43 48 0
-14 -39 48 0
-14 -48 43 39 0
-15 -48 43 0
-15 48 -43 0
-16 -48 43 0
-16 48 -43 0
-17 -43 48 0
-17 -40 48 0
-17 -48 43 40 0
-18 -48 43 0
-18 48 -43 0
-19 -43 48 0
-19 -41 48 0
-19 -48 43 41 0
-20 -43 48 0
-20 -42 48 0
-20 -48 43 42 0
-32 -48 43 0
-32 48 -43 0
-21 -49 44 0
-21 -49 45 0
-21 49 -44 -45 0
-22 -49 44 0
-22 -49 46 0
-22 49 -44 -46 0
-23 -49 44 0
-23 -49 47 0
-23 49 -44 -47 0
-24 -49 44 0
-24 -49 48 0
-24 49 -44 -48 0
-25 -49 44 0
-25 49 -44 0
-26 -49 44 0
-26 49 -44 0
-27 -49 44 0
-27 49 -44 0
-28 -49 44 0
-28 49 -44 0
-29 -49 44 0
-29 49 -44 0
-30 -49 44 0
-30 49 -44 0
-33 -49 44 0
-33 49 -44 0
-21 -45 50 0
-21 -44 50 0
-21 -50 45 44 0
-22 -50 45 0
-22 50 -45 0
-23 -50 45 0
-23 50 -45 0
-24 -50 45 0
-24 50 -45 0
-25 -50 45 0
-25 -50 46 0
-25 50 -45 -46 0
-26 -50 45 0
-26 -50 47 0
-26 50 -45 -47 0
-27 -50 45 0
-27 -50 48 0
-27 50 -45 -48 0
-28 -50 45 0
-28 50 -45 0
-29 -50 45 0
-29 50 -45 0
-30 -50 45 0
-30 50 -45 0
-33 -50 45 0
-33 50 -45 0
-21 -51 46 0
-21 51 -46 0
-22 -46 51 0
-22 -44 51 0
-22 -51 46 44 0
-23 -51 46 0
-23 51 -46 0
-24 -51 46 0
-24 51 -46 0
-25 -46 51 0
-25 -45 51 0
-25 -51 46 45 0
-26 -51 46 0
-26 51 -46 0
-27 -51 46 0
-27 51 -46 0
-28 -51 46 0
-28 -51 47 0
-28 51 -46 -47 0
-29 -51 46 0
-29 -51 48 0
-29 51 -46 -48 0
-30 -51 46 0
-30 51 -46 0
-33 -51 46 0
-33 51 -46 0
-21 -52 47 0
-21 52 -47 0
-22 -52 47 0
-22 52 -47 0
-23 -47 52 0
-23 -44 52 0
-23 -52 47 44 0
-24 -52 47 0
-24 52 -47 0
-25 -52 47 0
-25 52 -47 0
-26 -47 52 0
-26 -45 52 0
-26 -52 47 45 0
-27 -52 47 0
-27 52 -47 0
-28 -47 52 0
-28 -46 52 0
-28 -52 47 46 0
-29 -52 47 0
-29 52 -47 0
-30 -52 47 0
-30 -52 48 0
-30 52 -47 -48 0
-33 -52 47 0
-33 52 -47 0
-21 -53 48 0
-21 53 -48 0
-22 -53 48 0
-22 53 -48 0
-23 -53 48 0
-23 53 -48 0
-24 -48 53 0
-24 -44 53 0
-24 -53 48 44 0
-25 -53 48 0
-25 53 -48 0
-26 -53 48 0
-26 53 -48 0
-27 -48 53 0
-27 -45 53 0
-27 -53 48 45 0
-28 -53 48 0
-28 53 -48 0
-29 -48 53 0
-29 -46 53 0
-29 -53 48 46 0
-30 -48 53 0
-30 -47 53 0
-30 -53 48 47 0
-33 -53 48 0
-33 53 -48 0
-54 0
-1 -59 54 0
-1 -59 55 0
-1 59 -54 -55 0
-2 -59 54 0
-2 -59 56 0
-2 59 -54 -56 0
-3 -59 54 0
-3 -59 57 0
-3 59 -54 -57 0
-4 -59 54 0
-4 -59 58 0
-4 59 -54 -58 0
-5 -59 54 0
-5 59 -54 0
-6 -59 54 0
-6 59 -54 0
-7 -59 54 0
-7 59 -54 0
-8 -59 54 0
-8 59 -54 0
-9 -59 54 0
-9 59 -54 0
-10 -59 54 0
-10 59 -54 0
-31 -59 54 0
-31 59 -54 0
-55 0
-1 -55 60 0
-1 -54 60 0
-1 -60 55 54 0
-2 -60 55 0
-2 60 -55 0
-3 -60 55 0
-3 60 -55 0
-4 -60 55 0
-4 60 -55 0
-5 -60 55 0
-5 -60 56 0
-5 60 -55 -56 0
-6 -60 55 0
-6 -60 57 0
-6 60 -55 -57 0
-7 -60 55 0
-7 -60 58 0
-7 60 -55 -58 0
-8 -60 55 0
-8 60 -55 0
-9 -60 55 0
-9 60 -55 0
-10 -60 55 0
-10 60 -55 0
-31 -60 55 0
-31 60 -55 0
-56 0
-1 -61 56 0
-1 61 -56 0
-2 -56 61 0
-2 -54 61 0
-2 -61 56 54 0
-3 -61 56 0
-3 61 -56 0
-4 -61 56 0
-4 61 -56 0
-5 -56 61 0
-5 -55 61 0
-5 -61 56 55 0
-6 -61 56 0
-6 61 -56 0
-7 -61 56 0
-7 61 -56 0
-8 -61 56 0
-8 -61 57 0
-8 61 -56 -57 0
-9 -61 56 0
-9 -61 58 0
-9 61 -56 -58 0
-10 -61 56 0
-10 61 -56 0
-31 -61 56 0
-31 61 -56 0
-57 0
-1 -62 57 0
-1 62 -57 0
-2 -62 57 0
-2 62 -57 0
-3 -57 62 0
-3 -54 62 0
-3 -62 57 54 0
-4 -62 57 0
-4 62 -57 0
-5 -62 57 0
-5 62 -57 0
-6 -57 62 0
-6 -55 62 0
-6 -62 57 55 0
-7 -62 57 0
-7 62 -57 0
-8 -57 62 0
-8 -56 62 0
-8 -62 57 56 0
-9 -62 57 0
-9 62 -57 0
-10 -62 57 0
-10 -62 58 0
-10 62 -57 -58 0
-31 -62 57 0
-31 62 -57 0
58 0
-1 -63 58 0
-1 63 -58 0
-2 -63 58 0
-2 63 -58 0
-3 -63 58 0
-3 63 -58 0
-4 -58 63 0
-4 -54 63 0
-4 -63 58 54 0
-5 -63 58 0
-5 63 -58 0
-6 -63 58 0
-6 63 -58 0
-7 -58 63 0
-7 -55 63 0
-7 -63 58 55 0
-8 -63 58 0
-8 63 -58 0
-9 -58 63 0
-9 -56 63 0
-9 -63 58 56 0
-10 -58 63 0
-10 -57 63 0
-10 -63 58 57 0
-31 -63 58 0
-31 63 -58 0
-11 -64 59 0
-11 -64 60 0
-11 64 -59 -60 0
-12 -64 59 0
-12 -64 61 0
-12 64 -59 -61 0
-13 -64 59 0
-13 -64 62 0
-13 64 -59 -62 0
-14 -64 59 0
-14 -64 63 0
-14 64 -59 -63 0
-15 -64 59 0
-15 64 -59 0
-16 -64 59 0
-16 64 -59 0
-17 -64 59 0
-17 64 -59 0
-18 -64 59 0
-18 64 -59 0
-19 -64 59 0
-19 64 -59 0
-20 -64 59 0
-20 64 -59 0
-32 -64 59 0
-32 64 -59 0
-11 -60 65 0
-11 -59 65 0
-11 -65 60 59 0
-12 -65 60 0
-12 65 -60 0
-13 -65 60 0
-13 65 -60 0
-14 -65 60 0
-14 65 -60 0
-15 -65 60 0
-15 -65 61 0
-15 65 -60 -61 0
-16 -65 60 0
-16 -65 62 0
-16 65 -60 -62 0
-17 -65 60 0
-17 -65 63 0
-17 65 -60 -63 0
-18 -65 60 0
-18 65 -60 0
-19 -65 60 0
-19 65 -60 0
-20 -65 60 0
-20 65 -60 0
-32 -65 60 0
-32 65 -60 0
-11 -66 61 0
-11 66 -61 0
-12 -61 66 0
-12 -59 66 0
-12 -66 61 59 0
-13 -66 61 0
-13 66 -61 0
-14 -66 61 0
-14 66 -61 0
-15 -61 66 0
-15 -60 66 0
-15 -66 61 60 0
-16 -66 61 0
-16 66 -61 0
-17 -66 61 0
-17 66 -61 0
-18 -66 61 0
-18 -66 62 0
-18 66 -61 -62 0
-19 -66 61 0
-19 -66 63 0
-19 66 -61 -63 0
-20 -66 61 0
-20 66 -61 0
-32 -66 61 0
-32 66 -61 0
-11 -67 62 0
-11 67 -62 0
-12 -67 62 0
-12 67 -62 0
-13 -62 67 0
-13 -59 67 0
-13 -67 62 59 0
-14 -67 62 0
-14 67 -62 0
-15 -67 62 0
-15 67 -62 0
-16 -62 67 0
-16 -60 67 0
-16 -67 62 60 0
-17 -67 62 0
-17 67 -62 0
-18 -62 67 0
-18 -61 67 0
-18 -67 62 61 0
-19 -67 62 0
-19 67 -62 0
-20 -67 62 0
-20 -67 63 0
-20 67 -62 -63 0
-32 -67 62 0
-32 67 -62 0
-11 -68 63 0
-11 68 -63 0
-12 -68 63 0
-12 68 -63 0
-13 -68 63 0
-13 68 -63 0
-14 -63 68 0
-14 -59 68 0
-14 -68 63 59 0
-15 -68 63 0
-15 68 -63 0
-16 -68 63 0
-16 68 -63 0
-17 -63 68 0
-17 -60 68 0
-17 -68 63 60 0
-18 -68 63 0
-18 68 -63 0
-19 -63 68 0
-19 -61 68 0
-19 -68 63 61 0
-20 -63 68 0
-20 -62 68 0
-20 -68 63 62 0
-32 -68 63 0
-32 68 -63 0
-21 -69 64 0
-21 -69 65 0
-21 69 -64 -65 0
-22 -69 64 0
-22 -69 66 0
-22 69 -64 -66 0
-23 -69 64 0
-23 -69 67 0
-23 69 -64 -67 0
-24 -69 64 0
-24 -69 68 0
-24 69 -64 -68 0
-25 -69 64 0
-25 69 -64 0
-26 -69 64 0
-26 69 -64 0
-27 -69 64 0
-27 69 -64 0
-28 -69 64 0
-28 69 -64 0
-29 -69 64 0
-29 69 -64 0
-30 -69 64 0
-30 69 -64 0
-33 -69 64 0
-33 69 -64 0
-21 -65 70 0
-21 -64 70 0
-21 -70 65 64 0
-22 -70 65 0
-22 70 -65 0
-23 -70 65 0
-23 70 -65 0
-24 -70 65 0
-24 70 -65 0
-25 -70 65 0
-25 -70 66 0
-25 70 -65 -66 0
-26 -70 65 0
-26 -70 67 0
-26 70 -65 -67 0
-27 -70 65 0
-27 -70 68 0
-27 70 -65 -68 0
-28 -70 65 0
-28 70 -65 0
-29 -70 65 0
-29 70 -65 0
-30 -70 65 0
-30 70 -65 0
-33 -70 65 0
-33 70 -65 0
-21 -71 66 0
-21 71 -66 0
-22 -66 71 0
-22 -64 71 0
-22 -71 66 64 0
-23 -71 66 0
-23 71 -66 0
-24 -71 66 0
-24 71 -66 0
-25 -66 71 0
-25 -65 71 0
-25 -71 66 65 0
-26 -71 66 0
-26 71 -66 0
-27 -71 66 0
-27 71 -66 0
-28 -71 66 0
-28 -71 67 0
-28 71 -66 -67 0
-29 -71 66 0
-29 -71 68 0
-29 71 -66 -68 0
-30 -71 66 0
-30 71 -66 0
-33 -71 66 0
-33 71 -66 0
-21 -72 67 0
-21 72 -67 0
-22 -72 67 0
-22 72 -67 0
-23 -67 72 0
-23 -64 72 0
-23 -72 67 64 0
-24 -72 67 0
-24 72 -67 0
-25 -72 67 0
-25 72 -67 0
-26 -67 72 0
-26 -65 72 0
-26 -72 67 65 0
-27 -72 67 0
-27 72 -67 0
-28 -67 72 0
-28 -66 72 0
-28 -72 67 66 0
-29 -72 67 0
-29 72 -67 0
-30 -72 67 0
-30 -72 68 0
-30 72 -67 -68 0
-33 -72 67 0
-33 72 -67 0
-21 -73 68 0
-21 73 -68 0
-22 -73 68 0
-22 73 -68 0
-23 -73 68 0
-23 73 -68 0
-24 -68 73 0
-24 -64 73 0
-24 -73 68 64 0
-25 -73 68 0
-25 73 -68 0
-26 -73 68 0
-26 73 -68 0
-27 -68 73 0
-27 -65 73 0
-27 -73 68 65 0
-28 -73 68 0
-28 73 -68 0
-29 -68 73 0
-29 -66 73 0
-29 -73 68 66 0
-30 -68 73 0
-30 -67 73 0
-30 -73 68 67 0
-33 -73 68 0
-33 73 -68 0
-74 0
-1 -79 74 0
-1 -79 75 0
-1 79 -74 -75 0
-2 -79 74 0
-2 -79 76 0
-2 79 -74 -76 0
-3 -79 74 0
-3 -79 77 0
-3 79 -74 -77 0
-4 -79 74 0
-4 -79 78 0
-4 79 -74 -78 0
-5 -79 74 0
-5 79 -74 0
-6 -79 74 0
-6 79 -74 0
-7 -79 74 0
-7 79 -74 0
-8 -79 74 0
-8 79 -74 0
-9 -79 74 0
-9 79 -74 0
-10 -79 74 0
-10 79 -74 0
-31 -79 74 0
-31 79 -74 0
-75 0
-1 -75 80 0
-1 -74 80 0
-1 -80 75 74 0
-2 -80 75 0
-2 80 -75 0
-3 -80 75 0
-3 80 -75 0
-4 -80 75 0
-4 80 -75 0
-5 -80 75 0
-5 -80 76 0
-5 80 -75 -76 0
-6 -80 75 0
-6 -80 77 0
-6 80 -75 -77 0
-7 -80 75 0
-7 -80 78 0
-7 80 -75 -78 0
-8 -80 75 0
-8 80 -75 0
-9 -80 75 0
-9 80 -75 0
-10 -80 75 0
-10 80 -75 0
-31 -80 75 0
-31 80 -75 0
-76 0
-1 -81 76 0
-1 81 -76 0
-2 -76 81 0
-2 -74 81 0
-2 -81 76 74 0
-3 -81 76 0
-3 81 -76 0
-4 -81 76 0
-4 81 -76 0
-5 -76 81 0
-5 -75 81 0
-5 -81 76 75 0
-6 -81 76 0
-6 81 -76 0
-7 -81 76 0
-7 81 -76 0
-8 -81 76 0
-8 -81 77 0
-8 81 -76 -77 0
-9 -81 76 0
-9 -81 78 0
-9 81 -76 -78 0
-10 -81 76 0
-10 81 -76 0
-31 -81 76 0
-31 81 -76 0
77 0
-1 -82 77 0
-1 82 -77 0
-2 -82 77 0
-2 82 -77 0
-3 -77 82 0
-3 -74 82 0
-3 -82 77 74 0
-4 -82 77 0
-4 82 -77 0
-5 -82 77 0
-5 82 -77 0
-6 -77 82 0
-6 -75 82 0
-6 -82 77 75 0
-7 -82 77 0
-7 82 -77 0
-8 -77 82 0
-8 -76 82 0
-8 -82 77 76 0
-9 -82 77 0
-9 82 -77 0
-10 -82 77 0
-10 -82 78 0
-10 82 -77 -78 0
-31 -82 77 0
-31 82 -77 0
78 0
-1 -83 78 0
-1 83 -78 0
-2 -83 78 0
-2 83 -78 0
-3 -83 78 0
-3 83 -78 0
-4 -78 83 0
-4 -74 83 0
-4 -83 78 74 0
-5 -83 78 0
-5 83 -78 0
-6 -83 78 0
-6 83 -78 0
-7 -78 83 0
-7 -75 83 0
-7 -83 78 75 0
-8 -83 78 0
-8 83 -78 0
-9 -78 83 0
-9 -76 83 0
-9 -83 78 76 0
-10 -78 83 0
-10 -77 83 0
-10 -83 78 77 0
-31 -83 78 0
-31 83 -78 0
-11 -84 79 0
-11 -84 80 0
-11 84 -79 -80 0
-12 -84 79 0
-12 -84 81 0
-12 84 -79 -81 0
-13 -84 79 0
-13 -84 82 0
-13 84 -79 -82 0
-14 -84 79 0
-14 -84 83 0
-14 84 -79 -83 0
-15 -84 79 0
-15 84 -79 0
-16 -84 79 0
-16 84 -79 0
-17 -84 79 0
-17 84 -79 0
-18 -84 79 0
-18 84 -79 0
-19 -84 79 0
-19 84 -79 0
-20 -84 79 0
-20 84 -79 0
-32 -84 79 0
-32 84 -79 0
-11 -80 85 0
-11 -79 85 0
-11 -85 80 79 0
-12 -85 80 0
-12 85 -80 0
-13 -85 80 0
-13 85 -80 0
-14 -85 80 0
-14 85 -80 0
-15 -85 80 0
-15 -85 81 0
-15 85 -80 -81 0
-16 -85 80 0
-16 -85 82 0
-16 85 -80 -82 0
-17 -85 80 0
-17 -85 83 0
-17 85 -80 -83 0
-18 -85 80 0
-18 85 -80 0
-19 -85 80 0
-19 85 -80 0
-20 -85 80 0
-20 85 -80 0
-32 -85 80 0
-32 85 -80 0
-11 -86 81 0
-11 86 -81 0
-12 -81 86 0
-12 -79 86 0
-12 -86 81 79 0
-13 -86 81 0
-13 86 -81 0
-14 -86 81 0
-14 86 -81 0
-15 -81 86 0
-15 -80 86 0
-15 -86 81 80 0
-16 -86 81 0
-16 86 -81 0
-17 -86 81 0
-17 86 -81 0
-18 -86 81 0
-18 -86 82 0
-18 86 -81 -82 0
-19 -86 81 0
-19 -86 83 0
-19 86 -81 -83 0
-20 -86 81 0
-20 86 -81 0
-32 -86 81 0
-32 86 -81 0
-11 -87 82 0
-11 87 -82 0
-12 -87 82 0
-12 87 -82 0
-13 -82 87 0
-13 -79 87 0
-13 -87 82 79 0
-14 -87 82 0
-14 87 -82 0
-15 -87 82 0
-15 87 -82 0
-16 -82 87 0
-16 -80 87 0
-16 -87 82 80 0
-17 -87 82 0
-17 87 -82 0
-18 -82 87 0
-18 -81 87 0
-18 -87 82 81 0
-19 -87 82 0
-19 87 -82 0
-20 -87 82 0
-20 -87 83 0
-20 87 -82 -83 0
-32 -87 82 0
-32 87 -82 0
-11 -88 83 0
-11 88 -83 0
-12 -88 83 0
-12 88 -83 0
-13 -88 83 0
-13 88 -83 0
-14 -83 88 0
-14 -79 88 0
-14 -88 83 79 0
-15 -88 83 0
-15 88 -83 0
-16 -88 83 0
-16 88 -83 0
-17 -83 88 0
-17 -80 88 0
-17 -88 83 80 0
-18 -88 83 0
-18 88 -83 0
-19 -83 88 0
-19 -81 88 0
-19 -88 83 81 0
-20 -83 88 0
-20 -82 88 0
-20 -88 83 82 0
-32 -88 83 0
-32 88 -83 0
-21 -89 84 0
-21 -89 85 0
-21 89 -84 -85 0
-22 -89 84 0
-22 -89 86 0
-22 89 -84 -86 0
-23 -89 84 0
-23 -89 87 0
-23 89 -84 -87 0
-24 -89 84 0
-24 -89 88 0
-24 89 -84 -88 0
-25 -89 84 0
-25 89 -84 0
-26 -89 84 0
-26 89 -84 0
-27 -89 84 0
-27 89 -84 0
-28 -89 84 0
-28 89 -84 0
-29 -89 84 0
-29 89 -84 0
-30 -89 84 0
-30 89 -84 0
-33 -89 84 0
-33 89 -84 0
-21 -85 90 0
-21 -84 90 0
-21 -90 85 84 0
-22 -90 85 0
-22 90 -85 0
-23 -90 85 0
-23 90 -85 0
-24 -90 85 0
-24 90 -85 0
-25 -90 85 0
-25 -90 86 0
-25 90 -85 -86 0
-26 -90 85 0
-26 -90 87 0
-26 90 -85 -87 0
-27 -90 85 0
-27 -90 88 0
-27 90 -85 -88 0
-28 -90 85 0
-28 90 -85 0
-29 -90 85 0
-29 90 -85 0
-30 -90 85 0
-30 90 -85 0
-33 -90 85 0
-33 90 -85 0
-21 -91 86 0
-21 91 -86 0
-22 -86 91 0
-22 -84 91 0
-22 -91 86 84 0
-23 -91 86 0
-23 91 -86 0
-24 -91 86 0
-24 91 -86 0
-25 -86 91 0
-25 -85 91 0
-25 -91 86 85 0
-26 -91 86 0
-26 91 -86 0
-27 -91 86 0
-27 91 -86 0
-28 -91 86 0
-28 -91 87 0
-28 91 -86 -87 0
-29 -91 86 0
-29 -91 88 0
-29 91 -86 -88 0
-30 -91 86 0
-30 91 -86 0
-33 -91 86 0
-33 91 -86 0
-21 -92 87 0
-21 92 -87 0
-22 -92 87 0
-22 92 -87 0
-23 -87 92 0
-23 -84 92 0
-23 -92 87 84 0
-24 -92 87 0
-24 92 -87 0
-25 -92 87 0
-25 92 -87 0
-26 -87 92 0
-26 -85 92 0
-26 -92 87 85 0
-27 -92 87 0
-27 92 -87 0
-28 -87 92 0
-28 -86 92 0
-28 -92 87 86 0
-29 -92 87 0
-29 92 -87 0
-30 -92 87 0
-30 -92 88 0
-30 92 -87 -88 0
-33 -92 87 0
-33 92 -87 0
-21 -93 88 0
-21 93 -88 0
-22 -93 88 0
-22 93 -88 0
-23 -93 88 0
-23 93 -88 0
-24 -88 93 0
-24 -84 93 0
-24 -93 88 84 0
-25 -93 88 0
-25 93 -88 0
-26 -93 88 0
-26 93 -88 0
-27 -88 93 0
-27 -85 93 0
-27 -93 88 85 0
-28 -93 88 0
-28 93 -88 0
-29 -88 93 0
-29 -86 93 0
-29 -93 88 86 0
-30 -88 93 0
-30 -87 93 0
-30 -93 88 87 0
-33 -93 88 0
-33 93 -88 0
-94 0
-1 -99 94 0
-1 -99 95 0
-1 99 -94 -95 0
-2 -99 94 0
-2 -99 96 0
-2 99 -94 -96 0
-3 -99 94 0
-3 -99 97 0
-3 99 -94 -97 0
-4 -99 94 0
-4 -99 98 0
-4 99 -94 -98 0
-5 -99 94 0
-5 99 -94 0
-6 -99 94 0
-6 99 -94 0
-7 -99 94 0
-7 99 -94 0
-8 -99 94 0
-8 99 -94 0
-9 -99 94 0
-9 99 -94 0
-10 -99 94 0
-10 99 -94 0
-31 -99 94 0
-31 99 -94 0
-95 0
-1 -95 100 0
-1 -94 100 0
-1 -100 95 94 0
-2 -100 95 0
-2 100 -95 0
-3 -100 95 0
-3 100 -95 0
-4 -100 95 0
-4 100 -95 0
-5 -100 95 0
-5 -100 96 0
-5 100 -95 -96 0
-6 -100 95 0
-6 -100 97 0
-6 100 -95 -97 0
-7 -100 95 0
-7 -100 98 0
-7 100 -95 -98 0
-8 -100 95 0
-8 100 -95 0
-9 -100 95 0
-9 100 -95 0
-10 -100 95 0
-10 100 -95 0
-31 -100 95 0
-31 100 -95 0
96 0
-1 -101 96 0
-1 101 -96 0
-2 -96 101 0
-2 -94 101 0
-2 -101 96 94 0
-3 -101 96 0
-3 101 -96 0
-4 -101 96 0
-4 101 -96 0
-5 -96 101 0
-5 -95 101 0
-5 -101 96 95 0
-6 -101 96 0
-6 101 -96 0
-7 -101 96 0
-7 101 -96 0
-8 -101 96 0
-8 -101 97 0
-8 101 -96 -97 0
-9 -101 96 0
-9 -101 98 0
-9 101 -96 -98 0
-10 -101 96 0
-10 101 -96 0
-31 -101 96 0
-31 101 -96 0
97 0
-1 -102 97 0
-1 102 -97 0
-2 -102 97 0
-2 102 -97 0
-3 -97 102 0
-3 -94 102 0
-3 -102 97 94 0
-4 -102 97 0
-4 102 -97 0
-5 -102 97 0
-5 102 -97 0
-6 -97 102 0
-6 -95 102 0
-6 -102 97 95 0
-7 -102 97 0
-7 102 -97 0
-8 -97 102 0
-8 -96 102 0
-8 -102 97 96 0
-9 -102 97 0
-9 102 -97 0
-10 -102 97 0
-10 -102 98 0
-10 102 -97 -98 0
-31 -102 97 0
-31 102 -97 0
98 0
-1 -103 98 0
-1 103 -98 0
-2 -103 98 0
-2 103 -98 0
-3 -103 98 0
-3 103 -98 0
-4 -98 103 0
-4 -94 103 0
-4 -103 98 94 0
-5 -103 98 0
-5 103 -98 0
-6 -103 98 0
-6 103 -98 0
-7 -98 103 0
-7 -95 103 0
-7 -103 98 95 0
-8 -103 98 0
-8 103 -98 0
-9 -98 103 0
-9 -96 103 0
-9 -103 98 96 0
-10 -98 103 0
-10 -97 103 0
-10 -103 98 97 0
-31 -103 98 0
-31 103 -98 0
-11 -104 99 0
-11 -104 100 0
-11 104 -99 -100 0
-12 -104 99 0
-12 -104 101 0
-12 104 -99 -101 0
-13 -104 99 0
-13 -104 102 0
-13 104 -99 -102 0
-14 -104 99 0
-14 -104 103 0
-14 104 -99 -103 0
-15 -104 99 0
-15 104 -99 0
-16 -104 99 0
-16 104 -99 0
-17 -104 99 0
-17 104 -99 0
-18 -104 99 0
-18 104 -99 0
-19 -104 99 0
-19 104 -99 0
-20 -104 99 0
-20 104 -99 0
-32 -104 99 0
-32 104 -99 0
-11 -100 105 0
-11 -99 105 0
-11 -105 100 99 0
-12 -105 100 0
-12 105 -100 0
-13 -105 100 0
-13 105 -100 0
-14 -105 100 0
-14 105 -100 0
-15 -105 100 0
-15 -105 101 0
-15 105 -100 -101 0
-16 -105 100 0
-16 -105 102 0
-16 105 -100 -102 0
-17 -105 100 0
-17 -105 103 0
-17 105 -100 -103 0
-18 -105 100 0
-18 105 -100 0
-19 -105 100 0
-19 105 -100 0
-20 -105 100 0
-20 105 -100 0
-32 -105 100 0
-32 105 -100 0
-11 -106 101 0
-11 106 -101 0
-12 -101 106 0
-12 -99 106 0
-12 -106 101 99 0
-13 -106 101 0
-13 106 -101 0
-14 -106 101 0
-14 106 -101 0
-15 -101 106 0
-15 -100 106 0
-15 -106 101 100 0
-16 -106 101 0
-16 106 -101 0
-17 -106 101 0
-17 106 -101 0
-18 -106 101 0
-18 -106 102 0
-18 106 -101 -102 0
-19 -106 101 0
-19 -106 103 0
-19 106 -101 -103 0
-20 -106 101 0
-20 106 -101 0
-32 -106 101 0
-32 106 -101 0
-11 -107 102 0
-11 107 -102 0
-12 -107 102 0
-12 107 -102 0
-13 -102 107 0
-13 -99 107 0
-13 -107 102 99 0
-14 -107 102 0
-14 107 -102 0
-15 -107 102 0
-15 107 -102 0
-16 -102 107 0
-16 -100 107 0
-16 -107 102 100 0
-17 -107 102 0
-17 107 -102 0
-18 -102 107 0
-18 -101 107 0
-18 -107 102 101 0
-19 -107 102 0
-19 107 -102 0
-20 -107 102 0
-20 -107 103 0
-20 107 -102 -103 0
-32 -107 102 0
-32 107 -102 0
-11 -108 103 0
-11 108 -103 0
-12 -108 103 0
-12 108 -103 0
-13 -108 103 0
-13 108 -103 0
-14 -103 108 0
-14 -99 108 0
-14 -108 103 99 0
-15 -108 103 0
-15 108 -103 0
-16 -108 103 0
-16 108 -103 0
-17 -103 108 0
-17 -100 108 0
-17 -108 103 100 0
-18 -108 103 0
-18 108 -103 0
-19 -103 108 0
-19 -101 108 0
-19 -108 103 101 0
-20 -103 108 0
-20 -102 108 0
-20 -108 103 102 0
-32 -108 103 0
-32 108 -103 0
-21 -109 104 0
-21 -109 105 0
-21 109 -104 -105 0
-22 -109 104 0
-22 -109 106 0
-22 109 -104 -106 0
-23 -109 104 0
-23 -109 107 0
-23 109 -104 -107 0
-24 -109 104 0
-24 -109 108 0
-24 109 -104 -108 0
-25 -109 104 0
-25 109 -104 0
-26 -109 104 0
-26 109 -104 0
-27 -109 104 0
-27 109 -104 0
-28 -109 104 0
-28 109 -104 0
-29 -109 104 0
-29 109 -104 0
-30 -109 104 0
-30 109 -104 0
-33 -109 104 0
-33 109 -104 0
-21 -105 110 0
-21 -104 110 0
-21 -110 105 104 0
-22 -110 105 0
-22 110 -105 0
-23 -110 105 0
-23 110 -105 0
-24 -110 105 0
-24 110 -105 0
-25 -110 105 0
-25 -110 106 0
-25 110 -105 -106 0
-26 -110 105 0
-26 -110 107 0
-26 110 -105 -107 0
-27 -110 105 0
-27 -110 108 0
-27 110 -105 -108 0
-28 -110 105 0
-28 110 -105 0
-29 -110 105 0
-29 110 -105 0
-30 -110 105 0
-30 110 -105 0
-33 -110 105 0
-33 110 -105 0
-21 -111 106 0
-21 111 -106 0
-22 -106 111 0
-22 -104 111 0
-22 -111 106 104 0
-23 -111 106 0
-23 111 -106 0
-24 -111 106 0
-24 111 -106 0
-25 -106 111 0
-25 -105 111 0
-25 -111 106 105 0
-26 -111 106 0
-26 111 -106 0
-27 -111 106 0
-27 111 -106 0
-28 -111 106 0
-28 -111 107 0
-28 111 -106 -107 0
-29 -111 106 0
-29 -111 108 0
-29 111 -106 -108 0
-30 -111 106 0
-30 111 -106 0
-33 -111 106 0
-33 111 -106 0
-21 -112 107 0
-21 112 -107 0
-22 -112 107 0
-22 112 -107 0
-23 -107 112 0
-23 -104 112 0
-23 -112 107 104 0
-24 -112 107 0
-24 112 -107 0
-25 -112 107 0
-25 112 -107 0
-26 -107 112 0
-26 -105 112 0
-26 -112 107 105 0
-27 -112 107 0
-27 112 -107 0
-28 -107 112 0
-28 -106 112 0
-28 -112 107 106 0
-29 -112 107 0
-29 112 -107 0
-30 -112 107 0
-30 -112 108 0
-30 112 -107 -108 0
-33 -112 107 0
-33 112 -107 0
-21 -113 108 0
-21 113 -108 0
-22 -113 108 0
-22 113 -108 0
-23 -113 108 0
-23 113 -108 0
-24 -108 113 0
-24 -104 113 0
-24 -113 108 104 0
-25 -113 108 0
-25 113 -108 0
-26 -113 108 0
-26 113 -108 0
-27 -108 113 0
-27 -105 113 0
-27 -113 108 105 0
-28 -113 108 0
-28 113 -108 0
-29 -108 113 0
-29 -106 113 0
-29 -113 108 106 0
-30 -108 113 0
-30 -107 113 0
-30 -113 108 107 0
-33 -113 108 0
-33 113 -108 0
-114 0
-1 -119 114 0
-1 -119 115 0
-1 119 -114 -115 0
-2 -119 114 0
-2 -119 116 0
-2 119 -114 -116 0
-3 -119 114 0
-3 -119 117 0
-3 119 -114 -117 0
-4 -119 114 0
-4 -119 118 0
-4 119 -114 -118 0
-5 -119 114 0
-5 119 -114 0
-6 -119 114 0
-6 119 -114 0
-7 -119 114 0
-7 119 -114 0
-8 -119 114 0
-8 119 -114 0
-9 -119 114 0
-9 119 -114 0
-10 -119 114 0
-10 119 -114 0
-31 -119 114 0
-31 119 -114 0
115 0
-1 -115 120 0
-1 -114 120 0
-1 -120 115 114 0
-2 -120 115 0
-2 120 -115 0
-3 -120 115 0
-3 120 -115 0
-4 -120 115 0
-4 120 -115 0
-5 -120 115 0
-5 -120 116 0
-5 120 -115 -116 0
-6 -120 115 0
-6 -120 117 0
-6 120 -115 -117 0
-7 -120 115 0
-7 -120 118 0
-7 120 -115 -118 0
-8 -120 115 0
-8 120 -115 0
-9 -120 115 0
-9 120 -115 0
-10 -120 115 0
-10 120 -115 0
-31 -120 115 0
-31 120 -115 0
-116 0
-1 -121 116 0
-1 121 -116 0
-2 -116 121 0
-2 -114 121 0
-2 -121 116 114 0
-3 -121 116 0
-3 121 -116 0
-4 -121 116 0
-4 121 -116 0
-5 -116 121 0
-5 -115 121 0
-5 -121 116 115 0
-6 -121 116 0
-6 121 -116 0
-7 -121 116 0
-7 121 -116 0
-8 -121 116 0
-8 -121 117 0
-8 121 -116 -117 0
-9 -121 116 0
-9 -121 118 0
-9 121 -116 -118 0
-10 -121 116 0
-10 121 -116 0
-31 -121 116 0
-31 121 -116 0
-117 0
-1 -122 117 0
-1 122 -117 0
-2 -122 117 0
-2 122 -117 0
-3 -117 122 0
-3 -114 122 0
-3 -122 117 114 0
-4 -122 117 0
-4 122 -117 0
-5 -122 117 0
-5 122 -117 0
-6 -117 122 0
-6 -115 122 0
-6 -122 117 115 0
-7 -122 117 0
-7 122 -117 0
-8 -117 122 0
-8 -116 122 0
-8 -122 117 116 0
-9 -122 117 0
-9 122 -117 0
-10 -122 117 0
-10 -122 118 0
-10 122 -117 -118 0
-31 -122 117 0
-31 122 -117 0
-118 0
-1 -123 118 0
-1 123 -118 0
-2 -123 118 0
-2 123 -118 0
-3 -123 118 0
-3 123 -118 0
-4 -118 123 0
-4 -114 123 0
-4 -123 118 114 0
-5 -123 118 0
-5 123 -118 0
-6 -123 118 0
-6 123 -118 0
-7 -118 123 0
-7 -115 123 0
-7 -123 118 115 0
-8 -123 118 0
-8 123 -118 0
-9 -118 123 0
-9 -116 123 0
-9 -123 118 116 0
-10 -118 123 0
-10 -117 123 0
-10 -123 118 117 0
-31 -123 118 0
-31 123 -118 0
-11 -124 119 0
-11 -124 120 0
-11 124 -119 -120 0
-12 -124 119 0
-12 -124 121 0
-12 124 -119 -121 0
-13 -124 119 0
-13 -124 122 0
-13 124 -119 -122 0
-14 -124 119 0
-14 -124 123 0
-14 124 -119 -123 0
-15 -124 119 0
-15 124 -119 0
-16 -124 119 0
-16 124 -119 0
-17 -124 119 0
-17 124 -119 0
-18 -124 119 0
-18 124 -119 0
-19 -124 119 0
-19 124 -119 0
-20 -124 119 0
-20 124 -119 0
-32 -124 119 0
-32 124 -119 0
-11 -120 125 0
-11 -119 125 0
-11 -125 120 119 0
-12 -125 120 0
-12 125 -120 0
-13 -125 120 0
-13 125 -120 0
-14 -125 120 0
-14 125 -120 0
-15 -125 120 0
-15 -125 121 0
-15 125 -120 -121 0
-16 -125 120 0
-16 -125 122 0
-16 125 -120 -122 0
-17 -125 120 0
-17 -125 123 0
-17 125 -120 -123 0
-18 -125 120 0
-18 125 -120 0
-19 -125 120 0
-19 125 -120 0
-20 -125 120 0
-20 125 -120 0
-32 -125 120 0
-32 125 -120 0
-11 -126 121 0
-11 126 -121 0
-12 -121 126 0
-12 -119 126 0
-12 -126 121 119 0
-13 -126 121 0
-13 126 -121 0
-14 -126 121 0
-14 126 -121 0
-15 -121 126 0
-15 -120 126 0
-15 -126 121 120 0
-16 -126 121 0
-16 126 -121 0
-17 -126 121 0
-17 126 -121 0
-18 -126 121 0
-18 -126 122 0
-18 126 -121 -122 0
-19 -126 121 0
-19 -126 123 0
-19 126 -121 -123 0
-20 -126 121 0
-20 126 -121 0
-32 -126 121 0
-32 126 -121 0
-11 -127 122 0
-11 127 -122 0
-12 -127 122 0
-12 127 -122 0
-13 -122 127 0
-13 -119 127 0
-13 -127 122 119 0
-14 -127 122 0
-14 127 -122 0
-15 -127 122 0
-15 127 -122 0
-16 -122 127 0
-16 -120 127 0
-16 -127 122 120 0
-17 -127 122 0
-17 127 -122 0
-18 -122 127 0
-18 -121 127 0
-18 -127 122 121 0
-19 -127 122 0
-19 127 -122 0
-20 -127 122 0
-20 -127 123 0
-20 127 -122 -123 0
-32 -127 122 0
-32 127 -122 0
-11 -128 123 0
-11 128 -123 0
-12 -128 123 0
-12 128 -123 0
-13 -128 123 0
-13 128 -123 0
-14 -123 128 0
-14 -119 128 0
-14 -128 123 119 0
-15 -128 123 0
-15 128 -123 0
-16 -128 123 0
-16 128 -123 0
-17 -123 128 0
-17 -120 128 0
-17 -128 123 120 0
-18 -128 123 0
-18 128 -123 0
-19 -123 128 0
-19 -121 128 0
-19 -128 123 121 0
-20 -123 128 0
-20 -122 128 0
-20 -128 123 122 0
-32 -128 123 0
-32 128 -123 0
-21 -129 124 0
-21 -129 125 0
-21 129 -124 -125 0
-22 -129 124 0
-22 -129 126 0
-22 129 -124 -126 0
-23 -129 124 0
-23 -129 127 0
-23 129 -124 -127 0
-24 -129 124 0
-24 -129 128 0
-24 129 -124 -128 0
-25 -129 124 0
-25 129 -124 0
-26 -129 124 0
-26 129 -124 0
-27 -129 124 0
-27 129 -124 0
-28 -129 124 0
-28 129 -124 0
-29 -129 124 0
-29 129 -124 0
-30 -129 124 0
-30 129 -124 0
-33 -129 124 0
-33 129 -124 0
-21 -125 130 0
-21 -124 130 0
-21 -130 125 124 0
-22 -130 125 0
-22 130 -125 0
-23 -130 125 0
-23 130 -125 0
-24 -130 125 0
-24 130 -125 0
-25 -130 125 0
-25 -130 126 0
-25 130 -125 -126 0
-26 -130 125 0
-26 -130 127 0
-26 130 -125 -127 0
-27 -130 125 0
-27 -130 128 0
-27 130 -125 -128 0
-28 -130 125 0
-28 130 -125 0
-29 -130 125 0
-29 130 -125 0
-30 -130 125 0
-30 130 -125 0
-33 -130 125 0
-33 130 -125 0
-21 -131 126 0
-21 131 -126 0
-22 -126 131 0
-22 -124 131 0
-22 -131 126 124 0
-23 -131 126 0
-23 131 -126 0
-24 -131 126 0
-24 131 -126 0
-25 -126 131 0
-25 -125 131 0
-25 -131 126 125 0
-26 -131 126 0
-26 131 -126 0
-27 -131 126 0
-27 131 -126 0
-28 -131 126 0
-28 -131 127 0
-28 131 -126 -127 0
-29 -131 126 0
-29 -131 128 0
-29 131 -126 -128 0
-30 -131 126 0
-30 131 -126 0
-33 -131 126 0
-33 131 -126 0
-21 -132 127 0
-21 132 -127 0
-22 -132 127 0
-22 132 -127 0
-23 -127 132 0
-23 -124 132 0
-23 -132 127 124 0
-24 -132 127 0
-24 132 -127 0
-25 -132 127 0
-25 132 -127 0
-26 -127 132 0
-26 -125 132 0
-26 -132 127 125 0
-27 -132 127 0
-27 132 -127 0
-28 -127 132 0
-28 -126 132 0
-28 -132 127 126 0
-29 -132 127 0
-29 132 -127 0
-30 -132 127 0
-30 -132 128 0
-30 132 -127 -128 0
-33 -132 127 0
-33 132 -127 0
-21 -133 128 0
-21 133 -128 0
-22 -133 128 0
-22 133 -128 0
-23 -133 128 0
-23 133 -128 0
-24 -128 133 0
-24 -124 133 0
-24 -133 128 124 0
-25 -133 128 0
-25 133 -128 0
-26 -133 128 0
-26 133 -128 0
-27 -128 133 0
-27 -125 133 0
-27 -133 128 125 0
-28 -133 128 0
-28 133 -128 0
-29 -128 133 0
-29 -126 133 0
-29 -133 128 126 0
-30 -128 133 0
-30 -127 133 0
-30 -133 128 127 0
-33 -133 128 0
-33 133 -128 0
-134 0
-1 -139 134 0
-1 -139 135 0
-1 139 -134 -135 0
-2 -139 134 0
-2 -139 136 0
-2 139 -134 -136 0
-3 -139 134 0
-3 -139 137 0
-3 139 -134 -137 0
-4 -139 134 0
-4 -139 138 0
-4 139 -134 -138 0
-5 -139 134 0
-5 139 -134 0
-6 -139 134 0
-6 139 -134 0
-7 -139 134 0
-7 139 -134 0
-8 -139 134 0
-8 139 -134 0
-9 -139 134 0
-9 139 -134 0
-10 -139 134 0
-10 139 -134 0
-31 -139 134 0
-31 139 -134 0
135 0
-1 -135 140 0
-1 -134 140 0
-1 -140 135 134 0
-2 -140 135 0
-2 140 -135 0
-3 -140 135 0
-3 140 -135 0
-4 -140 135 0
-4 140 -135 0
-5 -140 135 0
-5 -140 136 0
-5 140 -135 -136 0
-6 -140 135 0
-6 -140 137 0
-6 140 -135 -137 0
-7 -140 135 0
-7 -140 138 0
-7 140 -135 -138 0
-8 -140 135 0
-8 140 -135 0
-9 -140 135 0
-9 140 -135 0
-10 -140 135 0
-10 140 -135 0
-31 -140 135 0
-31 140 -135 0
-136 0
-1 -141 136 0
-1 141 -136 0
-2 -136 141 0
-2 -134 141 0
-2 -141 136 134 0
-3 -141 136 0
-3 141 -136 0
-4 -141 136 0
-4 141 -136 0
-5 -136 141 0
-5 -135 141 0
-5 -141 136 135 0
-6 -141 136 0
-6 141 -136 0
-7 -141 136 0
-7 141 -136 0
-8 -141 136 0
-8 -141 137 0
-8 141 -136 -137 0
-9 -141 136 0
-9 -141 138 0
-9 141 -136 -138 0
-10 -141 136 0
-10 141 -136 0
-31 -141 136 0
-31 141 -136 0
-137 0
-1 -142 137 0
-1 142 -137 0
-2 -142 137 0
-2 142 -137 0
-3 -137 142 0
-3 -134 142 0
-3 -142 137 134 0
-4 -142 137 0
-4 142 -137 0
-5 -142 137 0
-5 142 -137 0
-6 -137 142 0
-6 -135 142 0
-6 -142 137 135 0
-7 -142 137 0
-7 142 -137 0
-8 -137 142 0
-8 -136 142 0
-8 -142 137 136 0
-9 -142 137 0
-9 142 -137 0
-10 -142 137 0
-10 -142 138 0
-10 142 -137 -138 0
-31 -142 137 0
-31 142 -137 0
138 0
-1 -143 138 0
-1 143 -138 0
-2 -143 138 0
-2 143 -138 0
-3 -143 138 0
-3 143 -138 0
-4 -138 143 0
-4 -134 143 0
-4 -143 138 134 0
-5 -143 138 0
-5 143 -138 0
-6 -143 138 0
-6 143 -138 0
-7 -138 143 0
-7 -135 143 0
-7 -143 138 135 0
-8 -143 138 0
-8 143 -138 0
-9 -138 143 0
-9 -136 143 0
-9 -143 138 136 0
-10 -138 143 0
-10 -137 143 0
-10 -143 138 137 0
-31 -143 138 0
-31 143 -138 0
-11 -144 139 0
-11 -144 140 0
-11 144 -139 -140 0
-12 -144 139 0
-12 -144 141 0
-12 144 -139 -141 0
-13 -144 139 0
-13 -144 142 0
-13 144 -139 -142 0
-14 -144 139 0
-14 -144 143 0
-14 144 -139 -143 0
-15 -144 139 0
-15 144 -139 0
-16 -144 139 0
-16 144 -139 0
-17 -144 139 0
-17 144 -139 0
-18 -144 139 0
-18 144 -139 0
-19 -144 139 0
-19 144 -139 0
-20 -144 139 0
-20 144 -139 0
-32 -144 139 0
-32 144 -139 0
-11 -140 145 0
-11 -139 145 0
-11 -145 140 139 0
-12 -145 140 0
-12 145 -140 0
-13 -145 140 0
-13 145 -140 0
-14 -145 140 0
-14 145 -140 0
-15 -145 140 0
-15 -145 141 0
-15 145 -140 -141 0
-16 -145 140 0
-16 -145 142 0
-16 145 -140 -142 0
-17 -145 140 0
-17 -145 143 0
-17 145 -140 -143 0
-18 -145 140 0
-18 145 -140 0
-19 -145 140 0
-19 145 -140 0
-20 -145 140 0
-20 145 -140 0
-32 -145 140 0
-32 145 -140 0
-11 -146 141 0
-11 146 -141 0
-12 -141 146 0
-12 -139 146 0
-12 -146 141 139 0
-13 -146 141 0
-13 146 -141 0
-14 -146 141 0
-14 146 -141 0
-15 -141 146 0
-15 -140 146 0
-15 -146 141 140 0
-16 -146 141 0
-16 146 -141 0
-17 -146 141 0
-17 146 -141 0
-18 -146 141 0
-18 -146 142 0
-18 146 -141 -142 0
-19 -146 141 0
-19 -146 143 0
-19 146 -141 -143 0
-20 -146 141 0
-20 146 -141 0
-32 -146 141 0
-32 146 -141 0
-11 -147 142 0
-11 147 -142 0
-12 -147 142 0
-12 147 -142 0
-13 -142 147 0
-13 -139 147 0
-13 -147 142 139 0
-14 -147 142 0
-14 147 -142 0
-15 -147 142 0
-15 147 -142 0
-16 -142 147 0
-16 -140 147 0
-16 -147 142 140 0
-17 -147 142 0
-17 147 -142 0
-18 -142 147 0
-18 -141 147 0
-18 -147 142 141 0
-19 -147 142 0
-19 147 -142 0
-20 -147 142 0
-20 -147 143 0
-20 147 -142 -143 0
-32 -147 142 0
-32 147 -142 0
-11 -148 143 0
-11 148 -143 0
-12 -148 143 0
-12 148 -143 0
-13 -148 143 0
-13 148 -143 0
-14 -143 148 0
-14 -139 148 0
-14 -148 143 139 0
-15 -148 143 0
-15 148 -143 0
-16 -148 143 0
-16 148 -143 0
-17 -143 148 0
-17 -140 148 0
-17 -148 143 140 0
-18 -148 143 0
-18 148 -143 0
-19 -143 148 0
-19 -141 148 0
-19 -148 143 141 0
-20 -143 148 0
-20 -142 148 0
-20 -148 143 142 0
-32 -148 143 0
-32 148 -143 0
-21 -149 144 0
-21 -149 145 0
-21 149 -144 -145 0
-22 -149 144 0
-22 -149 146 0
-22 149 -144 -146 0
-23 -149 144 0
-23 -149 147 0
-23 149 -144 -147 0
-24 -149 144 0
-24 -149 148 0
-24 149 -144 -148 0
-25 -149 144 0
-25 149 -144 0
-26 -149 144 0
-26 149 -144 0
-27 -149 144 0
-27 149 -144 0
-28 -149 144 0
-28 149 -144 0
-29 -149 144 0
-29 149 -144 0
-30 -149 144 0
-30 149 -144 0
-33 -149 144 0
-33 149 -144 0
-21 -145 150 0
-21 -144 150 0
-21 -150 145 144 0
-22 -150 145 0
-22 150 -145 0
-23 -150 145 0
-23 150 -145 0
-24 -150 145 0
-24 150 -145 0
-25 -150 145 0
-25 -150 146 0
-25 150 -145 -146 0
-26 -150 145 0
-26 -150 147 0
-26 150 -145 -147 0
-27 -150 145 0
-27 -150 148 0
-27 150 -145 -148 0
-28 -150 145 0
-28 150 -145 0
-29 -150 145 0
-29 150 -145 0
-30 -150 145 0
-30 150 -145 0
-33 -150 145 0
-33 150 -145 0
-21 -151 146 0
-21 151 -146 0
-22 -146 151 0
-22 -144 151 0
-22 -151 146 144 0
-23 -151 146 0
-23 151 -146 0
-24 -151 146 0
-24 151 -146 0
-25 -146 151 0
-25 -145 151 0
-25 -151 146 145 0
-26 -151 146 0
-26 151 -146 0
-27 -151 146 0
-27 151 -146 0
-28 -151 146 0
-28 -151 147 0
-28 151 -146 -147 0
-29 -151 146 0
-29 -151 148 0
-29 151 -146 -148 0
-30 -151 146 0
-30 151 -146 0
-33 -151 146 0
-33 151 -146 0
-21 -152 147 0
-21 152 -147 0
-22 -152 147 0
-22 152 -147 0
-23 -147 152 0
-23 -144 152 0
-23 -152 147 144 0
-24 -152 147 0
-24 152 -147 0
-25 -152 147 0
-25 152 -147 0
-26 -147 152 0
-26 -145 152 0
-26 -152 147 145 0
-27 -152 147 0
-27 152 -147 0
-28 -147 152 0
-28 -146 152 0
-28 -152 147 146 0
-29 -152 147 0
-29 152 -147 0
-30 -152 147 0
-30 -152 148 0
-30 152 -147 -148 0
-33 -152 147 0
-33 152 -147 0
-21 -153 148 0
-21 153 -148 0
-22 -153 148 0
-22 153 -148 0
-23 -153 148 0
-23 153 -148 0
-24 -148 153 0
-24 -144 153 0
-24 -153 148 144 0
-25 -153 148 0
-25 153 -148 0
-26 -153 148 0
-26 153 -148 0
-27 -148 153 0
-27 -145 153 0
-27 -153 148 145 0
-28 -153 148 0
-28 153 -148 0
-29 -148 153 0
-29 -146 153 0
-29 -153 148 146 0
-30 -148 153 0
-30 -147 153 0
-30 -153 148 147 0
-33 -153 148 0
-33 153 -148 0
-154 0
-1 -159 154 0
-1 -159 155 0
-1 159 -154 -155 0
-2 -159 154 0
-2 -159 156 0
-2 159 -154 -156 0
-3 -159 154 0
-3 -159 157 0
-3 159 -154 -157 0
-4 -159 154 0
-4 -159 158 0
-4 159 -154 -158 0
-5 -159 154 0
-5 159 -154 0
-6 -159 154 0
-6 159 -154 0
-7 -159 154 0
-7 159 -154 0
-8 -159 154 0
-8 159 -154 0
-9 -159 154 0
-9 159 -154 0
-10 -159 154 0
-10 159 -154 0
-31 -159 154 0
-31 159 -154 0
155 0
-1 -155 160 0
-1 -154 160 0
-1 -160 155 154 0
-2 -160 155 0
-2 160 -155 0
-3 -160 155 0
-3 160 -155 0
-4 -160 155 0
-4 160 -155 0
-5 -160 155 0
-5 -160 156 0
-5 160 -155 -156 0
-6 -160 155 0
-6 -160 157 0
-6 160 -155 -157 0
-7 -160 155 0
-7 -160 158 0
-7 160 -155 -158 0
-8 -160 155 0
-8 160 -155 0
-9 -160 155 0
-9 160 -155 0
-10 -160 155 0
-10 160 -155 0
-31 -160 155 0
-31 160 -155 0
-156 0
-1 -161 156 0
-1 161 -156 0
-2 -156 161 0
-2 -154 161 0
-2 -161 156 154 0
-3 -161 156 0
-3 161 -156 0
-4 -161 156 0
-4 161 -156 0
-5 -156 161 0
-5 -155 161 0
-5 -161 156 155 0
-6 -161 156 0
-6 161 -156 0
-7 -161 156 0
-7 161 -156 0
-8 -161 156 0
-8 -161 157 0
-8 161 -156 -157 0
-9 -161 156 0
-9 -161 158 0
-9 161 -156 -158 0
-10 -161 156 0
-10 161 -156 0
-31 -161 156 0
-31 161 -156 0
157 0
-1 -162 157 0
-1 162 -157 0
-2 -162 157 0
-2 162 -157 0
-3 -157 162 0
-3 -154 162 0
-3 -162 157 154 0
-4 -162 157 0
-4 162 -157 0
-5 -162 157 0
-5 162 -157 0
-6 -157 162 0
-6 -155 162 0
-6 -162 157 155 0
-7 -162 157 0
-7 162 -157 0
-8 -157 162 0
-8 -156 162 0
-8 -162 157 156 0
-9 -162 157 0
-9 162 -157 0
-10 -162 157 0
-10 -162 158 0
-10 162 -157 -158 0
-31 -162 157 0
-31 162 -157 0
158 0
-1 -163 158 0
-1 163 -158 0
-2 -163 158 0
-2 163 -158 0
-3 -163 158 0
-3 163 -158 0
-4 -158 163 0
-4 -154 163 0
-4 -163 158 154 0
-5 -163 158 0
-5 163 -158 0
-6 -163 158 0
-6 163 -158 0
-7 -158 163 0
-7 -155 163 0
-7 -163 158 155 0
-8 -163 158 0
-8 163 -158 0
-9 -158 163 0
-9 -156 163 0
-9 -163 158 156 0
-10 -158 163 0
-10 -157 163 0
-10 -163 158 157 0
-31 -163 158 0
-31 163 -158 0
-11 -164 159 0
-11 -164 160 0
-11 164 -159 -160 0
-12 -164 159 0
-12 -164 161 0
-12 164 -159 -161 0
-13 -164 159 0
-13 -164 162 0
-13 164 -159 -162 0
-14 -164 159 0
-14 -164 163 0
-14 164 -159 -163 0
-15 -164 159 0
-15 164 -159 0
-16 -164 159 0
-16 164 -159 0
-17 -164 159 0
-17 164 -159 0
-18 -164 159 0
-18 164 -159 0
-19 -164 159 0
-19 164 -159 0
-20 -164 159 0
-20 164 -159 0
-32 -164 159 0
-32 164 -159 0
-11 -160 165 0
-11 -159 165 0
-11 -165 160 159 0
-12 -165 160 0
-12 165 -160 0
-13 -165 160 0
-13 165 -160 0
-14 -165 160 0
-14 165 -160 0
-15 -165 160 0
-15 -165 161 0
-15 165 -160 -161 0
-16 -165 160 0
-16 -165 162 0
-16 165 -160 -162 0
-17 -165 160 0
-17 -165 163 0
-17 165 -160 -163 0
-18 -165 160 0
-18 165 -160 0
-19 -165 160 0
-19 165 -160 0
-20 -165 160 0
-20 165 -160 0
-32 -165 160 0
-32 165 -160 0
-11 -166 161 0
-11 166 -161 0
-12 -161 166 0
-12 -159 166 0
-12 -166 161 159 0
-13 -166 161 0
-13 166 -161 0
-14 -166 161 0
-14 166 -161 0
-15 -161 166 0
-15 -160 166 0
-15 -166 161 160 0
-16 -166 161 0
-16 166 -161 0
-17 -166 161 0
-17 166 -161 0
-18 -166 161 0
-18 -166 162 0
-18 166 -161 -162 0
-19 -166 161 0
-19 -166 163 0
-19 166 -161 -163 0
-20 -166 161 0
-20 166 -161 0
-32 -166 161 0
-32 166 -161 0
-11 -167 162 0
-11 167 -162 0
-12 -167 162 0
-12 167 -162 0
-13 -162 167 0
-13 -159 167 0
-13 -167 162 159 0
-14 -167 162 0
-14 167 -162 0
-15 -167 162 0
-15 167 -162 0
-16 -162 167 0
-16 -160 167 0
-16 -167 162 160 0
-17 -167 162 0
-17 167 -162 0
-18 -162 167 0
-18 -161 167 0
-18 -167 162 161 0
-19 -167 162 0
-19 167 -162 0
-20 -167 162 0
-20 -167 163 0
-20 167 -162 -163 0
-32 -167 162 0
-32 167 -162 0
-11 -168 163 0
-11 168 -163 0
-12 -168 163 0
-12 168 -163 0
-13 -168 163 0
-13 168 -163 0
-14 -163 168 0
-14 -159 168 0
-14 -168 163 159 0
-15 -168 163 0
-15 168 -163 0
-16 -168 163 0
-16 168 -163 0
-17 -163 168 0
-17 -160 168 0
-17 -168 163 160 0
-18 -168 163 0
-18 168 -163 0
-19 -163 168 0
-19 -161 168 0
-19 -168 163 161 0
-20 -163 168 0
-20 -162 168 0
-20 -168 163 162 0
-32 -168 163 0
-32 168 -163 0
-21 -169 164 0
-21 -169 165 0
-21 169 -164 -165 0
-22 -169 164 0
-22 -169 166 0
-22 169 -164 -166 0
-23 -169 164 0
-23 -169 167 0
-23 169 -164 -167 0
-24 -169 164 0
-24 -169 168 0
-24 169 -164 -168 0
-25 -169 164 0
-25 169 -164 0
-26 -169 164 0
-26 169 -164 0
-27 -169 164 0
-27 169 -164 0
-28 -169 164 0
-28 169 -164 0
-29 -169 164 0
-29 169 -164 0
-30 -169 164 0
-30 169 -164 0
-33 -169 164 0
-33 169 -164 0
-21 -165 170 0
-21 -164 170 0
-21 -170 165 164 0
-22 -170 165 0
-22 170 -165 0
-23 -170 165 0
-23 170 -165 0
-24 -170 165 0
-24 170 -165 0
-25 -170 165 0
-25 -170 166 0
-25 170 -165 -166 0
-26 -170 165 0
-26 -170 167 0
-26 170 -165 -167 0
-27 -170 165 0
-27 -170 168 0
-27 170 -165 -168 0
-28 -170 165 0
-28 170 -165 0
-29 -170 165 0
-29 170 -165 0
-30 -170 165 0
-30 170 -165 0
-33 -170 165 0
-33 170 -165 0
-21 -171 166 0
-21 171 -166 0
-22 -166 171 0
-22 -164 171 0
-22 -171 166 164 0
-23 -171 166 0
-23 171 -166 0
-24 -171 166 0
-24 171 -166 0
-25 -166 171 0
-25 -165 171 0
-25 -171 166 165 0
-26 -171 166 0
-26 171 -166 0
-27 -171 166 0
-27 171 -166 0
-28 -171 166 0
-28 -171 167 0
-28 171 -166 -167 0
-29 -171 166 0
-29 -171 168 0
-29 171 -166 -168 0
-30 -171 166 0
-30 171 -166 0
-33 -171 166 0
-33 171 -166 0
-21 -172 167 0
-21 172 -167 0
-22 -172 167 0
-22 172 -167 0
-23 -167 172 0
-23 -164 172 0
-23 -172 167 164 0
-24 -172 167 0
-24 172 -167 0
-25 -172 167 0
-25 172 -167 0
-26 -167 172 0
-26 -165 172 0
-26 -172 167 165 0
-27 -172 167 0
-27 172 -167 0
-28 -167 172 0
-28 -166 172 0
-28 -172 167 166 0
-29 -172 167 0
-29 172 -167 0
-30 -172 167 0
-30 -172 168 0
-30 172 -167 -168 0
-33 -172 167 0
-33 172 -167 0
-21 -173 168 0
-21 173 -168 0
-22 -173 168 0
-22 173 -168 0
-23 -173 168 0
-23 173 -168 0
-24 -168 173 0
-24 -164 173 0
-24 -173 168 164 0
-25 -173 168 0
-25 173 -168 0
-26 -173 168 0
-26 173 -168 0
-27 -168 173 0
-27 -165 173 0
-27 -173 168 165 0
-28 -173 168 0
-28 173 -168 0
-29 -168 173 0
-29 -166 173 0
-29 -173 168 166 0
-30 -168 173 0
-30 -167 173 0
-30 -173 168 167 0
-33 -173 168 0
-33 173 -168 0
-174 0
-1 -179 174 0
-1 -179 175 0
-1 179 -174 -175 0
-2 -179 174 0
-2 -179 176 0
-2 179 -174 -176 0
-3 -179 174 0
-3 -179 177 0
-3 179 -174 -177 0
-4 -179 174 0
-4 -179 178 0
-4 179 -174 -178 0
-5 -179 174 0
-5 179 -174 0
-6 -179 174 0
-6 179 -174 0
-7 -179 174 0
-7 179 -174 0
-8 -179 174 0
-8 179 -174 0
-9 -179 174 0
-9 179 -174 0
-10 -179 174 0
-10 179 -174 0
-31 -179 174 0
-31 179 -174 0
175 0
-1 -175 180 0
-1 -174 180 0
-1 -180 175 174 0
-2 -180 175 0
-2 180 -175 0
-3 -180 175 0
-3 180 -175 0
-4 -180 175 0
-4 180 -175 0
-5 -180 175 0
-5 -180 176 0
-5 180 -175 -176 0
-6 -180 175 0
-6 -180 177 0
-6 180 -175 -177 0
-7 -180 175 0
-7 -180 178 0
-7 180 -175 -178 0
-8 -180 175 0
-8 180 -175 0
-9 -180 175 0
-9 180 -175 0
-10 -180 175 0
-10 180 -175 0
-31 -180 175 0
-31 180 -175 0
176 0
-1 -181 176 0
-1 181 -176 0
-2 -176 181 0
-2 -174 181 0
-2 -181 176 174 0
-3 -181 176 0
-3 181 -176 0
-4 -181 176 0
-4 181 -176 0
-5 -176 181 0
-5 -175 181 0
-5 -181 176 175 0
-6 -181 176 0
-6 181 -176 0
-7 -181 176 0
-7 181 -176 0
-8 -181 176 0
-8 -181 177 0
-8 181 -176 -177 0
-9 -181 176 0
-9 -181 178 0
-9 181 -176 -178 0
-10 -181 176 0
-10 181 -176 0
-31 -181 176 0
-31 181 -176 0
177 0
-1 -182 177 0
-1 182 -177 0
-2 -182 177 0
-2 182 -177 0
-3 -177 182 0
-3 -174 182 0
-3 -182 177 174 0
-4 -182 177 0
-4 182 -177 0
-5 -182 177 0
-5 182 -177 0
-6 -177 182 0
-6 -175 182 0
-6 -182 177 175 0
-7 -182 177 0
-7 182 -177 0
-8 -177 182 0
-8 -176 182 0
-8 -182 177 176 0
-9 -182 177 0
-9 182 -177 0
-10 -182 177 0
-10 -182 178 0
-10 182 -177 -178 0
-31 -182 177 0
-31 182 -177 0
178 0
-1 -183 178 0
-1 183 -178 0
-2 -183 178 0
-2 183 -178 0
-3 -183 178 0
-3 183 -178 0
-4 -178 183 0
-4 -174 183 0
-4 -183 178 174 0
-5 -183 178 0
-5 183 -178 0
-6 -183 178 0
-6 183 -178 0
-7 -178 183 0
-7 -175 183 0
-7 -183 178 175 0
-8 -183 178 0
-8 183 -178 0
-9 -178 183 0
-9 -176 183 0
-9 -183 178 176 0
-10 -178 183 0
-10 -177 183 0
-10 -183 178 177 0
-31 -183 178 0
-31 183 -178 0
-11 -184 179 0
-11 -184 180 0
-11 184 -179 -180 0
-12 -184 179 0
-12 -184 181 0
-12 184 -179 -181 0
-13 -184 179 0
-13 -184 182 0
-13 184 -179 -182 0
-14 -184 179 0
-14 -184 183 0
-14 184 -179 -183 0
-15 -184 179 0
-15 184 -179 0
-16 -184 179 0
-16 184 -179 0
-17 -184 179 0
-17 184 -179 0
-18 -184 179 0
-18 184 -179 0
-19 -184 179 0
-19 184 -179 0
-20 -184 179 0
-20 184 -179 0
-32 -184 179 0
-32 184 -179 0
-11 -180 185 0
-11 -179 185 0
-11 -185 180 179 0
-12 -185 180 0
-12 185 -180 0
-13 -185 180 0
-13 185 -180 0
-14 -185 180 0
-14 185 -180 0
-15 -185 180 0
-15 -185 181 0
-15 185 -180 -181 0
-16 -185 180 0
-16 -185 182 0
-16 185 -180 -182 0
-17 -185 180 0
-17 -185 183 0
-17 185 -180 -183 0
-18 -185 180 0
-18 185 -180 0
-19 -185 180 0
-19 185 -180 0
-20 -185 180 0
-20 185 -180 0
-32 -185 180 0
-32 185 -180 0
-11 -186 181 0
-11 186 -181 0
-12 -181 186 0
-12 -179 186 0
-12 -186 181 179 0
-13 -186 181 0
-13 186 -181 0
-14 -186 181 0
-14 186 -181 0
-15 -181 186 0
-15 -180 186 0
-15 -186 181 180 0
-16 -186 181 0
-16 186 -181 0
-17 -186 181 0
-17 186 -181 0
-18 -186 181 0
-18 -186 182 0
-18 186 -181 -182 0
-19 -186 181 0
-19 -186 183 0
-19 186 -181 -183 0
-20 -186 181 0
-20 186 -181 0
-32 -186 181 0
-32 186 -181 0
-11 -187 182 0
-11 187 -182 0
-12 -187 182 0
-12 187 -182 0
-13 -182 187 0
-13 -179 187 0
-13 -187 182 179 0
-14 -187 182 0
-14 187 -182 0
-15 -187 182 0
-15 187 -182 0
-16 -182 187 0
-16 -180 187 0
-16 -187 182 180 0
-17 -187 182 0
-17 187 -182 0
-18 -182 187 0
-18 -181 187 0
-18 -187 182 181 0
-19 -187 182 0
-19 187 -182 0
-20 -187 182 0
-20 -187 183 0
-20 187 -182 -183 0
-32 -187 182 0
-32 187 -182 0
-11 -188 183 0
-11 188 -183 0
-12 -188 183 0
-12 188 -183 0
-13 -188 183 0
-13 188 -183 0
-14 -183 188 0
-14 -179 188 0
-14 -188 183 179 0
-15 -188 183 0
-15 188 -183 0
-16 -188 183 0
-16 188 -183 0
-17 -183 188 0
-17 -180 188 0
-17 -188 183 180 0
-18 -188 183 0
-18 188 -183 0
-19 -183 188 0
-19 -181 188 0
-19 -188 183 181 0
-20 -183 188 0
-20 -182 188 0
-20 -188 183 182 0
-32 -188 183 0
-32 188 -183 0
-21 -189 184 0
-21 -189 185 0
-21 189 -184 -185 0
-22 -189 184 0
-22 -189 186 0
-22 189 -184 -186 0
-23 -189 184 0
-23 -189 187 0
-23 189 -184 -187 0
-24 -189 184 0
-24 -189 188 0
-24 189 -184 -188 0
-25 -189 184 0
-25 189 -184 0
-26 -189 184 0
-26 189 -184 0
-27 -189 184 0
-27 189 -184 0
-28 -189 184 0
-28 189 -184 0
-29 -189 184 0
-29 189 -184 0
-30 -189 184 0
-30 189 -184 0
-33 -189 184 0
-33 189 -184 0
-21 -185 190 0
-21 -184 190 0
-21 -190 185 184 0
-22 -190 185 0
-22 190 -185 0
-23 -190 185 0
-23 190 -185 0
-24 -190 185 0
-24 190 -185 0
-25 -190 185 0
-25 -190 186 0
-25 190 -185 -186 0
-26 -190 185 0
-26 -190 187 0
-26 190 -185 -187 0
-27 -190 185 0
-27 -190 188 0
-27 190 -185 -188 0
-28 -190 185 0
-28 190 -185 0
-29 -190 185 0
-29 190 -185 0
-30 -190 185 0
-30 190 -185 0
-33 -190 185 0
-33 190 -185 0
-21 -191 186 0
-21 191 -186 0
-22 -186 191 0
-22 -184 191 0
-22 -191 186 184 0
-23 -191 186 0
-23 191 -186 0
-24 -191 186 0
-24 191 -186 0
-25 -186 191 0
-25 -185 191 0
-25 -191 186 185 0
-26 -191 186 0
-26 191 -186 0
-27 -191 186 0
-27 191 -186 0
-28 -191 186 0
-28 -191 187 0
-28 191 -186 -187 0
-29 -191 186 0
-29 -191 188 0
-29 191 -186 -188 0
-30 -191 186 0
-30 191 -186 0
-33 -191 186 0
-33 191 -186 0
-21 -192 187 0
-21 192 -187 0
-22 -192 187 0
-22 192 -187 0
-23 -187 192 0
-23 -184 192 0
-23 -192 187 184 0
-24 -192 187 0
-24 192 -187 0
-25 -192 187 0
-25 192 -187 0
-26 -187 192 0
-26 -185 192 0
-26 -192 187 185 0
-27 -192 187 0
-27 192 -187 0
-28 -187 192 0
-28 -186 192 0
-28 -192 187 186 0
-29 -192 187 0
-29 192 -187 0
-30 -192 187 0
-30 -192 188 0
-30 192 -187 -188 0
-33 -192 187 0
-33 192 -187 0
-21 -193 188 0
-21 193 -188 0
-22 -193 188 0
-22 193 -188 0
-23 -193 188 0
-23 193 -188 0
-24 -188 193 0
-24 -184 193 0
-24 -193 188 184 0
-25 -193 188 0
-25 193 -188 0
-26 -193 188 0
-26 193 -188 0
-27 -188 193 0
-27 -185 193 0
-27 -193 188 185 0
-28 -193 188 0
-28 193 -188 0
-29 -188 193 0
-29 -186 193 0
-29 -193 188 186 0
-30 -188 193 0
-30 -187 193 0
-30 -193 188 187 0
-33 -193 188 0
-33 193 -188 0
194 0
-1 -199 194 0
-1 -199 195 0
-1 199 -194 -195 0
-2 -199 194 0
-2 -199 196 0
-2 199 -194 -196 0
-3 -199 194 0
-3 -199 197 0
-3 199 -194 -197 0
-4 -199 194 0
-4 -199 198 0
-4 199 -194 -198 0
-5 -199 194 0
-5 199 -194 0
-6 -199 194 0
-6 199 -194 0
-7 -199 194 0
-7 199 -194 0
-8 -199 194 0
-8 199 -194 0
-9 -199 194 0
-9 199 -194 0
-10 -199 194 0
-10 199 -194 0
-31 -199 194 0
-31 199 -194 0
195 0
-1 -195 200 0
-1 -194 200 0
-1 -200 195 194 0
-2 -200 195 0
-2 200 -195 0
-3 -200 195 0
-3 200 -195 0
-4 -200 195 0
-4 200 -195 0
-5 -200 195 0
-5 -200 196 0
-5 200 -195 -196 0
-6 -200 195 0
-6 -200 197 0
-6 200 -195 -197 0
-7 -200 195 0
-7 -200 198 0
-7 200 -195 -198 0
-8 -200 195 0
-8 200 -195 0
-9 -200 195 0
-9 200 -195 0
-10 -200 195 0
-10 200 -195 0
-31 -200 195 0
-31 200 -195 0
-196 0
-1 -201 196 0
-1 201 -196 0
-2 -196 201 0
-2 -194 201 0
-2 -201 196 194 0
-3 -201 196 0
-3 201 -196 0
-4 -201 196 0
-4 201 -196 0
-5 -196 201 0
-5 -195 201 0
-5 -201 196 195 0
-6 -201 196 0
-6 201 -196 0
-7 -201 196 0
-7 201 -196 0
-8 -201 196 0
-8 -201 197 0
-8 201 -196 -197 0
-9 -201 196 0
-9 -201 198 0
-9 201 -196 -198 0
-10 -201 196 0
-10 201 -196 0
-31 -201 196 0
-31 201 -196 0
-197 0
-1 -202 197 0
-1 202 -197 0
-2 -202 197 0
-2 202 -197 0
-3 -197 202 0
-3 -194 202 0
-3 -202 197 194 0
-4 -202 197 0
-4 202 -197 0
-5 -202 197 0
-5 202 -197 0
-6 -197 202 0
-6 -195 202 0
-6 -202 197 195 0
-7 -202 197 0
-7 202 -197 0
-8 -197 202 0
-8 -196 202 0
-8 -202 197 196 0
-9 -202 197 0
-9 202 -197 0
-10 -202 197 0
-10 -202 198 0
-10 202 -197 -198 0
-31 -202 197 0
-31 202 -197 0
-198 0
-1 -203 198 0
-1 203 -198 0
-2 -203 198 0
-2 203 -198 0
-3 -203 198 0
-3 203 -198 0
-4 -198 203 0
-4 -194 203 0
-4 -203 198 194 0
-5 -203 198 0
-5 203 -198 0
-6 -203 198 0
-6 203 -198 0
-7 -198 203 0
-7 -195 203 0
-7 -203 198 195 0
-8 -203 198 0
-8 203 -198 0
-9 -198 203 0
-9 -196 203 0
-9 -203 198 196 0
-10 -198 203 0
-10 -197 203 0
-10 -203 198 197 0
-31 -203 198 0
-31 203 -198 0
-11 -204 199 0
-11 -204 200 0
-11 204 -199 -200 0
-12 -204 199 0
-12 -204 201 0
-12 204 -199 -201 0
-13 -204 199 0
-13 -204 202 0
-13 204 -199 -202 0
-14 -204 199 0
-14 -204 203 0
-14 204 -199 -203 0
-15 -204 199 0
-15 204 -199 0
-16 -204 199 0
-16 204 -199 0
-17 -204 199 0
-17 204 -199 0
-18 -204 199 0
-18 204 -199 0
-19 -204 199 0
-19 204 -199 0
-20 -204 199 0
-20 204 -199 0
-32 -204 199 0
-32 204 -199 0
-11 -200 205 0
-11 -199 205 0
-11 -205 200 199 0
-12 -205 200 0
-12 205 -200 0
-13 -205 200 0
-13 205 -200 0
-14 -205 200 0
-14 205 -200 0
-15 -205 200 0
-15 -205 201 0
-15 205 -200 -201 0
-16 -205 200 0
-16 -205 202 0
-16 205 -200 -202 0
-17 -205 200 0
-17 -205 203 0
-17 205 -200 -203 0
-18 -205 200 0
-18 205 -200 0
-19 -205 200 0
-19 205 -200 0
-20 -205 200 0
-20 205 -200 0
-32 -205 200 0
-32 205 -200 0
-11 -206 201 0
-11 206 -201 0
-12 -201 206 0
-12 -199 206 0
-12 -206 201 199 0
-13 -206 201 0
-13 206 -201 0
-14 -206 201 0
-14 206 -201 0
-15 -201 206 0
-15 -200 206 0
-15 -206 201 200 0
-16 -206 201 0
-16 206 -201 0
-17 -206 201 0
-17 206 -201 0
-18 -206 201 0
-18 -206 202 0
-18 206 -201 -202 0
-19 -206 201 0
-19 -206 203 0
-19 206 -201 -203 0
-20 -206 201 0
-20 206 -201 0
-32 -206 201 0
-32 206 -201 0
-11 -207 202 0
-11 207 -202 0
-12 -207 202 0
-12 207 -202 0
-13 -202 207 0
-13 -199 207 0
-13 -207 202 199 0
-14 -207 202 0
-14 207 -202 0
-15 -207 202 0
-15 207 -202 0
-16 -202 207 0
-16 -200 207 0
-16 -207 202 200 0
-17 -207 202 0
-17 207 -202 0
-18 -202 207 0
-18 -201 207 0
-18 -207 202 201 0
-19 -207 202 0
-19 207 -202 0
-20 -207 202 0
-20 -207 203 0
-20 207 -202 -203 0
-32 -207 202 0
-32 207 -202 0
-11 -208 203 0
-11 208 -203 0
-12 -208 203 0
-12 208 -203 0
-13 -208 203 0
-13 208 -203 0
-14 -203 208 0
-14 -199 208 0
-14 -208 203 199 0
-15 -208 203 0
-15 208 -203 0
-16 -208 203 0
-16 208 -203 0
-17 -203 208 0
-17 -200 208 0
-17 -208 203 200 0
-18 -208 203 0
-18 208 -203 0
-19 -203 208 0
-19 -201 208 0
-19 -208 203 201 0
-20 -203 208 0
-20 -202 208 0
-20 -208 203 202 0
-32 -208 203 0
-32 208 -203 0
-21 -209 204 0
-21 -209 205 0
-21 209 -204 -205 0
-22 -209 204 0
-22 -209 206 0
-22 209 -204 -206 0
-23 -209 204 0
-23 -209 207 0
-23 209 -204 -207 0
-24 -209 204 0
-24 -209 208 0
-24 209 -204 -208 0
-25 -209 204 0
-25 209 -204 0
-26 -209 204 0
-26 209 -204 0
-27 -209 204 0
-27 209 -204 0
-28 -209 204 0
-28 209 -204 0
-29 -209 204 0
-29 209 -204 0
-30 -209 204 0
-30 209 -204 0
-33 -209 204 0
-33 209 -204 0
-21 -205 210 0
-21 -204 210 0
-21 -210 205 204 0
-22 -210 205 0
-22 210 -205 0
-23 -210 205 0
-23 210 -205 0
-24 -210 205 0
-24 210 -205 0
-25 -210 205 0
-25 -210 206 0
-25 210 -205 -206 0
-26 -210 205 0
-26 -210 207 0
-26 210 -205 -207 0
-27 -210 205 0
-27 -210 208 0
-27 210 -205 -208 0
-28 -210 205 0
-28 210 -205 0
-29 -210 205 0
-29 210 -205 0
-30 -210 205 0
-30 210 -205 0
-33 -210 205 0
-33 210 -205 0
-21 -211 206 0
-21 211 -206 0
-22 -206 211 0
-22 -204 211 0
-22 -211 206 204 0
-23 -211 206 0
-23 211 -206 0
-24 -211 206 0
-24 211 -206 0
-25 -206 211 0
-25 -205 211 0
-25 -211 206 205 0
-26 -211 206 0
-26 211 -206 0
-27 -211 206 0
-27 211 -206 0
-28 -211 206 0
-28 -211 207 0
-28 211 -206 -207 0
-29 -211 206 0
-29 -211 208 0
-29 211 -206 -208 0
-30 -211 206 0
-30 211 -206 0
-33 -211 206 0
-33 211 -206 0
-21 -212 207 0
-21 212 -207 0
-22 -212 207 0
-22 212 -207 0
-23 -207 212 0
-23 -204 212 0
-23 -212 207 204 0
-24 -212 207 0
-24 212 -207 0
-25 -212 207 0
-25 212 -207 0
-26 -207 212 0
-26 -205 212 0
-26 -212 207 205 0
-27 -212 207 0
-27 212 -207 0
-28 -207 212 0
-28 -206 212 0
-28 -212 207 206 0
-29 -212 207 0
-29 212 -207 0
-30 -212 207 0
-30 -212 208 0
-30 212 -207 -208 0
-33 -212 207 0
-33 212 -207 0
-21 -213 208 0
-21 213 -208 0
-22 -213 208 0
-22 213 -208 0
-23 -213 208 0
-23 213 -208 0
-24 -208 213 0
-24 -204 213 0
-24 -213 208 204 0
-25 -213 208 0
-25 213 -208 0
-26 -213 208 0
-26 213 -208 0
-27 -208 213 0
-27 -205 213 0
-27 -213 208 205 0
-28 -213 208 0
-28 213 -208 0
-29 -208 213 0
-29 -206 213 0
-29 -213 208 206 0
-30 -208 213 0
-30 -207 213 0
-30 -213 208 207 0
-33 -213 208 0
-33 213 -208 0
214 0
-1 -219 214 0
-1 -219 215 0
-1 219 -214 -215 0
-2 -219 214 0
-2 -219 216 0
-2 219 -214 -216 0
-3 -219 214 0
-3 -219 217 0
-3 219 -214 -217 0
-4 -219 214 0
-4 -219 218 0
-4 219 -214 -218 0
-5 -219 214 0
-5 219 -214 0
-6 -219 214 0
-6 219 -214 0
-7 -219 214 0
-7 219 -214 0
-8 -219 214 0
-8 219 -214 0
-9 -219 214 0
-9 219 -214 0
-10 -219 214 0
-10 219 -214 0
-31 -219 214 0
-31 219 -214 0
215 0
-1 -215 220 0
-1 -214 220 0
-1 -220 215 214 0
-2 -220 215 0
-2 220 -215 0
-3 -220 215 0
-3 220 -215 0
-4 -220 215 0
-4 220 -215 0
-5 -220 215 0
-5 -220 216 0
-5 220 -215 -216 0
-6 -220 215 0
-6 -220 217 0
-6 220 -215 -217 0
-7 -220 215 0
-7 -220 218 0
-7 220 -215 -218 0
-8 -220 215 0
-8 220 -215 0
-9 -220 215 0
-9 220 -215 0
-10 -220 215 0
-10 220 -215 0
-31 -220 215 0
-31 220 -215 0
-216 0
-1 -221 216 0
-1 221 -216 0
-2 -216 221 0
-2 -214 221 0
-2 -221 216 214 0
-3 -221 216 0
-3 221 -216 0
-4 -221 216 0
-4 221 -216 0
-5 -216 221 0
-5 -215 221 0
-5 -221 216 215 0
-6 -221 216 0
-6 221 -216 0
-7 -221 216 0
-7 221 -216 0
-8 -221 216 0
-8 -221 217 0
-8 221 -216 -217 0
-9 -221 216 0
-9 -221 218 0
-9 221 -216 -218 0
-10 -221 216 0
-10 221 -216 0
-31 -221 216 0
-31 221 -216 0
-217 0
-1 -222 217 0
-1 222 -217 0
-2 -222 217 0
-2 222 -217 0
-3 -217 222 0
-3 -214 222 0
-3 -222 217 214 0
-4 -222 217 0
-4 222 -217 0
-5 -222 217 0
-5 222 -217 0
-6 -217 222 0
-6 -215 222 0
-6 -222 217 215 0
-7 -222 217 0
-7 222 -217 0
-8 -217 222 0
-8 -216 222 0
-8 -222 217 216 0
-9 -222 217 0
-9 222 -217 0
-10 -222 217 0
-10 -222 218 0
-10 222 -217 -218 0
-31 -222 217 0
-31 222 -217 0
218 0
-1 -223 218 0
-1 223 -218 0
-2 -223 218 0
-2 223 -218 0
-3 -223 218 0
-3 223 -218 0
-4 -218 223 0
-4 -214 223 0
-4 -223 218 214 0
-5 -223 218 0
-5 223 -218 0
-6 -223 218 0
-6 223 -218 0
-7 -218 223 0
-7 -215 223 0
-7 -223 218 215 0
-8 -223 218 0
-8 223 -218 0
-9 -218 223 0
-9 -216 223 0
-9 -223 218 216 0
-10 -218 223 0
-10 -217 223 0
-10 -223 218 217 0
-31 -223 218 0
-31 223 -218 0
-11 -224 219 0
-11 -224 220 0
-11 224 -219 -220 0
-12 -224 219 0
-12 -224 221 0
-12 224 -219 -221 0
-13 -224 219 0
-13 -224 222 0
-13 224 -219 -222 0
-14 -224 219 0
-14 -224 223 0
-14 224 -219 -223 0
-15 -224 219 0
-15 224 -219 0
-16 -224 219 0
-16 224 -219 0
-17 -224 219 0
-17 224 -219 0
-18 -224 219 0
-18 224 -219 0
-19 -224 219 0
-19 224 -219 0
-20 -224 219 0
-20 224 -219 0
-32 -224 219 0
-32 224 -219 0
-11 -220 225 0
-11 -219 225 0
-11 -225 220 219 0
-12 -225 220 0
-12 225 -220 0
-13 -225 220 0
-13 225 -220 0
-14 -225 220 0
-14 225 -220 0
-15 -225 220 0
-15 -225 221 0
-15 225 -220 -221 0
-16 -225 220 0
-16 -225 222 0
-16 225 -220 -222 0
-17 -225 220 0
-17 -225 223 0
-17 225 -220 -223 0
-18 -225 220 0
-18 225 -220 0
-19 -225 220 0
-19 225 -220 0
-20 -225 220 0
-20 225 -220 0
-32 -225 220 0
-32 225 -220 0
-11 -226 221 0
-11 226 -221 0
-12 -221 226 0
-12 -219 226 0
-12 -226 221 219 0
-13 -226 221 0
-13 226 -221 0
-14 -226 221 0
-14 226 -221 0
-15 -221 226 0
-15 -220 226 0
-15 -226 221 220 0
-16 -226 221 0
-16 226 -221 0
-17 -226 221 0
-17 226 -221 0
-18 -226 221 0
-18 -226 222 0
-18 226 -221 -222 0
-19 -226 221 0
-19 -226 223 0
-19 226 -221 -223 0
-20 -226 221 0
-20 226 -221 0
-32 -226 221 0
-32 226 -221 0
-11 -227 222 0
-11 227 -222 0
-12 -227 222 0
-12 227 -222 0
-13 -222 227 0
-13 -219 227 0
-13 -227 222 219 0
-14 -227 222 0
-14 227 -222 0
-15 -227 222 0
-15 227 -222 0
-16 -222 227 0
-16 -220 227 0
-16 -227 222 220 0
-17 -227 222 0
-17 227 -222 0
-18 -222 227 0
-18 -221 227 0
-18 -227 222 221 0
-19 -227 222 0
-19 227 -222 0
-20 -227 222 0
-20 -227 223 0
-20 227 -222 -223 0
-32 -227 222 0
-32 227 -222 0
-11 -228 223 0
-11 228 -223 0
-12 -228 223 0
-12 228 -223 0
-13 -228 223 0
-13 228 -223 0
-14 -223 228 0
-14 -219 228 0
-14 -228 223 219 0
-15 -228 223 0
-15 228 -223 0
-16 -228 223 0
-16 228 -223 0
-17 -223 228 0
-17 -220 228 0
-17 -228 223 220 0
-18 -228 223 0
-18 228 -223 0
-19 -223 228 0
-19 -221 228 0
-19 -228 223 221 0
-20 -223 228 0
-20 -222 228 0
-20 -228 223 222 0
-32 -228 223 0
-32 228 -223 0
-21 -229 224 0
-21 -229 225 0
-21 229 -224 -225 0
-22 -229 224 0
-22 -229 226 0
-22 229 -224 -226 0
-23 -229 224 0
-23 -229 227 0
-23 229 -224 -227 0
-24 -229 224 0
-24 -229 228 0
-24 229 -224 -228 0
-25 -229 224 0
-25 229 -224 0
-26 -229 224 0
-26 229 -224 0
-27 -229 224 0
-27 229 -224 0
-28 -229 224 0
-28 229 -224 0
-29 -229 224 0
-29 229 -224 0
-30 -229 224 0
-30 229 -224 0
-33 -229 224 0
-33 229 -224 0
-21 -225 230 0
-21 -224 230 0
-21 -230 225 224 0
-22 -230 225 0
-22 230 -225 0
-23 -230 225 0
-23 230 -225 0
-24 -230 225 0
-24 230 -225 0
-25 -230 225 0
-25 -230 226 0
-25 230 -225 -226 0
-26 -230 225 0
-26 -230 227 0
-26 230 -225 -227 0
-27 -230 225 0
-27 -230 228 0
-27 230 -225 -228 0
-28 -230 225 0
-28 230 -225 0
-29 -230 225 0
-29 230 -225 0
-30 -230 225 0
-30 230 -225 0
-33 -230 225 0
-33 230 -225 0
-21 -231 226 0
-21 231 -226 0
-22 -226 231 0
-22 -224 231 0
-22 -231 226 224 0
-23 -231 226 0
-23 231 -226 0
-24 -231 226 0
-24 231 -226 0
-25 -226 231 0
-25 -225 231 0
-25 -231 226 225 0
-26 -231 226 0
-26 231 -226 0
-27 -231 226 0
-27 231 -226 0
-28 -231 226 0
-28 -231 227 0
-28 231 -226 -227 0
-29 -231 226 0
-29 -231 228 0
-29 231 -226 -228 0
-30 -231 226 0
-30 231 -226 0
-33 -231 226 0
-33 231 -226 0
-21 -232 227 0
-21 232 -227 0
-22 -232 227 0
-22 232 -227 0
-23 -227 232 0
-23 -224 232 0
-23 -232 227 224 0
-24 -232 227 0
-24 232 -227 0
-25 -232 227 0
-25 232 -227 0
-26 -227 232 0
-26 -225 232 0
-26 -232 227 225 0
-27 -232 227 0
-27 232 -227 0
-28 -227 232 0
-28 -226 232 0
-28 -232 227 226 0
-29 -232 227 0
-29 232 -227 0
-30 -232 227 0
-30 -232 228 0
-30 232 -227 -228 0
-33 -232 227 0
-33 232 -227 0
-21 -233 228 0
-21 233 -228 0
-22 -233 228 0
-22 233 -228 0
-23 -233 228 0
-23 233 -228 0
-24 -228 233 0
-24 -224 233 0
-24 -233 228 224 0
-25 -233 228 0
-25 233 -228 0
-26 -233 228 0
-26 233 -228 0
-27 -228 233 0
-27 -225 233 0
-27 -233 228 225 0
-28 -233 228 0
-28 233 -228 0
-29 -228 233 0
-29 -226 233 0
-29 -233 228 226 0
-30 -228 233 0
-30 -227 233 0
-30 -233 228 227 0
-33 -233 228 0
-33 233 -228 0
234 0
-1 -239 234 0
-1 -239 235 0
-1 239 -234 -235 0
-2 -239 234 0
-2 -239 236 0
-2 239 -234 -236 0
-3 -239 234 0
-3 -239 237 0
-3 239 -234 -237 0
-4 -239 234 0
-4 -239 238 0
-4 239 -234 -238 0
-5 -239 234 0
-5 239 -234 0
-6 -239 234 0
-6 239 -234 0
-7 -239 234 0
-7 239 -234 0
-8 -239 234 0
-8 239 -234 0
-9 -239 234 0
-9 239 -234 0
-10 -239 234 0
-10 239 -234 0
-31 -239 234 0
-31 239 -234 0
235 0
-1 -235 240 0
-1 -234 240 0
-1 -240 235 234 0
-2 -240 235 0
-2 240 -235 0
-3 -240 235 0
-3 240 -235 0
-4 -240 235 0
-4 240 -235 0
-5 -240 235 0
-5 -240 236 0
-5 240 -235 -236 0
-6 -240 235 0
-6 -240 237 0
-6 240 -235 -237 0
-7 -240 235 0
-7 -240 238 0
-7 240 -235 -238 0
-8 -240 235 0
-8 240 -235 0
-9 -240 235 0
-9 240 -235 0
-10 -240 235 0
-10 240 -235 0
-31 -240 235 0
-31 240 -235 0
-236 0
-1 -241 236 0
-1 241 -236 0
-2 -236 241 0
-2 -234 241 0
-2 -241 236 234 0
-3 -241 236 0
-3 241 -236 0
-4 -241 236 0
-4 241 -236 0
-5 -236 241 0
-5 -235 241 0
-5 -241 236 235 0
-6 -241 236 0
-6 241 -236 0
-7 -241 236 0
-7 241 -236 0
-8 -241 236 0
-8 -241 237 0
-8 241 -236 -237 0
-9 -241 236 0
-9 -241 238 0
-9 241 -236 -238 0
-10 -241 236 0
-10 241 -236 0
-31 -241 236 0
-31 241 -236 0
237 0
-1 -242 237 0
-1 242 -237 0
-2 -242 237 0
-2 242 -237 0
-3 -237 242 0
-3 -234 242 0
-3 -242 237 234 0
-4 -242 237 0
-4 242 -237 0
-5 -242 237 0
-5 242 -237 0
-6 -237 242 0
-6 -235 242 0
-6 -242 237 235 0
-7 -242 237 0
-7 242 -237 0
-8 -237 242 0
-8 -236 242 0
-8 -242 237 236 0
-9 -242 237 0
-9 242 -237 0
-10 -242 237 0
-10 -242 238 0
-10 242 -237 -238 0
-31 -242 237 0
-31 242 -237 0
238 0
-1 -243 238 0
-1 243 -238 0
-2 -243 238 0
-2 243 -238 0
-3 -243 238 0
-3 243 -238 0
-4 -238 243 0
-4 -234 243 0
-4 -243 238 234 0
-5 -243 238 0
-5 243 -238 0
-6 -243 238 0
-6 243 -238 0
-7 -238 243 0
-7 -235 243 0
-7 -243 238 235 0
-8 -243 238 0
-8 243 -238 0
-9 -238 243 0
-9 -236 243 0
-9 -243 238 236 0
-10 -238 243 0
-10 -237 243 0
-10 -243 238 237 0
-31 -243 238 0
-31 243 -238 0
-11 -244 239 0
-11 -244 240 0
-11 244 -239 -240 0
-12 -244 239 0
-12 -244 241 0
-12 244 -239 -241 0
-13 -244 239 0
-13 -244 242 0
-13 244 -239 -242 0
-14 -244 239 0
-14 -244 243 0
-14 244 -239 -243 0
-15 -244 239 0
-15 244 -239 0
-16 -244 239 0
-16 244 -239 0
-17 -244 239 0
-17 244 -239 0
-18 -244 239 0
-18 244 -239 0
-19 -244 239 0
-19 244 -239 0
-20 -244 239 0
-20 244 -239 0
-32 -244 239 0
-32 244 -239 0
-11 -240 245 0
-11 -239 245 0
-11 -245 240 239 0
-12 -245 240 0
-12 245 -240 0
-13 -245 240 0
-13 245 -240 0
-14 -245 240 0
-14 245 -240 0
-15 -245 240 0
-15 -245 241 0
-15 245 -240 -241 0
-16 -245 240 0
-16 -245 242 0
-16 245 -240 -242 0
-17 -245 240 0
-17 -245 243 0
-17 245 -240 -243 0
-18 -245 240 0
-18 245 -240 0
-19 -245 240 0
-19 245 -240 0
-20 -245 240 0
-20 245 -240 0
-32 -245 240 0
-32 245 -240 0
-11 -246 241 0
-11 246 -241 0
-12 -241 246 0
-12 -239 246 0
-12 -246 241 239 0
-13 -246 241 0
-13 246 -241 0
-14 -246 241 0
-14 246 -241 0
-15 -241 246 0
-15 -240 246 0
-15 -246 241 240 0
-16 -246 241 0
-16 246 -241 0
-17 -246 241 0
-17 246 -241 0
-18 -246 241 0
-18 -246 242 0
-18 246 -241 -242 0
-19 -246 241 0
-19 -246 243 0
-19 246 -241 -243 0
-20 -246 241 0
-20 246 -241 0
-32 -246 241 0
-32 246 -241 0
-11 -247 242 0
-11 247 -242 0
-12 -247 242 0
-12 247 -242 0
-13 -242 247 0
-13 -239 247 0
-13 -247 242 239 0
-14 -247 242 0
-14 247 -242 0
-15 -247 242 0
-15 247 -242 0
-16 -242 247 0
-16 -240 247 0
-16 -247 242 240 0
-17 -247 242 0
-17 247 -242 0
-18 -242 247 0
-18 -241 247 0
-18 -247 242 241 0
-19 -247 242 0
-19 247 -242 0
-20 -247 242 0
-20 -247 243 0
-20 247 -242 -243 0
-32 -247 242 0
-32 247 -242 0
-11 -248 243 0
-11 248 -243 0
-12 -248 243 0
-12 248 -243 0
-13 -248 243 0
-13 248 -243 0
-14 -243 248 0
-14 -239 248 0
-14 -248 243 239 0
-15 -248 243 0
-15 248 -243 0
-16 -248 243 0
-16 248 -243 0
-17 -243 248 0
-17 -240 248 0
-17 -248 243 240 0
-18 -248 243 0
-18 248 -243 0
-19 -243 248 0
-19 -241 248 0
-19 -248 243 241 0
-20 -243 248 0
-20 -242 248 0
-20 -248 243 242 0
-32 -248 243 0
-32 248 -243 0
-21 -249 244 0
-21 -249 245 0
-21 249 -244 -245 0
-22 -249 244 0
-22 -249 246 0
-22 249 -244 -246 0
-23 -249 244 0
-23 -249 247 0
-23 249 -244 -247 0
-24 -249 244 0
-24 -249 248 0
-24 249 -244 -248 0
-25 -249 244 0
-25 249 -244 0
-26 -249 244 0
-26 249 -244 0
-27 -249 244 0
-27 249 -244 0
-28 -249 244 0
-28 249 -244 0
-29 -249 244 0
-29 249 -244 0
-30 -249 244 0
-30 249 -244 0
-33 -249 244 0
-33 249 -244 0
-21 -245 250 0
-21 -244 250 0
-21 -250 245 244 0
-22 -250 245 0
-22 250 -245 0
-23 -250 245 0
-23 250 -245 0
-24 -250 245 0
-24 250 -245 0
-25 -250 245 0
-25 -250 246 0
-25 250 -245 -246 0
-26 -250 245 0
-26 -250 247 0
-26 250 -245 -247 0
-27 -250 245 0
-27 -250 248 0
-27 250 -245 -248 0
-28 -250 245 0
-28 250 -245 0
-29 -250 245 0
-29 250 -245 0
-30 -250 245 0
-30 250 -245 0
-33 -250 245 0
-33 250 -245 0
-21 -251 246 0
-21 251 -246 0
-22 -246 251 0
-22 -244 251 0
-22 -251 246 244 0
-23 -251 246 0
-23 251 -246 0
-24 -251 246 0
-24 251 -246 0
-25 -246 251 0
-25 -245 251 0
-25 -251 246 245 0
-26 -251 246 0
-26 251 -246 0
-27 -251 246 0
-27 251 -246 0
-28 -251 246 0
-28 -251 247 0
-28 251 -246 -247 0
-29 -251 246 0
-29 -251 248 0
-29 251 -246 -248 0
-30 -251 246 0
-30 251 -246 0
-33 -251 246 0
-33 251 -246 0
-21 -252 247 0
-21 252 -247 0
-22 -252 247 0
-22 252 -247 0
-23 -247 252 0
-23 -244 252 0
-23 -252 247 244 0
-24 -252 247 0
-24 252 -247 0
-25 -252 247 0
-25 252 -247 0
-26 -247 252 0
-26 -245 252 0
-26 -252 247 245 0
-27 -252 247 0
-27 252 -247 0
-28 -247 252 0
-28 -246 252 0
-28 -252 247 246 0
-29 -252 247 0
-29 252 -247 0
-30 -252 247 0
-30 -252 248 0
-30 252 -247 -248 0
-33 -252 247 0
-33 252 -247 0
-21 -253 248 0
-21 253 -248 0
-22 -253 248 0
-22 253 -248 0
-23 -253 248 0
-23 253 -248 0
-24 -248 253 0
-24 -244 253 0
-24 -253 248 244 0
-25 -253 248 0
-25 253 -248 0
-26 -253 248 0
-26 253 -248 0
-27 -248 253 0
-27 -245 253 0
-27 -253 248 245 0
-28 -253 248 0
-28 253 -248 0
-29 -248 253 0
-29 -246 253 0
-29 -253 248 246 0
-30 -248 253 0
-30 -247 253 0
-30 -253 248 247 0
-33 -253 248 0
-33 253 -248 0
254 0
-1 -259 254 0
-1 -259 255 0
-1 259 -254 -255 0
-2 -259 254 0
-2 -259 256 0
-2 259 -254 -256 0
-3 -259 254 0
-3 -259 257 0
-3 259 -254 -257 0
-4 -259 254 0
-4 -259 258 0
-4 259 -254 -258 0
-5 -259 254 0
-5 259 -254 0
-6 -259 254 0
-6 259 -254 0
-7 -259 254 0
-7 259 -254 0
-8 -259 254 0
-8 259 -254 0
-9 -259 254 0
-9 259 -254 0
-10 -259 254 0
-10 259 -254 0
-31 -259 254 0
-31 259 -254 0
255 0
-1 -255 260 0
-1 -254 260 0
-1 -260 255 254 0
-2 -260 255 0
-2 260 -255 0
-3 -260 255 0
-3 260 -255 0
-4 -260 255 0
-4 260 -255 0
-5 -260 255 0
-5 -260 256 0
-5 260 -255 -256 0
-6 -260 255 0
-6 -260 257 0
-6 260 -255 -257 0
-7 -260 255 0
-7 -260 258 0
-7 260 -255 -258 0
-8 -260 255 0
-8 260 -255 0
-9 -260 255 0
-9 260 -255 0
-10 -260 255 0
-10 260 -255 0
-31 -260 255 0
-31 260 -255 0
256 0
-1 -261 256 0
-1 261 -256 0
-2 -256 261 0
-2 -254 261 0
-2 -261 256 254 0
-3 -261 256 0
-3 261 -256 0
-4 -261 256 0
-4 261 -256 0
-5 -256 261 0
-5 -255 261 0
-5 -261 256 255 0
-6 -261 256 0
-6 261 -256 0
-7 -261 256 0
-7 261 -256 0
-8 -261 256 0
-8 -261 257 0
-8 261 -256 -257 0
-9 -261 256 0
-9 -261 258 0
-9 261 -256 -258 0
-10 -261 256 0
-10 261 -256 0
-31 -261 256 0
-31 261 -256 0
257 0
-1 -262 257 0
-1 262 -257 0
-2 -262 257 0
-2 262 -257 0
-3 -257 262 0
-3 -254 262 0
-3 -262 257 254 0
-4 -262 257 0
-4 262 -257 0
-5 -262 257 0
-5 262 -257 0
-6 -257 262 0
-6 -255 262 0
-6 -262 257 255 0
-7 -262 257 0
-7 262 -257 0
-8 -257 262 0
-8 -256 262 0
-8 -262 257 256 0
-9 -262 257 0
-9 262 -257 0
-10 -262 257 0
-10 -262 258 0
-10 262 -257 -258 0
-31 -262 257 0
-31 262 -257 0
258 0
-1 -263 258 0
-1 263 -258 0
-2 -263 258 0
-2 263 -258 0
-3 -263 258 0
-3 263 -258 0
-4 -258 263 0
-4 -254 263 0
-4 -263 258 254 0
-5 -263 258 0
-5 263 -258 0
-6 -263 258 0
-6 263 -258 0
-7 -258 263 0
-7 -255 263 0
-7 -263 258 255 0
-8 -263 258 0
-8 263 -258 0
-9 -258 263 0
-9 -256 263 0
-9 -263 258 256 0
-10 -258 263 0
-10 -257 263 0
-10 -263 258 257 0
-31 -263 258 0
-31 263 -258 0
-11 -264 259 0
-11 -264 260 0
-11 264 -259 -260 0
-12 -264 259 0
-12 -264 261 0
-12 264 -259 -261 0
-13 -264 259 0
-13 -264 262 0
-13 264 -259 -262 0
-14 -264 259 0
-14 -264 263 0
-14 264 -259 -263 0
-15 -264 259 0
-15 264 -259 0
-16 -264 259 0
-16 264 -259 0
-17 -264 259 0
-17 264 -259 0
-18 -264 259 0
-18 264 -259 0
-19 -264 259 0
-19 264 -259 0
-20 -264 259 0
-20 264 -259 0
-32 -264 259 0
-32 264 -259 0
-11 -260 265 0
-11 -259 265 0
-11 -265 260 259 0
-12 -265 260 0
-12 265 -260 0
-13 -265 260 0
-13 265 -260 0
-14 -265 260 0
-14 265 -260 0
-15 -265 260 0
-15 -265 261 0
-15 265 -260 -261 0
-16 -265 260 0
-16 -265 262 0
-16 265 -260 -262 0
-17 -265 260 0
-17 -265 263 0
-17 265 -260 -263 0
-18 -265 260 0
-18 265 -260 0
-19 -265 260 0
-19 265 -260 0
-20 -265 260 0
-20 265 -260 0
-32 -265 260 0
-32 265 -260 0
-11 -266 261 0
-11 266 -261 0
-12 -261 266 0
-12 -259 266 0
-12 -266 261 259 0
-13 -266 261 0
-13 266 -261 0
-14 -266 261 0
-14 266 -261 0
-15 -261 266 0
-15 -260 266 0
-15 -266 261 260 0
-16 -266 261 0
-16 266 -261 0
-17 -266 261 0
-17 266 -261 0
-18 -266 261 0
-18 -266 262 0
-18 266 -261 -262 0
-19 -266 261 0
-19 -266 263 0
-19 266 -261 -263 0
-20 -266 261 0
-20 266 -261 0
-32 -266 261 0
-32 266 -261 0
-11 -267 262 0
-11 267 -262 0
-12 -267 262 0
-12 267 -262 0
-13 -262 267 0
-13 -259 267 0
-13 -267 262 259 0
-14 -267 262 0
-14 267 -262 0
-15 -267 262 0
-15 267 -262 0
-16 -262 267 0
-16 -260 267 0
-16 -267 262 260 0
-17 -267 262 0
-17 267 -262 0
-18 -262 267 0
-18 -261 267 0
-18 -267 262 261 0
-19 -267 262 0
-19 267 -262 0
-20 -267 262 0
-20 -267 263 0
-20 267 -262 -263 0
-32 -267 262 0
-32 267 -262 0
-11 -268 263 0
-11 268 -263 0
-12 -268 263 0
-12 268 -263 0
-13 -268 263 0
-13 268 -263 0
-14 -263 268 0
-14 -259 268 0
-14 -268 263 259 0
-15 -268 263 0
-15 268 -263 0
-16 -268 263 0
-16 268 -263 0
-17 -263 268 0
-17 -260 268 0
-17 -268 263 260 0
-18 -268 263 0
-18 268 -263 0
-19 -263 268 0
-19 -261 268 0
-19 -268 263 261 0
-20 -263 268 0
-20 -262 268 0
-20 -268 263 262 0
-32 -268 263 0
-32 268 -263 0
-21 -269 264 0
-21 -269 265 0
-21 269 -264 -265 0
-22 -269 264 0
-22 -269 266 0
-22 269 -264 -266 0
-23 -269 264 0
-23 -269 267 0
-23 269 -264 -267 0
-24 -269 264 0
-24 -269 268 0
-24 269 -264 -268 0
-25 -269 264 0
-25 269 -264 0
-26 -269 264 0
-26 269 -264 0
-27 -269 264 0
-27 269 -264 0
-28 -269 264 0
-28 269 -264 0
-29 -269 264 0
-29 269 -264 0
-30 -269 264 0
-30 269 -264 0
-33 -269 264 0
-33 269 -264 0
-21 -265 270 0
-21 -264 270 0
-21 -270 265 264 0
-22 -270 265 0
-22 270 -265 0
-23 -270 265 0
-23 270 -265 0
-24 -270 265 0
-24 270 -265 0
-25 -270 265 0
-25 -270 266 0
-25 270 -265 -266 0
-26 -270 265 0
-26 -270 267 0
-26 270 -265 -267 0
-27 -270 265 0
-27 -270 268 0
-27 270 -265 -268 0
-28 -270 265 0
-28 270 -265 0
-29 -270 265 0
-29 270 -265 0
-30 -270 265 0
-30 270 -265 0
-33 -270 265 0
-33 270 -265 0
-21 -271 266 0
-21 271 -266 0
-22 -266 271 0
-22 -264 271 0
-22 -271 266 264 0
-23 -271 266 0
-23 271 -266 0
-24 -271 266 0
-24 271 -266 0
-25 -266 271 0
-25 -265 271 0
-25 -271 266 265 0
-26 -271 266 0
-26 271 -266 0
-27 -271 266 0
-27 271 -266 0
-28 -271 266 0
-28 -271 267 0
-28 271 -266 -267 0
-29 -271 266 0
-29 -271 268 0
-29 271 -266 -268 0
-30 -271 266 0
-30 271 -266 0
-33 -271 266 0
-33 271 -266 0
-21 -272 267 0
-21 272 -267 0
-22 -272 267 0
-22 272 -267 0
-23 -267 272 0
-23 -264 272 0
-23 -272 267 264 0
-24 -272 267 0
-24 272 -267 0
-25 -272 267 0
-25 272 -267 0
-26 -267 272 0
-26 -265 272 0
-26 -272 267 265 0
-27 -272 267 0
-27 272 -267 0
-28 -267 272 0
-28 -266 272 0
-28 -272 267 266 0
-29 -272 267 0
-29 272 -267 0
-30 -272 267 0
-30 -272 268 0
-30 272 -267 -268 0
-33 -272 267 0
-33 272 -267 0
-21 -273 268 0
-21 273 -268 0
-22 -273 268 0
-22 273 -268 0
-23 -273 268 0
-23 273 -268 0
-24 -268 273 0
-24 -264 273 0
-24 -273 268 264 0
-25 -273 268 0
-25 273 -268 0
-26 -273 268 0
-26 273 -268 0
-27 -268 273 0
-27 -265 273 0
-27 -273 268 265 0
-28 -273 268 0
-28 273 -268 0
-29 -268 273 0
-29 -266 273 0
-29 -273 268 266 0
-30 -268 273 0
-30 -267 273 0
-30 -273 268 267 0
-33 -273 268 0
-33 273 -268 0
-49 50 0
-50 51 0
-51 52 0
-52 53 0
-69 70 0
-70 71 0
-71 72 0
-72 73 0
-89 90 0
-90 91 0
-91 92 0
-92 93 0
-109 110 0
-110 111 0
-111 112 0
-112 113 0
-129 130 0
-130 131 0
-131 132 0
-132 133 0
-149 150 0
-150 151 0
-151 152 0
-152 153 0
-169 170 0
-170 171 0
-171 172 0
-172 173 0
-189 190 0
-190 191 0
-191 192 0
-192 193 0
-209 210 0
-210 211 0
-211 212 0
-212 213 0
-229 230 0
-230 231 0
-231 232 0
-232 233 0
-249 250 0
-250 251 0
-251 252 0
-252 253 0
-269 270 0
-270 271 0
-271 272 0
-272 273 0
