p cnf 299 3964
1 2 3 4 5 6 31 0
-1 -2 0
-1 -3 0
-1 -4 0
-1 -5 0
-1 -6 0
-1 -31 0
-2 -3 0
-2 -4 0
-2 -5 0
-2 -6 0
-2 -31 0
-3 -4 0
-3 -5 0
-3 -6 0
-3 -31 0
-4 -5 0
-4 -6 0
-4 -31 0
-5 -6 0
-5 -31 0
-6 -31 0
7 8 9 10 11 12 32 0
-7 -8 0
-7 -9 0
-7 -10 0
-7 -11 0
-7 -12 0
-7 -32 0
-8 -9 0
-8 -10 0
-8 -11 0
-8 -12 0
-8 -32 0
-9 -10 0
-9 -11 0
-9 -12 0
-9 -32 0
-10 -11 0
-10 -12 0
-10 -32 0
-11 -12 0
-11 -32 0
-12 -32 0
13 14 15 16 17 18 33 0
-13 -14 0
-13 -15 0
-13 -16 0
-13 -17 0
-13 -18 0
-13 -33 0
-14 -15 0
-14 -16 0
-14 -17 0
-14 -18 0
-14 -33 0
-15 -16 0
-15 -17 0
-15 -18 0
-15 -33 0
-16 -17 0
-16 -18 0
-16 -33 0
-17 -18 0
-17 -33 0
-18 -33 0
19 20 21 22 23 24 34 0
-19 -20 0
-19 -21 0
-19 -22 0
-19 -23 0
-19 -24 0
-19 -34 0
-20 -21 0
-20 -22 0
-20 -23 0
-20 -24 0
-20 -34 0
-21 -22 0
-21 -23 0
-21 -24 0
-21 -34 0
-22 -23 0
-22 -24 0
-22 -34 0
-23 -24 0
-23 -34 0
-24 -34 0
25 26 27 28 29 30 35 0
-25 -26 0
-25 -27 0
-25 -28 0
-25 -29 0
-25 -30 0
-25 -35 0
-26 -27 0
-26 -28 0
-26 -29 0
-26 -30 0
-26 -35 0
-27 -28 0
-27 -29 0
-27 -30 0
-27 -35 0
-28 -29 0
-28 -30 0
-28 -35 0
-29 -30 0
-29 -35 0
-30 -35 0
1 0
-1 -7 0
-2 -8 0
-3 -9 0
-4 -10 0
-5 -11 0
-6 -12 0
-7 -13 0
-8 -14 0
-9 -15 0
-10 -16 0
-11 -17 0
-12 -18 0
-13 -19 0
-14 -20 0
-15 -21 0
-16 -22 0
-17 -23 0
-18 -24 0
-19 -25 0
-20 -26 0
-21 -27 0
-22 -28 0
-23 -29 0
-24 -30 0
-4 -9 0
-5 -8 0
-6 -7 0
-10 -15 0
-11 -14 0
-12 -13 0
-16 -21 0
-17 -20 0
-18 -19 0
-22 -27 0
-23 -26 0
-24 -25 0
-36 0
-1 -40 36 0
-1 -40 37 0
-1 40 -36 -37 0
-2 -40 36 0
-2 -40 38 0
-2 40 -36 -38 0
-3 -40 36 0
-3 -40 39 0
-3 40 -36 -39 0
-4 -40 36 0
-4 40 -36 0
-5 -40 36 0
-5 40 -36 0
-6 -40 36 0
-6 40 -36 0
-31 -40 36 0
-31 40 -36 0
-37 0
-1 -37 41 0
-1 -36 41 0
-1 -41 37 36 0
-2 -41 37 0
-2 41 -37 0
-3 -41 37 0
-3 41 -37 0
-4 -41 37 0
-4 -41 38 0
-4 41 -37 -38 0
-5 -41 37 0
-5 -41 39 0
-5 41 -37 -39 0
-6 -41 37 0
-6 41 -37 0
-31 -41 37 0
-31 41 -37 0
38 0
-1 -42 38 0
-1 42 -38 0
-2 -38 42 0
-2 -36 42 0
-2 -42 38 36 0
-3 -42 38 0
-3 42 -38 0
-4 -38 42 0
-4 -37 42 0
-4 -42 38 37 0
-5 -42 38 0
-5 42 -38 0
-6 -42 38 0
-6 -42 39 0
-6 42 -38 -39 0
-31 -42 38 0
-31 42 -38 0
-39 0
-1 -43 39 0
-1 43 -39 0
-2 -43 39 0
-2 43 -39 0
-3 -39 43 0
-3 -36 43 0
-3 -43 39 36 0
-4 -43 39 0
-4 43 -39 0
-5 -39 43 0
-5 -37 43 0
-5 -43 39 37 0
-6 -39 43 0
-6 -38 43 0
-6 -43 39 38 0
-31 -43 39 0
-31 43 -39 0
-7 -44 40 0
-7 -44 41 0
-7 44 -40 -41 0
-8 -44 40 0
-8 -44 42 0
-8 44 -40 -42 0
-9 -44 40 0
-9 -44 43 0
-9 44 -40 -43 0
-10 -44 40 0
-10 44 -40 0
-11 -44 40 0
-11 44 -40 0
-12 -44 40 0
-12 44 -40 0
-32 -44 40 0
-32 44 -40 0
-7 -41 45 0
-7 -40 45 0
-7 -45 41 40 0
-8 -45 41 0
-8 45 -41 0
-9 -45 41 0
-9 45 -41 0
-10 -45 41 0
-10 -45 42 0
-10 45 -41 -42 0
-11 -45 41 0
-11 -45 43 0
-11 45 -41 -43 0
-12 -45 41 0
-12 45 -41 0
-32 -45 41 0
-32 45 -41 0
-7 -46 42 0
-7 46 -42 0
-8 -42 46 0
-8 -40 46 0
-8 -46 42 40 0
-9 -46 42 0
-9 46 -42 0
-10 -42 46 0
-10 -41 46 0
-10 -46 42 41 0
-11 -46 42 0
-11 46 -42 0
-12 -46 42 0
-12 -46 43 0
-12 46 -42 -43 0
-32 -46 42 0
-32 46 -42 0
-7 -47 43 0
-7 47 -43 0
-8 -47 43 0
-8 47 -43 0
-9 -43 47 0
-9 -40 47 0
-9 -47 43 40 0
-10 -47 43 0
-10 47 -43 0
-11 -43 47 0
-11 -41 47 0
-11 -47 43 41 0
-12 -43 47 0
-12 -42 47 0
-12 -47 43 42 0
-32 -47 43 0
-32 47 -43 0
-13 -48 44 0
-13 -48 45 0
-13 48 -44 -45 0
-14 -48 44 0
-14 -48 46 0
-14 48 -44 -46 0
-15 -48 44 0
-15 -48 47 0
-15 48 -44 -47 0
-16 -48 44 0
-16 48 -44 0
-17 -48 44 0
-17 48 -44 0
-18 -48 44 0
-18 48 -44 0
-33 -48 44 0
-33 48 -44 0
-13 -45 49 0
-13 -44 49 0
-13 -49 45 44 0
-14 -49 45 0
-14 49 -45 0
-15 -49 45 0
-15 49 -45 0
-16 -49 45 0
-16 -49 46 0
-16 49 -45 -46 0
-17 -49 45 0
-17 -49 47 0
-17 49 -45 -47 0
-18 -49 45 0
-18 49 -45 0
-33 -49 45 0
-33 49 -45 0
-13 -50 46 0
-13 50 -46 0
-14 -46 50 0
-14 -44 50 0
-14 -50 46 44 0
-15 -50 46 0
-15 50 -46 0
-16 -46 50 0
-16 -45 50 0
-16 -50 46 45 0
-17 -50 46 0
-17 50 -46 0
-18 -50 46 0
-18 -50 47 0
-18 50 -46 -47 0
-33 -50 46 0
-33 50 -46 0
-13 -51 47 0
-13 51 -47 0
-14 -51 47 0
-14 51 -47 0
-15 -47 51 0
-15 -44 51 0
-15 -51 47 44 0
-16 -51 47 0
-16 51 -47 0
-17 -47 51 0
-17 -45 51 0
-17 -51 47 45 0
-18 -47 51 0
-18 -46 51 0
-18 -51 47 46 0
-33 -51 47 0
-33 51 -47 0
-19 -52 48 0
-19 -52 49 0
-19 52 -48 -49 0
-20 -52 48 0
-20 -52 50 0
-20 52 -48 -50 0
-21 -52 48 0
-21 -52 51 0
-21 52 -48 -51 0
-22 -52 48 0
-22 52 -48 0
-23 -52 48 0
-23 52 -48 0
-24 -52 48 0
-24 52 -48 0
-34 -52 48 0
-34 52 -48 0
-19 -49 53 0
-19 -48 53 0
-19 -53 49 48 0
-20 -53 49 0
-20 53 -49 0
-21 -53 49 0
-21 53 -49 0
-22 -53 49 0
-22 -53 50 0
-22 53 -49 -50 0
-23 -53 49 0
-23 -53 51 0
-23 53 -49 -51 0
-24 -53 49 0
-24 53 -49 0
-34 -53 49 0
-34 53 -49 0
-19 -54 50 0
-19 54 -50 0
-20 -50 54 0
-20 -48 54 0
-20 -54 50 48 0
-21 -54 50 0
-21 54 -50 0
-22 -50 54 0
-22 -49 54 0
-22 -54 50 49 0
-23 -54 50 0
-23 54 -50 0
-24 -54 50 0
-24 -54 51 0
-24 54 -50 -51 0
-34 -54 50 0
-34 54 -50 0
-19 -55 51 0
-19 55 -51 0
-20 -55 51 0
-20 55 -51 0
-21 -51 55 0
-21 -48 55 0
-21 -55 51 48 0
-22 -55 51 0
-22 55 -51 0
-23 -51 55 0
-23 -49 55 0
-23 -55 51 49 0
-24 -51 55 0
-24 -50 55 0
-24 -55 51 50 0
-34 -55 51 0
-34 55 -51 0
-25 -56 52 0
-25 -56 53 0
-25 56 -52 -53 0
-26 -56 52 0
-26 -56 54 0
-26 56 -52 -54 0
-27 -56 52 0
-27 -56 55 0
-27 56 -52 -55 0
-28 -56 52 0
-28 56 -52 0
-29 -56 52 0
-29 56 -52 0
-30 -56 52 0
-30 56 -52 0
-35 -56 52 0
-35 56 -52 0
-25 -53 57 0
-25 -52 57 0
-25 -57 53 52 0
-26 -57 53 0
-26 57 -53 0
-27 -57 53 0
-27 57 -53 0
-28 -57 53 0
-28 -57 54 0
-28 57 -53 -54 0
-29 -57 53 0
-29 -57 55 0
-29 57 -53 -55 0
-30 -57 53 0
-30 57 -53 0
-35 -57 53 0
-35 57 -53 0
-25 -58 54 0
-25 58 -54 0
-26 -54 58 0
-26 -52 58 0
-26 -58 54 52 0
-27 -58 54 0
-27 58 -54 0
-28 -54 58 0
-28 -53 58 0
-28 -58 54 53 0
-29 -58 54 0
-29 58 -54 0
-30 -58 54 0
-30 -58 55 0
-30 58 -54 -55 0
-35 -58 54 0
-35 58 -54 0
-25 -59 55 0
-25 59 -55 0
-26 -59 55 0
-26 59 -55 0
-27 -55 59 0
-27 -52 59 0
-27 -59 55 52 0
-28 -59 55 0
-28 59 -55 0
-29 -55 59 0
-29 -53 59 0
-29 -59 55 53 0
-30 -55 59 0
-30 -54 59 0
-30 -59 55 54 0
-35 -59 55 0
-35 59 -55 0
-60 0
-1 -64 60 0
-1 -64 61 0
-1 64 -60 -61 0
-2 -64 60 0
-2 -64 62 0
-2 64 -60 -62 0
-3 -64 60 0
-3 -64 63 0
-3 64 -60 -63 0
-4 -64 60 0
-4 64 -60 0
-5 -64 60 0
-5 64 -60 0
-6 -64 60 0
-6 64 -60 0
-31 -64 60 0
-31 64 -60 0
61 0
-1 -61 65 0
-1 -60 65 0
-1 -65 61 60 0
-2 -65 61 0
-2 65 -61 0
-3 -65 61 0
-3 65 -61 0
-4 -65 61 0
-4 -65 62 0
-4 65 -61 -62 0
-5 -65 61 0
-5 -65 63 0
-5 65 -61 -63 0
-6 -65 61 0
-6 65 -61 0
-31 -65 61 0
-31 65 -61 0
-62 0
-1 -66 62 0
-1 66 -62 0
-2 -62 66 0
-2 -60 66 0
-2 -66 62 60 0
-3 -66 62 0
-3 66 -62 0
-4 -62 66 0
-4 -61 66 0
-4 -66 62 61 0
-5 -66 62 0
-5 66 -62 0
-6 -66 62 0
-6 -66 63 0
-6 66 -62 -63 0
-31 -66 62 0
-31 66 -62 0
-63 0
-1 -67 63 0
-1 67 -63 0
-2 -67 63 0
-2 67 -63 0
-3 -63 67 0
-3 -60 67 0
-3 -67 63 60 0
-4 -67 63 0
-4 67 -63 0
-5 -63 67 0
-5 -61 67 0
-5 -67 63 61 0
-6 -63 67 0
-6 -62 67 0
-6 -67 63 62 0
-31 -67 63 0
-31 67 -63 0
-7 -68 64 0
-7 -68 65 0
-7 68 -64 -65 0
-8 -68 64 0
-8 -68 66 0
-8 68 -64 -66 0
-9 -68 64 0
-9 -68 67 0
-9 68 -64 -67 0
-10 -68 64 0
-10 68 -64 0
-11 -68 64 0
-11 68 -64 0
-12 -68 64 0
-12 68 -64 0
-32 -68 64 0
-32 68 -64 0
-7 -65 69 0
-7 -64 69 0
-7 -69 65 64 0
-8 -69 65 0
-8 69 -65 0
-9 -69 65 0
-9 69 -65 0
-10 -69 65 0
-10 -69 66 0
-10 69 -65 -66 0
-11 -69 65 0
-11 -69 67 0
-11 69 -65 -67 0
-12 -69 65 0
-12 69 -65 0
-32 -69 65 0
-32 69 -65 0
-7 -70 66 0
-7 70 -66 0
-8 -66 70 0
-8 -64 70 0
-8 -70 66 64 0
-9 -70 66 0
-9 70 -66 0
-10 -66 70 0
-10 -65 70 0
-10 -70 66 65 0
-11 -70 66 0
-11 70 -66 0
-12 -70 66 0
-12 -70 67 0
-12 70 -66 -67 0
-32 -70 66 0
-32 70 -66 0
-7 -71 67 0
-7 71 -67 0
-8 -71 67 0
-8 71 -67 0
-9 -67 71 0
-9 -64 71 0
-9 -71 67 64 0
-10 -71 67 0
-10 71 -67 0
-11 -67 71 0
-11 -65 71 0
-11 -71 67 65 0
-12 -67 71 0
-12 -66 71 0
-12 -71 67 66 0
-32 -71 67 0
-32 71 -67 0
-13 -72 68 0
-13 -72 69 0
-13 72 -68 -69 0
-14 -72 68 0
-14 -72 70 0
-14 72 -68 -70 0
-15 -72 68 0
-15 -72 71 0
-15 72 -68 -71 0
-16 -72 68 0
-16 72 -68 0
-17 -72 68 0
-17 72 -68 0
-18 -72 68 0
-18 72 -68 0
-33 -72 68 0
-33 72 -68 0
-13 -69 73 0
-13 -68 73 0
-13 -73 69 68 0
-14 -73 69 0
-14 73 -69 0
-15 -73 69 0
-15 73 -69 0
-16 -73 69 0
-16 -73 70 0
-16 73 -69 -70 0
-17 -73 69 0
-17 -73 71 0
-17 73 -69 -71 0
-18 -73 69 0
-18 73 -69 0
-33 -73 69 0
-33 73 -69 0
-13 -74 70 0
-13 74 -70 0
-14 -70 74 0
-14 -68 74 0
-14 -74 70 68 0
-15 -74 70 0
-15 74 -70 0
-16 -70 74 0
-16 -69 74 0
-16 -74 70 69 0
-17 -74 70 0
-17 74 -70 0
-18 -74 70 0
-18 -74 71 0
-18 74 -70 -71 0
-33 -74 70 0
-33 74 -70 0
-13 -75 71 0
-13 75 -71 0
-14 -75 71 0
-14 75 -71 0
-15 -71 75 0
-15 -68 75 0
-15 -75 71 68 0
-16 -75 71 0
-16 75 -71 0
-17 -71 75 0
-17 -69 75 0
-17 -75 71 69 0
-18 -71 75 0
-18 -70 75 0
-18 -75 71 70 0
-33 -75 71 0
-33 75 -71 0
-19 -76 72 0
-19 -76 73 0
-19 76 -72 -73 0
-20 -76 72 0
-20 -76 74 0
-20 76 -72 -74 0
-21 -76 72 0
-21 -76 75 0
-21 76 -72 -75 0
-22 -76 72 0
-22 76 -72 0
-23 -76 72 0
-23 76 -72 0
-24 -76 72 0
-24 76 -72 0
-34 -76 72 0
-34 76 -72 0
-19 -73 77 0
-19 -72 77 0
-19 -77 73 72 0
-20 -77 73 0
-20 77 -73 0
-21 -77 73 0
-21 77 -73 0
-22 -77 73 0
-22 -77 74 0
-22 77 -73 -74 0
-23 -77 73 0
-23 -77 75 0
-23 77 -73 -75 0
-24 -77 73 0
-24 77 -73 0
-34 -77 73 0
-34 77 -73 0
-19 -78 74 0
-19 78 -74 0
-20 -74 78 0
-20 -72 78 0
-20 -78 74 72 0
-21 -78 74 0
-21 78 -74 0
-22 -74 78 0
-22 -73 78 0
-22 -78 74 73 0
-23 -78 74 0
-23 78 -74 0
-24 -78 74 0
-24 -78 75 0
-24 78 -74 -75 0
-34 -78 74 0
-34 78 -74 0
-19 -79 75 0
-19 79 -75 0
-20 -79 75 0
-20 79 -75 0
-21 -75 79 0
-21 -72 79 0
-21 -79 75 72 0
-22 -79 75 0
-22 79 -75 0
-23 -75 79 0
-23 -73 79 0
-23 -79 75 73 0
-24 -75 79 0
-24 -74 79 0
-24 -79 75 74 0
-34 -79 75 0
-34 79 -75 0
-25 -80 76 0
-25 -80 77 0
-25 80 -76 -77 0
-26 -80 76 0
-26 -80 78 0
-26 80 -76 -78 0
-27 -80 76 0
-27 -80 79 0
-27 80 -76 -79 0
-28 -80 76 0
-28 80 -76 0
-29 -80 76 0
-29 80 -76 0
-30 -80 76 0
-30 80 -76 0
-35 -80 76 0
-35 80 -76 0
-25 -77 81 0
-25 -76 81 0
-25 -81 77 76 0
-26 -81 77 0
-26 81 -77 0
-27 -81 77 0
-27 81 -77 0
-28 -81 77 0
-28 -81 78 0
-28 81 -77 -78 0
-29 -81 77 0
-29 -81 79 0
-29 81 -77 -79 0
-30 -81 77 0
-30 81 -77 0
-35 -81 77 0
-35 81 -77 0
-25 -82 78 0
-25 82 -78 0
-26 -78 82 0
-26 -76 82 0
-26 -82 78 76 0
-27 -82 78 0
-27 82 -78 0
-28 -78 82 0
-28 -77 82 0
-28 -82 78 77 0
-29 -82 78 0
-29 82 -78 0
-30 -82 78 0
-30 -82 79 0
-30 82 -78 -79 0
-35 -82 78 0
-35 82 -78 0
-25 -83 79 0
-25 83 -79 0
-26 -83 79 0
-26 83 -79 0
-27 -79 83 0
-27 -76 83 0
-27 -83 79 76 0
-28 -83 79 0
-28 83 -79 0
-29 -79 83 0
-29 -77 83 0
-29 -83 79 77 0
-30 -79 83 0
-30 -78 83 0
-30 -83 79 78 0
-35 -83 79 0
-35 83 -79 0
-84 0
-1 -88 84 0
-1 -88 85 0
-1 88 -84 -85 0
-2 -88 84 0
-2 -88 86 0
-2 88 -84 -86 0
-3 -88 84 0
-3 -88 87 0
-3 88 -84 -87 0
-4 -88 84 0
-4 88 -84 0
-5 -88 84 0
-5 88 -84 0
-6 -88 84 0
-6 88 -84 0
-31 -88 84 0
-31 88 -84 0
85 0
-1 -85 89 0
-1 -84 89 0
-1 -89 85 84 0
-2 -89 85 0
-2 89 -85 0
-3 -89 85 0
-3 89 -85 0
-4 -89 85 0
-4 -89 86 0
-4 89 -85 -86 0
-5 -89 85 0
-5 -89 87 0
-5 89 -85 -87 0
-6 -89 85 0
-6 89 -85 0
-31 -89 85 0
-31 89 -85 0
-86 0
-1 -90 86 0
-1 90 -86 0
-2 -86 90 0
-2 -84 90 0
-2 -90 86 84 0
-3 -90 86 0
-3 90 -86 0
-4 -86 90 0
-4 -85 90 0
-4 -90 86 85 0
-5 -90 86 0
-5 90 -86 0
-6 -90 86 0
-6 -90 87 0
-6 90 -86 -87 0
-31 -90 86 0
-31 90 -86 0
87 0
-1 -91 87 0
-1 91 -87 0
-2 -91 87 0
-2 91 -87 0
-3 -87 91 0
-3 -84 91 0
-3 -91 87 84 0
-4 -91 87 0
-4 91 -87 0
-5 -87 91 0
-5 -85 91 0
-5 -91 87 85 0
-6 -87 91 0
-6 -86 91 0
-6 -91 87 86 0
-31 -91 87 0
-31 91 -87 0
-7 -92 88 0
-7 -92 89 0
-7 92 -88 -89 0
-8 -92 88 0
-8 -92 90 0
-8 92 -88 -90 0
-9 -92 88 0
-9 -92 91 0
-9 92 -88 -91 0
-10 -92 88 0
-10 92 -88 0
-11 -92 88 0
-11 92 -88 0
-12 -92 88 0
-12 92 -88 0
-32 -92 88 0
-32 92 -88 0
-7 -89 93 0
-7 -88 93 0
-7 -93 89 88 0
-8 -93 89 0
-8 93 -89 0
-9 -93 89 0
-9 93 -89 0
-10 -93 89 0
-10 -93 90 0
-10 93 -89 -90 0
-11 -93 89 0
-11 -93 91 0
-11 93 -89 -91 0
-12 -93 89 0
-12 93 -89 0
-32 -93 89 0
-32 93 -89 0
-7 -94 90 0
-7 94 -90 0
-8 -90 94 0
-8 -88 94 0
-8 -94 90 88 0
-9 -94 90 0
-9 94 -90 0
-10 -90 94 0
-10 -89 94 0
-10 -94 90 89 0
-11 -94 90 0
-11 94 -90 0
-12 -94 90 0
-12 -94 91 0
-12 94 -90 -91 0
-32 -94 90 0
-32 94 -90 0
-7 -95 91 0
-7 95 -91 0
-8 -95 91 0
-8 95 -91 0
-9 -91 95 0
-9 -88 95 0
-9 -95 91 88 0
-10 -95 91 0
-10 95 -91 0
-11 -91 95 0
-11 -89 95 0
-11 -95 91 89 0
-12 -91 95 0
-12 -90 95 0
-12 -95 91 90 0
-32 -95 91 0
-32 95 -91 0
-13 -96 92 0
-13 -96 93 0
-13 96 -92 -93 0
-14 -96 92 0
-14 -96 94 0
-14 96 -92 -94 0
-15 -96 92 0
-15 -96 95 0
-15 96 -92 -95 0
-16 -96 92 0
-16 96 -92 0
-17 -96 92 0
-17 96 -92 0
-18 -96 92 0
-18 96 -92 0
-33 -96 92 0
-33 96 -92 0
-13 -93 97 0
-13 -92 97 0
-13 -97 93 92 0
-14 -97 93 0
-14 97 -93 0
-15 -97 93 0
-15 97 -93 0
-16 -97 93 0
-16 -97 94 0
-16 97 -93 -94 0
-17 -97 93 0
-17 -97 95 0
-17 97 -93 -95 0
-18 -97 93 0
-18 97 -93 0
-33 -97 93 0
-33 97 -93 0
-13 -98 94 0
-13 98 -94 0
-14 -94 98 0
-14 -92 98 0
-14 -98 94 92 0
-15 -98 94 0
-15 98 -94 0
-16 -94 98 0
-16 -93 98 0
-16 -98 94 93 0
-17 -98 94 0
-17 98 -94 0
-18 -98 94 0
-18 -98 95 0
-18 98 -94 -95 0
-33 -98 94 0
-33 98 -94 0
-13 -99 95 0
-13 99 -95 0
-14 -99 95 0
-14 99 -95 0
-15 -95 99 0
-15 -92 99 0
-15 -99 95 92 0
-16 -99 95 0
-16 99 -95 0
-17 -95 99 0
-17 -93 99 0
-17 -99 95 93 0
-18 -95 99 0
-18 -94 99 0
-18 -99 95 94 0
-33 -99 95 0
-33 99 -95 0
-19 -100 96 0
-19 -100 97 0
-19 100 -96 -97 0
-20 -100 96 0
-20 -100 98 0
-20 100 -96 -98 0
-21 -100 96 0
-21 -100 99 0
-21 100 -96 -99 0
-22 -100 96 0
-22 100 -96 0
-23 -100 96 0
-23 100 -96 0
-24 -100 96 0
-24 100 -96 0
-34 -100 96 0
-34 100 -96 0
-19 -97 101 0
-19 -96 101 0
-19 -101 97 96 0
-20 -101 97 0
-20 101 -97 0
-21 -101 97 0
-21 101 -97 0
-22 -101 97 0
-22 -101 98 0
-22 101 -97 -98 0
-23 -101 97 0
-23 -101 99 0
-23 101 -97 -99 0
-24 -101 97 0
-24 101 -97 0
-34 -101 97 0
-34 101 -97 0
-19 -102 98 0
-19 102 -98 0
-20 -98 102 0
-20 -96 102 0
-20 -102 98 96 0
-21 -102 98 0
-21 102 -98 0
-22 -98 102 0
-22 -97 102 0
-22 -102 98 97 0
-23 -102 98 0
-23 102 -98 0
-24 -102 98 0
-24 -102 99 0
-24 102 -98 -99 0
-34 -102 98 0
-34 102 -98 0
-19 -103 99 0
-19 103 -99 0
-20 -103 99 0
-20 103 -99 0
-21 -99 103 0
-21 -96 103 0
-21 -103 99 96 0
-22 -103 99 0
-22 103 -99 0
-23 -99 103 0
-23 -97 103 0
-23 -103 99 97 0
-24 -99 103 0
-24 -98 103 0
-24 -103 99 98 0
-34 -103 99 0
-34 103 -99 0
-25 -104 100 0
-25 -104 101 0
-25 104 -100 -101 0
-26 -104 100 0
-26 -104 102 0
-26 104 -100 -102 0
-27 -104 100 0
-27 -104 103 0
-27 104 -100 -103 0
-28 -104 100 0
-28 104 -100 0
-29 -104 100 0
-29 104 -100 0
-30 -104 100 0
-30 104 -100 0
-35 -104 100 0
-35 104 -100 0
-25 -101 105 0
-25 -100 105 0
-25 -105 101 100 0
-26 -105 101 0
-26 105 -101 0
-27 -105 101 0
-27 105 -101 0
-28 -105 101 0
-28 -105 102 0
-28 105 -101 -102 0
-29 -105 101 0
-29 -105 103 0
-29 105 -101 -103 0
-30 -105 101 0
-30 105 -101 0
-35 -105 101 0
-35 105 -101 0
-25 -106 102 0
-25 106 -102 0
-26 -102 106 0
-26 -100 106 0
-26 -106 102 100 0
-27 -106 102 0
-27 106 -102 0
-28 -102 106 0
-28 -101 106 0
-28 -106 102 101 0
-29 -106 102 0
-29 106 -102 0
-30 -106 102 0
-30 -106 103 0
-30 106 -102 -103 0
-35 -106 102 0
-35 106 -102 0
-25 -107 103 0
-25 107 -103 0
-26 -107 103 0
-26 107 -103 0
-27 -103 107 0
-27 -100 107 0
-27 -107 103 100 0
-28 -107 103 0
-28 107 -103 0
-29 -103 107 0
-29 -101 107 0
-29 -107 103 101 0
-30 -103 107 0
-30 -102 107 0
-30 -107 103 102 0
-35 -107 103 0
-35 107 -103 0
-108 0
-1 -112 108 0
-1 -112 109 0
-1 112 -108 -109 0
-2 -112 108 0
-2 -112 110 0
-2 112 -108 -110 0
-3 -112 108 0
-3 -112 111 0
-3 112 -108 -111 0
-4 -112 108 0
-4 112 -108 0
-5 -112 108 0
-5 112 -108 0
-6 -112 108 0
-6 112 -108 0
-31 -112 108 0
-31 112 -108 0
109 0
-1 -109 113 0
-1 -108 113 0
-1 -113 109 108 0
-2 -113 109 0
-2 113 -109 0
-3 -113 109 0
-3 113 -109 0
-4 -113 109 0
-4 -113 110 0
-4 113 -109 -110 0
-5 -113 109 0
-5 -113 111 0
-5 113 -109 -111 0
-6 -113 109 0
-6 113 -109 0
-31 -113 109 0
-31 113 -109 0
110 0
-1 -114 110 0
-1 114 -110 0
-2 -110 114 0
-2 -108 114 0
-2 -114 110 108 0
-3 -114 110 0
-3 114 -110 0
-4 -110 114 0
-4 -109 114 0
-4 -114 110 109 0
-5 -114 110 0
-5 114 -110 0
-6 -114 110 0
-6 -114 111 0
-6 114 -110 -111 0
-31 -114 110 0
-31 114 -110 0
-111 0
-1 -115 111 0
-1 115 -111 0
-2 -115 111 0
-2 115 -111 0
-3 -111 115 0
-3 -108 115 0
-3 -115 111 108 0
-4 -115 111 0
-4 115 -111 0
-5 -111 115 0
-5 -109 115 0
-5 -115 111 109 0
-6 -111 115 0
-6 -110 115 0
-6 -115 111 110 0
-31 -115 111 0
-31 115 -111 0
-7 -116 112 0
-7 -116 113 0
-7 116 -112 -113 0
-8 -116 112 0
-8 -116 114 0
-8 116 -112 -114 0
-9 -116 112 0
-9 -116 115 0
-9 116 -112 -115 0
-10 -116 112 0
-10 116 -112 0
-11 -116 112 0
-11 116 -112 0
-12 -116 112 0
-12 116 -112 0
-32 -116 112 0
-32 116 -112 0
-7 -113 117 0
-7 -112 117 0
-7 -117 113 112 0
-8 -117 113 0
-8 117 -113 0
-9 -117 113 0
-9 117 -113 0
-10 -117 113 0
-10 -117 114 0
-10 117 -113 -114 0
-11 -117 113 0
-11 -117 115 0
-11 117 -113 -115 0
-12 -117 113 0
-12 117 -113 0
-32 -117 113 0
-32 117 -113 0
-7 -118 114 0
-7 118 -114 0
-8 -114 118 0
-8 -112 118 0
-8 -118 114 112 0
-9 -118 114 0
-9 118 -114 0
-10 -114 118 0
-10 -113 118 0
-10 -118 114 113 0
-11 -118 114 0
-11 118 -114 0
-12 -118 114 0
-12 -118 115 0
-12 118 -114 -115 0
-32 -118 114 0
-32 118 -114 0
-7 -119 115 0
-7 119 -115 0
-8 -119 115 0
-8 119 -115 0
-9 -115 119 0
-9 -112 119 0
-9 -119 115 112 0
-10 -119 115 0
-10 119 -115 0
-11 -115 119 0
-11 -113 119 0
-11 -119 115 113 0
-12 -115 119 0
-12 -114 119 0
-12 -119 115 114 0
-32 -119 115 0
-32 119 -115 0
-13 -120 116 0
-13 -120 117 0
-13 120 -116 -117 0
-14 -120 116 0
-14 -120 118 0
-14 120 -116 -118 0
-15 -120 116 0
-15 -120 119 0
-15 120 -116 -119 0
-16 -120 116 0
-16 120 -116 0
-17 -120 116 0
-17 120 -116 0
-18 -120 116 0
-18 120 -116 0
-33 -120 116 0
-33 120 -116 0
-13 -117 121 0
-13 -116 121 0
-13 -121 117 116 0
-14 -121 117 0
-14 121 -117 0
-15 -121 117 0
-15 121 -117 0
-16 -121 117 0
-16 -121 118 0
-16 121 -117 -118 0
-17 -121 117 0
-17 -121 119 0
-17 121 -117 -119 0
-18 -121 117 0
-18 121 -117 0
-33 -121 117 0
-33 121 -117 0
-13 -122 118 0
-13 122 -118 0
-14 -118 122 0
-14 -116 122 0
-14 -122 118 116 0
-15 -122 118 0
-15 122 -118 0
-16 -118 122 0
-16 -117 122 0
-16 -122 118 117 0
-17 -122 118 0
-17 122 -118 0
-18 -122 118 0
-18 -122 119 0
-18 122 -118 -119 0
-33 -122 118 0
-33 122 -118 0
-13 -123 119 0
-13 123 -119 0
-14 -123 119 0
-14 123 -119 0
-15 -119 123 0
-15 -116 123 0
-15 -123 119 116 0
-16 -123 119 0
-16 123 -119 0
-17 -119 123 0
-17 -117 123 0
-17 -123 119 117 0
-18 -119 123 0
-18 -118 123 0
-18 -123 119 118 0
-33 -123 119 0
-33 123 -119 0
-19 -124 120 0
-19 -124 121 0
-19 124 -120 -121 0
-20 -124 120 0
-20 -124 122 0
-20 124 -120 -122 0
-21 -124 120 0
-21 -124 123 0
-21 124 -120 -123 0
-22 -124 120 0
-22 124 -120 0
-23 -124 120 0
-23 124 -120 0
-24 -124 120 0
-24 124 -120 0
-34 -124 120 0
-34 124 -120 0
-19 -121 125 0
-19 -120 125 0
-19 -125 121 120 0
-20 -125 121 0
-20 125 -121 0
-21 -125 121 0
-21 125 -121 0
-22 -125 121 0
-22 -125 122 0
-22 125 -121 -122 0
-23 -125 121 0
-23 -125 123 0
-23 125 -121 -123 0
-24 -125 121 0
-24 125 -121 0
-34 -125 121 0
-34 125 -121 0
-19 -126 122 0
-19 126 -122 0
-20 -122 126 0
-20 -120 126 0
-20 -126 122 120 0
-21 -126 122 0
-21 126 -122 0
-22 -122 126 0
-22 -121 126 0
-22 -126 122 121 0
-23 -126 122 0
-23 126 -122 0
-24 -126 122 0
-24 -126 123 0
-24 126 -122 -123 0
-34 -126 122 0
-34 126 -122 0
-19 -127 123 0
-19 127 -123 0
-20 -127 123 0
-20 127 -123 0
-21 -123 127 0
-21 -120 127 0
-21 -127 123 120 0
-22 -127 123 0
-22 127 -123 0
-23 -123 127 0
-23 -121 127 0
-23 -127 123 121 0
-24 -123 127 0
-24 -122 127 0
-24 -127 123 122 0
-34 -127 123 0
-34 127 -123 0
-25 -128 124 0
-25 -128 125 0
-25 128 -124 -125 0
-26 -128 124 0
-26 -128 126 0
-26 128 -124 -126 0
-27 -128 124 0
-27 -128 127 0
-27 128 -124 -127 0
-28 -128 124 0
-28 128 -124 0
-29 -128 124 0
-29 128 -124 0
-30 -128 124 0
-30 128 -124 0
-35 -128 124 0
-35 128 -124 0
-25 -125 129 0
-25 -124 129 0
-25 -129 125 124 0
-26 -129 125 0
-26 129 -125 0
-27 -129 125 0
-27 129 -125 0
-28 -129 125 0
-28 -129 126 0
-28 129 -125 -126 0
-29 -129 125 0
-29 -129 127 0
-29 129 -125 -127 0
-30 -129 125 0
-30 129 -125 0
-35 -129 125 0
-35 129 -125 0
-25 -130 126 0
-25 130 -126 0
-26 -126 130 0
-26 -124 130 0
-26 -130 126 124 0
-27 -130 126 0
-27 130 -126 0
-28 -126 130 0
-28 -125 130 0
-28 -130 126 125 0
-29 -130 126 0
-29 130 -126 0
-30 -130 126 0
-30 -130 127 0
-30 130 -126 -127 0
-35 -130 126 0
-35 130 -126 0
-25 -131 127 0
-25 131 -127 0
-26 -131 127 0
-26 131 -127 0
-27 -127 131 0
-27 -124 131 0
-27 -131 127 124 0
-28 -131 127 0
-28 131 -127 0
-29 -127 131 0
-29 -125 131 0
-29 -131 127 125 0
-30 -127 131 0
-30 -126 131 0
-30 -131 127 126 0
-35 -131 127 0
-35 131 -127 0
132 0
-1 -136 132 0
-1 -136 133 0
-1 136 -132 -133 0
-2 -136 132 0
-2 -136 134 0
-2 136 -132 -134 0
-3 -136 132 0
-3 -136 135 0
-3 136 -132 -135 0
-4 -136 132 0
-4 136 -132 0
-5 -136 132 0
-5 136 -132 0
-6 -136 132 0
-6 136 -132 0
-31 -136 132 0
-31 136 -132 0
-133 0
-1 -133 137 0
-1 -132 137 0
-1 -137 133 132 0
-2 -137 133 0
-2 137 -133 0
-3 -137 133 0
-3 137 -133 0
-4 -137 133 0
-4 -137 134 0
-4 137 -133 -134 0
-5 -137 133 0
-5 -137 135 0
-5 137 -133 -135 0
-6 -137 133 0
-6 137 -133 0
-31 -137 133 0
-31 137 -133 0
-134 0
-1 -138 134 0
-1 138 -134 0
-2 -134 138 0
-2 -132 138 0
-2 -138 134 132 0
-3 -138 134 0
-3 138 -134 0
-4 -134 138 0
-4 -133 138 0
-4 -138 134 133 0
-5 -138 134 0
-5 138 -134 0
-6 -138 134 0
-6 -138 135 0
-6 138 -134 -135 0
-31 -138 134 0
-31 138 -134 0
-135 0
-1 -139 135 0
-1 139 -135 0
-2 -139 135 0
-2 139 -135 0
-3 -135 139 0
-3 -132 139 0
-3 -139 135 132 0
-4 -139 135 0
-4 139 -135 0
-5 -135 139 0
-5 -133 139 0
-5 -139 135 133 0
-6 -135 139 0
-6 -134 139 0
-6 -139 135 134 0
-31 -139 135 0
-31 139 -135 0
-7 -140 136 0
-7 -140 137 0
-7 140 -136 -137 0
-8 -140 136 0
-8 -140 138 0
-8 140 -136 -138 0
-9 -140 136 0
-9 -140 139 0
-9 140 -136 -139 0
-10 -140 136 0
-10 140 -136 0
-11 -140 136 0
-11 140 -136 0
-12 -140 136 0
-12 140 -136 0
-32 -140 136 0
-32 140 -136 0
-7 -137 141 0
-7 -136 141 0
-7 -141 137 136 0
-8 -141 137 0
-8 141 -137 0
-9 -141 137 0
-9 141 -137 0
-10 -141 137 0
-10 -141 138 0
-10 141 -137 -138 0
-11 -141 137 0
-11 -141 139 0
-11 141 -137 -139 0
-12 -141 137 0
-12 141 -137 0
-32 -141 137 0
-32 141 -137 0
-7 -142 138 0
-7 142 -138 0
-8 -138 142 0
-8 -136 142 0
-8 -142 138 136 0
-9 -142 138 0
-9 142 -138 0
-10 -138 142 0
-10 -137 142 0
-10 -142 138 137 0
-11 -142 138 0
-11 142 -138 0
-12 -142 138 0
-12 -142 139 0
-12 142 -138 -139 0
-32 -142 138 0
-32 142 -138 0
-7 -143 139 0
-7 143 -139 0
-8 -143 139 0
-8 143 -139 0
-9 -139 143 0
-9 -136 143 0
-9 -143 139 136 0
-10 -143 139 0
-10 143 -139 0
-11 -139 143 0
-11 -137 143 0
-11 -143 139 137 0
-12 -139 143 0
-12 -138 143 0
-12 -143 139 138 0
-32 -143 139 0
-32 143 -139 0
-13 -144 140 0
-13 -144 141 0
-13 144 -140 -141 0
-14 -144 140 0
-14 -144 142 0
-14 144 -140 -142 0
-15 -144 140 0
-15 -144 143 0
-15 144 -140 -143 0
-16 -144 140 0
-16 144 -140 0
-17 -144 140 0
-17 144 -140 0
-18 -144 140 0
-18 144 -140 0
-33 -144 140 0
-33 144 -140 0
-13 -141 145 0
-13 -140 145 0
-13 -145 141 140 0
-14 -145 141 0
-14 145 -141 0
-15 -145 141 0
-15 145 -141 0
-16 -145 141 0
-16 -145 142 0
-16 145 -141 -142 0
-17 -145 141 0
-17 -145 143 0
-17 145 -141 -143 0
-18 -145 141 0
-18 145 -141 0
-33 -145 141 0
-33 145 -141 0
-13 -146 142 0
-13 146 -142 0
-14 -142 146 0
-14 -140 146 0
-14 -146 142 140 0
-15 -146 142 0
-15 146 -142 0
-16 -142 146 0
-16 -141 146 0
-16 -146 142 141 0
-17 -146 142 0
-17 146 -142 0
-18 -146 142 0
-18 -146 143 0
-18 146 -142 -143 0
-33 -146 142 0
-33 146 -142 0
-13 -147 143 0
-13 147 -143 0
-14 -147 143 0
-14 147 -143 0
-15 -143 147 0
-15 -140 147 0
-15 -147 143 140 0
-16 -147 143 0
-16 147 -143 0
-17 -143 147 0
-17 -141 147 0
-17 -147 143 141 0
-18 -143 147 0
-18 -142 147 0
-18 -147 143 142 0
-33 -147 143 0
-33 147 -143 0
-19 -148 144 0
-19 -148 145 0
-19 148 -144 -145 0
-20 -148 144 0
-20 -148 146 0
-20 148 -144 -146 0
-21 -148 144 0
-21 -148 147 0
-21 148 -144 -147 0
-22 -148 144 0
-22 148 -144 0
-23 -148 144 0
-23 148 -144 0
-24 -148 144 0
-24 148 -144 0
-34 -148 144 0
-34 148 -144 0
-19 -145 149 0
-19 -144 149 0
-19 -149 145 144 0
-20 -149 145 0
-20 149 -145 0
-21 -149 145 0
-21 149 -145 0
-22 -149 145 0
-22 -149 146 0
-22 149 -145 -146 0
-23 -149 145 0
-23 -149 147 0
-23 149 -145 -147 0
-24 -149 145 0
-24 149 -145 0
-34 -149 145 0
-34 149 -145 0
-19 -150 146 0
-19 150 -146 0
-20 -146 150 0
-20 -144 150 0
-20 -150 146 144 0
-21 -150 146 0
-21 150 -146 0
-22 -146 150 0
-22 -145 150 0
-22 -150 146 145 0
-23 -150 146 0
-23 150 -146 0
-24 -150 146 0
-24 -150 147 0
-24 150 -146 -147 0
-34 -150 146 0
-34 150 -146 0
-19 -151 147 0
-19 151 -147 0
-20 -151 147 0
-20 151 -147 0
-21 -147 151 0
-21 -144 151 0
-21 -151 147 144 0
-22 -151 147 0
-22 151 -147 0
-23 -147 151 0
-23 -145 151 0
-23 -151 147 145 0
-24 -147 151 0
-24 -146 151 0
-24 -151 147 146 0
-34 -151 147 0
-34 151 -147 0
-25 -152 148 0
-25 -152 149 0
-25 152 -148 -149 0
-26 -152 148 0
-26 -152 150 0
-26 152 -148 -150 0
-27 -152 148 0
-27 -152 151 0
-27 152 -148 -151 0
-28 -152 148 0
-28 152 -148 0
-29 -152 148 0
-29 152 -148 0
-30 -152 148 0
-30 152 -148 0
-35 -152 148 0
-35 152 -148 0
-25 -149 153 0
-25 -148 153 0
-25 -153 149 148 0
-26 -153 149 0
-26 153 -149 0
-27 -153 149 0
-27 153 -149 0
-28 -153 149 0
-28 -153 150 0
-28 153 -149 -150 0
-29 -153 149 0
-29 -153 151 0
-29 153 -149 -151 0
-30 -153 149 0
-30 153 -149 0
-35 -153 149 0
-35 153 -149 0
-25 -154 150 0
-25 154 -150 0
-26 -150 154 0
-26 -148 154 0
-26 -154 150 148 0
-27 -154 150 0
-27 154 -150 0
-28 -150 154 0
-28 -149 154 0
-28 -154 150 149 0
-29 -154 150 0
-29 154 -150 0
-30 -154 150 0
-30 -154 151 0
-30 154 -150 -151 0
-35 -154 150 0
-35 154 -150 0
-25 -155 151 0
-25 155 -151 0
-26 -155 151 0
-26 155 -151 0
-27 -151 155 0
-27 -148 155 0
-27 -155 151 148 0
-28 -155 151 0
-28 155 -151 0
-29 -151 155 0
-29 -149 155 0
-29 -155 151 149 0
-30 -151 155 0
-30 -150 155 0
-30 -155 151 150 0
-35 -155 151 0
-35 155 -151 0
156 0
-1 -160 156 0
-1 -160 157 0
-1 160 -156 -157 0
-2 -160 156 0
-2 -160 158 0
-2 160 -156 -158 0
-3 -160 156 0
-3 -160 159 0
-3 160 -156 -159 0
-4 -160 156 0
-4 160 -156 0
-5 -160 156 0
-5 160 -156 0
-6 -160 156 0
-6 160 -156 0
-31 -160 156 0
-31 160 -156 0
-157 0
-1 -157 161 0
-1 -156 161 0
-1 -161 157 156 0
-2 -161 157 0
-2 161 -157 0
-3 -161 157 0
-3 161 -157 0
-4 -161 157 0
-4 -161 158 0
-4 161 -157 -158 0
-5 -161 157 0
-5 -161 159 0
-5 161 -157 -159 0
-6 -161 157 0
-6 161 -157 0
-31 -161 157 0
-31 161 -157 0
-158 0
-1 -162 158 0
-1 162 -158 0
-2 -158 162 0
-2 -156 162 0
-2 -162 158 156 0
-3 -162 158 0
-3 162 -158 0
-4 -158 162 0
-4 -157 162 0
-4 -162 158 157 0
-5 -162 158 0
-5 162 -158 0
-6 -162 158 0
-6 -162 159 0
-6 162 -158 -159 0
-31 -162 158 0
-31 162 -158 0
159 0
-1 -163 159 0
-1 163 -159 0
-2 -163 159 0
-2 163 -159 0
-3 -159 163 0
-3 -156 163 0
-3 -163 159 156 0
-4 -163 159 0
-4 163 -159 0
-5 -159 163 0
-5 -157 163 0
-5 -163 159 157 0
-6 -159 163 0
-6 -158 163 0
-6 -163 159 158 0
-31 -163 159 0
-31 163 -159 0
-7 -164 160 0
-7 -164 161 0
-7 164 -160 -161 0
-8 -164 160 0
-8 -164 162 0
-8 164 -160 -162 0
-9 -164 160 0
-9 -164 163 0
-9 164 -160 -163 0
-10 -164 160 0
-10 164 -160 0
-11 -164 160 0
-11 164 -160 0
-12 -164 160 0
-12 164 -160 0
-32 -164 160 0
-32 164 -160 0
-7 -161 165 0
-7 -160 165 0
-7 -165 161 160 0
-8 -165 161 0
-8 165 -161 0
-9 -165 161 0
-9 165 -161 0
-10 -165 161 0
-10 -165 162 0
-10 165 -161 -162 0
-11 -165 161 0
-11 -165 163 0
-11 165 -161 -163 0
-12 -165 161 0
-12 165 -161 0
-32 -165 161 0
-32 165 -161 0
-7 -166 162 0
-7 166 -162 0
-8 -162 166 0
-8 -160 166 0
-8 -166 162 160 0
-9 -166 162 0
-9 166 -162 0
-10 -162 166 0
-10 -161 166 0
-10 -166 162 161 0
-11 -166 162 0
-11 166 -162 0
-12 -166 162 0
-12 -166 163 0
-12 166 -162 -163 0
-32 -166 162 0
-32 166 -162 0
-7 -167 163 0
-7 167 -163 0
-8 -167 163 0
-8 167 -163 0
-9 -163 167 0
-9 -160 167 0
-9 -167 163 160 0
-10 -167 163 0
-10 167 -163 0
-11 -163 167 0
-11 -161 167 0
-11 -167 163 161 0
-12 -163 167 0
-12 -162 167 0
-12 -167 163 162 0
-32 -167 163 0
-32 167 -163 0
-13 -168 164 0
-13 -168 165 0
-13 168 -164 -165 0
-14 -168 164 0
-14 -168 166 0
-14 168 -164 -166 0
-15 -168 164 0
-15 -168 167 0
-15 168 -164 -167 0
-16 -168 164 0
-16 168 -164 0
-17 -168 164 0
-17 168 -164 0
-18 -168 164 0
-18 168 -164 0
-33 -168 164 0
-33 168 -164 0
-13 -165 169 0
-13 -164 169 0
-13 -169 165 164 0
-14 -169 165 0
-14 169 -165 0
-15 -169 165 0
-15 169 -165 0
-16 -169 165 0
-16 -169 166 0
-16 169 -165 -166 0
-17 -169 165 0
-17 -169 167 0
-17 169 -165 -167 0
-18 -169 165 0
-18 169 -165 0
-33 -169 165 0
-33 169 -165 0
-13 -170 166 0
-13 170 -166 0
-14 -166 170 0
-14 -164 170 0
-14 -170 166 164 0
-15 -170 166 0
-15 170 -166 0
-16 -166 170 0
-16 -165 170 0
-16 -170 166 165 0
-17 -170 166 0
-17 170 -166 0
-18 -170 166 0
-18 -170 167 0
-18 170 -166 -167 0
-33 -170 166 0
-33 170 -166 0
-13 -171 167 0
-13 171 -167 0
-14 -171 167 0
-14 171 -167 0
-15 -167 171 0
-15 -164 171 0
-15 -171 167 164 0
-16 -171 167 0
-16 171 -167 0
-17 -167 171 0
-17 -165 171 0
-17 -171 167 165 0
-18 -167 171 0
-18 -166 171 0
-18 -171 167 166 0
-33 -171 167 0
-33 171 -167 0
-19 -172 168 0
-19 -172 169 0
-19 172 -168 -169 0
-20 -172 168 0
-20 -172 170 0
-20 172 -168 -170 0
-21 -172 168 0
-21 -172 171 0
-21 172 -168 -171 0
-22 -172 168 0
-22 172 -168 0
-23 -172 168 0
-23 172 -168 0
-24 -172 168 0
-24 172 -168 0
-34 -172 168 0
-34 172 -168 0
-19 -169 173 0
-19 -168 173 0
-19 -173 169 168 0
-20 -173 169 0
-20 173 -169 0
-21 -173 169 0
-21 173 -169 0
-22 -173 169 0
-22 -173 170 0
-22 173 -169 -170 0
-23 -173 169 0
-23 -173 171 0
-23 173 -169 -171 0
-24 -173 169 0
-24 173 -169 0
-34 -173 169 0
-34 173 -169 0
-19 -174 170 0
-19 174 -170 0
-20 -170 174 0
-20 -168 174 0
-20 -174 170 168 0
-21 -174 170 0
-21 174 -170 0
-22 -170 174 0
-22 -169 174 0
-22 -174 170 169 0
-23 -174 170 0
-23 174 -170 0
-24 -174 170 0
-24 -174 171 0
-24 174 -170 -171 0
-34 -174 170 0
-34 174 -170 0
-19 -175 171 0
-19 175 -171 0
-20 -175 171 0
-20 175 -171 0
-21 -171 175 0
-21 -168 175 0
-21 -175 171 168 0
-22 -175 171 0
-22 175 -171 0
-23 -171 175 0
-23 -169 175 0
-23 -175 171 169 0
-24 -171 175 0
-24 -170 175 0
-24 -175 171 170 0
-34 -175 171 0
-34 175 -171 0
-25 -176 172 0
-25 -176 173 0
-25 176 -172 -173 0
-26 -176 172 0
-26 -176 174 0
-26 176 -172 -174 0
-27 -176 172 0
-27 -176 175 0
-27 176 -172 -175 0
-28 -176 172 0
-28 176 -172 0
-29 -176 172 0
-29 176 -172 0
-30 -176 172 0
-30 176 -172 0
-35 -176 172 0
-35 176 -172 0
-25 -173 177 0
-25 -172 177 0
-25 -177 173 172 0
-26 -177 173 0
-26 177 -173 0
-27 -177 173 0
-27 177 -173 0
-28 -177 173 0
-28 -177 174 0
-28 177 -173 -174 0
-29 -177 173 0
-29 -177 175 0
-29 177 -173 -175 0
-30 -177 173 0
-30 177 -173 0
-35 -177 173 0
-35 177 -173 0
-25 -178 174 0
-25 178 -174 0
-26 -174 178 0
-26 -172 178 0
-26 -178 174 172 0
-27 -178 174 0
-27 178 -174 0
-28 -174 178 0
-28 -173 178 0
-28 -178 174 173 0
-29 -178 174 0
-29 178 -174 0
-30 -178 174 0
-30 -178 175 0
-30 178 -174 -175 0
-35 -178 174 0
-35 178 -174 0
-25 -179 175 0
-25 179 -175 0
-26 -179 175 0
-26 179 -175 0
-27 -175 179 0
-27 -172 179 0
-27 -179 175 172 0
-28 -179 175 0
-28 179 -175 0
-29 -175 179 0
-29 -173 179 0
-29 -179 175 173 0
-30 -175 179 0
-30 -174 179 0
-30 -179 175 174 0
-35 -179 175 0
-35 179 -175 0
180 0
-1 -184 180 0
-1 -184 181 0
-1 184 -180 -181 0
-2 -184 180 0
-2 -184 182 0
-2 184 -180 -182 0
-3 -184 180 0
-3 -184 183 0
-3 184 -180 -183 0
-4 -184 180 0
-4 184 -180 0
-5 -184 180 0
-5 184 -180 0
-6 -184 180 0
-6 184 -180 0
-31 -184 180 0
-31 184 -180 0
-181 0
-1 -181 185 0
-1 -180 185 0
-1 -185 181 180 0
-2 -185 181 0
-2 185 -181 0
-3 -185 181 0
-3 185 -181 0
-4 -185 181 0
-4 -185 182 0
-4 185 -181 -182 0
-5 -185 181 0
-5 -185 183 0
-5 185 -181 -183 0
-6 -185 181 0
-6 185 -181 0
-31 -185 181 0
-31 185 -181 0
182 0
-1 -186 182 0
-1 186 -182 0
-2 -182 186 0
-2 -180 186 0
-2 -186 182 180 0
-3 -186 182 0
-3 186 -182 0
-4 -182 186 0
-4 -181 186 0
-4 -186 182 181 0
-5 -186 182 0
-5 186 -182 0
-6 -186 182 0
-6 -186 183 0
-6 186 -182 -183 0
-31 -186 182 0
-31 186 -182 0
-183 0
-1 -187 183 0
-1 187 -183 0
-2 -187 183 0
-2 187 -183 0
-3 -183 187 0
-3 -180 187 0
-3 -187 183 180 0
-4 -187 183 0
-4 187 -183 0
-5 -183 187 0
-5 -181 187 0
-5 -187 183 181 0
-6 -183 187 0
-6 -182 187 0
-6 -187 183 182 0
-31 -187 183 0
-31 187 -183 0
-7 -188 184 0
-7 -188 185 0
-7 188 -184 -185 0
-8 -188 184 0
-8 -188 186 0
-8 188 -184 -186 0
-9 -188 184 0
-9 -188 187 0
-9 188 -184 -187 0
-10 -188 184 0
-10 188 -184 0
-11 -188 184 0
-11 188 -184 0
-12 -188 184 0
-12 188 -184 0
-32 -188 184 0
-32 188 -184 0
-7 -185 189 0
-7 -184 189 0
-7 -189 185 184 0
-8 -189 185 0
-8 189 -185 0
-9 -189 185 0
-9 189 -185 0
-10 -189 185 0
-10 -189 186 0
-10 189 -185 -186 0
-11 -189 185 0
-11 -189 187 0
-11 189 -185 -187 0
-12 -189 185 0
-12 189 -185 0
-32 -189 185 0
-32 189 -185 0
-7 -190 186 0
-7 190 -186 0
-8 -186 190 0
-8 -184 190 0
-8 -190 186 184 0
-9 -190 186 0
-9 190 -186 0
-10 -186 190 0
-10 -185 190 0
-10 -190 186 185 0
-11 -190 186 0
-11 190 -186 0
-12 -190 186 0
-12 -190 187 0
-12 190 -186 -187 0
-32 -190 186 0
-32 190 -186 0
-7 -191 187 0
-7 191 -187 0
-8 -191 187 0
-8 191 -187 0
-9 -187 191 0
-9 -184 191 0
-9 -191 187 184 0
-10 -191 187 0
-10 191 -187 0
-11 -187 191 0
-11 -185 191 0
-11 -191 187 185 0
-12 -187 191 0
-12 -186 191 0
-12 -191 187 186 0
-32 -191 187 0
-32 191 -187 0
-13 -192 188 0
-13 -192 189 0
-13 192 -188 -189 0
-14 -192 188 0
-14 -192 190 0
-14 192 -188 -190 0
-15 -192 188 0
-15 -192 191 0
-15 192 -188 -191 0
-16 -192 188 0
-16 192 -188 0
-17 -192 188 0
-17 192 -188 0
-18 -192 188 0
-18 192 -188 0
-33 -192 188 0
-33 192 -188 0
-13 -189 193 0
-13 -188 193 0
-13 -193 189 188 0
-14 -193 189 0
-14 193 -189 0
-15 -193 189 0
-15 193 -189 0
-16 -193 189 0
-16 -193 190 0
-16 193 -189 -190 0
-17 -193 189 0
-17 -193 191 0
-17 193 -189 -191 0
-18 -193 189 0
-18 193 -189 0
-33 -193 189 0
-33 193 -189 0
-13 -194 190 0
-13 194 -190 0
-14 -190 194 0
-14 -188 194 0
-14 -194 190 188 0
-15 -194 190 0
-15 194 -190 0
-16 -190 194 0
-16 -189 194 0
-16 -194 190 189 0
-17 -194 190 0
-17 194 -190 0
-18 -194 190 0
-18 -194 191 0
-18 194 -190 -191 0
-33 -194 190 0
-33 194 -190 0
-13 -195 191 0
-13 195 -191 0
-14 -195 191 0
-14 195 -191 0
-15 -191 195 0
-15 -188 195 0
-15 -195 191 188 0
-16 -195 191 0
-16 195 -191 0
-17 -191 195 0
-17 -189 195 0
-17 -195 191 189 0
-18 -191 195 0
-18 -190 195 0
-18 -195 191 190 0
-33 -195 191 0
-33 195 -191 0
-19 -196 192 0
-19 -196 193 0
-19 196 -192 -193 0
-20 -196 192 0
-20 -196 194 0
-20 196 -192 -194 0
-21 -196 192 0
-21 -196 195 0
-21 196 -192 -195 0
-22 -196 192 0
-22 196 -192 0
-23 -196 192 0
-23 196 -192 0
-24 -196 192 0
-24 196 -192 0
-34 -196 192 0
-34 196 -192 0
-19 -193 197 0
-19 -192 197 0
-19 -197 193 192 0
-20 -197 193 0
-20 197 -193 0
-21 -197 193 0
-21 197 -193 0
-22 -197 193 0
-22 -197 194 0
-22 197 -193 -194 0
-23 -197 193 0
-23 -197 195 0
-23 197 -193 -195 0
-24 -197 193 0
-24 197 -193 0
-34 -197 193 0
-34 197 -193 0
-19 -198 194 0
-19 198 -194 0
-20 -194 198 0
-20 -192 198 0
-20 -198 194 192 0
-21 -198 194 0
-21 198 -194 0
-22 -194 198 0
-22 -193 198 0
-22 -198 194 193 0
-23 -198 194 0
-23 198 -194 0
-24 -198 194 0
-24 -198 195 0
-24 198 -194 -195 0
-34 -198 194 0
-34 198 -194 0
-19 -199 195 0
-19 199 -195 0
-20 -199 195 0
-20 199 -195 0
-21 -195 199 0
-21 -192 199 0
-21 -199 195 192 0
-22 -199 195 0
-22 199 -195 0
-23 -195 199 0
-23 -193 199 0
-23 -199 195 193 0
-24 -195 199 0
-24 -194 199 0
-24 -199 195 194 0
-34 -199 195 0
-34 199 -195 0
-25 -200 196 0
-25 -200 197 0
-25 200 -196 -197 0
-26 -200 196 0
-26 -200 198 0
-26 200 -196 -198 0
-27 -200 196 0
-27 -200 199 0
-27 200 -196 -199 0
-28 -200 196 0
-28 200 -196 0
-29 -200 196 0
-29 200 -196 0
-30 -200 196 0
-30 200 -196 0
-35 -200 196 0
-35 200 -196 0
-25 -197 201 0
-25 -196 201 0
-25 -201 197 196 0
-26 -201 197 0
-26 201 -197 0
-27 -201 197 0
-27 201 -197 0
-28 -201 197 0
-28 -201 198 0
-28 201 -197 -198 0
-29 -201 197 0
-29 -201 199 0
-29 201 -197 -199 0
-30 -201 197 0
-30 201 -197 0
-35 -201 197 0
-35 201 -197 0
-25 -202 198 0
-25 202 -198 0
-26 -198 202 0
-26 -196 202 0
-26 -202 198 196 0
-27 -202 198 0
-27 202 -198 0
-28 -198 202 0
-28 -197 202 0
-28 -202 198 197 0
-29 -202 198 0
-29 202 -198 0
-30 -202 198 0
-30 -202 199 0
-30 202 -198 -199 0
-35 -202 198 0
-35 202 -198 0
-25 -203 199 0
-25 203 -199 0
-26 -203 199 0
-26 203 -199 0
-27 -199 203 0
-27 -196 203 0
-27 -203 199 196 0
-28 -203 199 0
-28 203 -199 0
-29 -199 203 0
-29 -197 203 0
-29 -203 199 197 0
-30 -199 203 0
-30 -198 203 0
-30 -203 199 198 0
-35 -203 199 0
-35 203 -199 0
204 0
-1 -208 204 0
-1 -208 205 0
-1 208 -204 -205 0
-2 -208 204 0
-2 -208 206 0
-2 208 -204 -206 0
-3 -208 204 0
-3 -208 207 0
-3 208 -204 -207 0
-4 -208 204 0
-4 208 -204 0
-5 -208 204 0
-5 208 -204 0
-6 -208 204 0
-6 208 -204 0
-31 -208 204 0
-31 208 -204 0
-205 0
-1 -205 209 0
-1 -204 209 0
-1 -209 205 204 0
-2 -209 205 0
-2 209 -205 0
-3 -209 205 0
-3 209 -205 0
-4 -209 205 0
-4 -209 206 0
-4 209 -205 -206 0
-5 -209 205 0
-5 -209 207 0
-5 209 -205 -207 0
-6 -209 205 0
-6 209 -205 0
-31 -209 205 0
-31 209 -205 0
206 0
-1 -210 206 0
-1 210 -206 0
-2 -206 210 0
-2 -204 210 0
-2 -210 206 204 0
-3 -210 206 0
-3 210 -206 0
-4 -206 210 0
-4 -205 210 0
-4 -210 206 205 0
-5 -210 206 0
-5 210 -206 0
-6 -210 206 0
-6 -210 207 0
-6 210 -206 -207 0
-31 -210 206 0
-31 210 -206 0
207 0
-1 -211 207 0
-1 211 -207 0
-2 -211 207 0
-2 211 -207 0
-3 -207 211 0
-3 -204 211 0
-3 -211 207 204 0
-4 -211 207 0
-4 211 -207 0
-5 -207 211 0
-5 -205 211 0
-5 -211 207 205 0
-6 -207 211 0
-6 -206 211 0
-6 -211 207 206 0
-31 -211 207 0
-31 211 -207 0
-7 -212 208 0
-7 -212 209 0
-7 212 -208 -209 0
-8 -212 208 0
-8 -212 210 0
-8 212 -208 -210 0
-9 -212 208 0
-9 -212 211 0
-9 212 -208 -211 0
-10 -212 208 0
-10 212 -208 0
-11 -212 208 0
-11 212 -208 0
-12 -212 208 0
-12 212 -208 0
-32 -212 208 0
-32 212 -208 0
-7 -209 213 0
-7 -208 213 0
-7 -213 209 208 0
-8 -213 209 0
-8 213 -209 0
-9 -213 209 0
-9 213 -209 0
-10 -213 209 0
-10 -213 210 0
-10 213 -209 -210 0
-11 -213 209 0
-11 -213 211 0
-11 213 -209 -211 0
-12 -213 209 0
-12 213 -209 0
-32 -213 209 0
-32 213 -209 0
-7 -214 210 0
-7 214 -210 0
-8 -210 214 0
-8 -208 214 0
-8 -214 210 208 0
-9 -214 210 0
-9 214 -210 0
-10 -210 214 0
-10 -209 214 0
-10 -214 210 209 0
-11 -214 210 0
-11 214 -210 0
-12 -214 210 0
-12 -214 211 0
-12 214 -210 -211 0
-32 -214 210 0
-32 214 -210 0
-7 -215 211 0
-7 215 -211 0
-8 -215 211 0
-8 215 -211 0
-9 -211 215 0
-9 -208 215 0
-9 -215 211 208 0
-10 -215 211 0
-10 215 -211 0
-11 -211 215 0
-11 -209 215 0
-11 -215 211 209 0
-12 -211 215 0
-12 -210 215 0
-12 -215 211 210 0
-32 -215 211 0
-32 215 -211 0
-13 -216 212 0
-13 -216 213 0
-13 216 -212 -213 0
-14 -216 212 0
-14 -216 214 0
-14 216 -212 -214 0
-15 -216 212 0
-15 -216 215 0
-15 216 -212 -215 0
-16 -216 212 0
-16 216 -212 0
-17 -216 212 0
-17 216 -212 0
-18 -216 212 0
-18 216 -212 0
-33 -216 212 0
-33 216 -212 0
-13 -213 217 0
-13 -212 217 0
-13 -217 213 212 0
-14 -217 213 0
-14 217 -213 0
-15 -217 213 0
-15 217 -213 0
-16 -217 213 0
-16 -217 214 0
-16 217 -213 -214 0
-17 -217 213 0
-17 -217 215 0
-17 217 -213 -215 0
-18 -217 213 0
-18 217 -213 0
-33 -217 213 0
-33 217 -213 0
-13 -218 214 0
-13 218 -214 0
-14 -214 218 0
-14 -212 218 0
-14 -218 214 212 0
-15 -218 214 0
-15 218 -214 0
-16 -214 218 0
-16 -213 218 0
-16 -218 214 213 0
-17 -218 214 0
-17 218 -214 0
-18 -218 214 0
-18 -218 215 0
-18 218 -214 -215 0
-33 -218 214 0
-33 218 -214 0
-13 -219 215 0
-13 219 -215 0
-14 -219 215 0
-14 219 -215 0
-15 -215 219 0
-15 -212 219 0
-15 -219 215 212 0
-16 -219 215 0
-16 219 -215 0
-17 -215 219 0
-17 -213 219 0
-17 -219 215 213 0
-18 -215 219 0
-18 -214 219 0
-18 -219 215 214 0
-33 -219 215 0
-33 219 -215 0
-19 -220 216 0
-19 -220 217 0
-19 220 -216 -217 0
-20 -220 216 0
-20 -220 218 0
-20 220 -216 -218 0
-21 -220 216 0
-21 -220 219 0
-21 220 -216 -219 0
-22 -220 216 0
-22 220 -216 0
-23 -220 216 0
-23 220 -216 0
-24 -220 216 0
-24 220 -216 0
-34 -220 216 0
-34 220 -216 0
-19 -217 221 0
-19 -216 221 0
-19 -221 217 216 0
-20 -221 217 0
-20 221 -217 0
-21 -221 217 0
-21 221 -217 0
-22 -221 217 0
-22 -221 218 0
-22 221 -217 -218 0
-23 -221 217 0
-23 -221 219 0
-23 221 -217 -219 0
-24 -221 217 0
-24 221 -217 0
-34 -221 217 0
-34 221 -217 0
-19 -222 218 0
-19 222 -218 0
-20 -218 222 0
-20 -216 222 0
-20 -222 218 216 0
-21 -222 218 0
-21 222 -218 0
-22 -218 222 0
-22 -217 222 0
-22 -222 218 217 0
-23 -222 218 0
-23 222 -218 0
-24 -222 218 0
-24 -222 219 0
-24 222 -218 -219 0
-34 -222 218 0
-34 222 -218 0
-19 -223 219 0
-19 223 -219 0
-20 -223 219 0
-20 223 -219 0
-21 -219 223 0
-21 -216 223 0
-21 -223 219 216 0
-22 -223 219 0
-22 223 -219 0
-23 -219 223 0
-23 -217 223 0
-23 -223 219 217 0
-24 -219 223 0
-24 -218 223 0
-24 -223 219 218 0
-34 -223 219 0
-34 223 -219 0
-25 -224 220 0
-25 -224 221 0
-25 224 -220 -221 0
-26 -224 220 0
-26 -224 222 0
-26 224 -220 -222 0
-27 -224 220 0
-27 -224 223 0
-27 224 -220 -223 0
-28 -224 220 0
-28 224 -220 0
-29 -224 220 0
-29 224 -220 0
-30 -224 220 0
-30 224 -220 0
-35 -224 220 0
-35 224 -220 0
-25 -221 225 0
-25 -220 225 0
-25 -225 221 220 0
-26 -225 221 0
-26 225 -221 0
-27 -225 221 0
-27 225 -221 0
-28 -225 221 0
-28 -225 222 0
-28 225 -221 -222 0
-29 -225 221 0
-29 -225 223 0
-29 225 -221 -223 0
-30 -225 221 0
-30 225 -221 0
-35 -225 221 0
-35 225 -221 0
-25 -226 222 0
-25 226 -222 0
-26 -222 226 0
-26 -220 226 0
-26 -226 222 220 0
-27 -226 222 0
-27 226 -222 0
-28 -222 226 0
-28 -221 226 0
-28 -226 222 221 0
-29 -226 222 0
-29 226 -222 0
-30 -226 222 0
-30 -226 223 0
-30 226 -222 -223 0
-35 -226 222 0
-35 226 -222 0
-25 -227 223 0
-25 227 -223 0
-26 -227 223 0
-26 227 -223 0
-27 -223 227 0
-27 -220 227 0
-27 -227 223 220 0
-28 -227 223 0
-28 227 -223 0
-29 -223 227 0
-29 -221 227 0
-29 -227 223 221 0
-30 -223 227 0
-30 -222 227 0
-30 -227 223 222 0
-35 -227 223 0
-35 227 -223 0
228 0
-1 -232 228 0
-1 -232 229 0
-1 232 -228 -229 0
-2 -232 228 0
-2 -232 230 0
-2 232 -228 -230 0
-3 -232 228 0
-3 -232 231 0
-3 232 -228 -231 0
-4 -232 228 0
-4 232 -228 0
-5 -232 228 0
-5 232 -228 0
-6 -232 228 0
-6 232 -228 0
-31 -232 228 0
-31 232 -228 0
229 0
-1 -229 233 0
-1 -228 233 0
-1 -233 229 228 0
-2 -233 229 0
-2 233 -229 0
-3 -233 229 0
-3 233 -229 0
-4 -233 229 0
-4 -233 230 0
-4 233 -229 -230 0
-5 -233 229 0
-5 -233 231 0
-5 233 -229 -231 0
-6 -233 229 0
-6 233 -229 0
-31 -233 229 0
-31 233 -229 0
-230 0
-1 -234 230 0
-1 234 -230 0
-2 -230 234 0
-2 -228 234 0
-2 -234 230 228 0
-3 -234 230 0
-3 234 -230 0
-4 -230 234 0
-4 -229 234 0
-4 -234 230 229 0
-5 -234 230 0
-5 234 -230 0
-6 -234 230 0
-6 -234 231 0
-6 234 -230 -231 0
-31 -234 230 0
-31 234 -230 0
-231 0
-1 -235 231 0
-1 235 -231 0
-2 -235 231 0
-2 235 -231 0
-3 -231 235 0
-3 -228 235 0
-3 -235 231 228 0
-4 -235 231 0
-4 235 -231 0
-5 -231 235 0
-5 -229 235 0
-5 -235 231 229 0
-6 -231 235 0
-6 -230 235 0
-6 -235 231 230 0
-31 -235 231 0
-31 235 -231 0
-7 -236 232 0
-7 -236 233 0
-7 236 -232 -233 0
-8 -236 232 0
-8 -236 234 0
-8 236 -232 -234 0
-9 -236 232 0
-9 -236 235 0
-9 236 -232 -235 0
-10 -236 232 0
-10 236 -232 0
-11 -236 232 0
-11 236 -232 0
-12 -236 232 0
-12 236 -232 0
-32 -236 232 0
-32 236 -232 0
-7 -233 237 0
-7 -232 237 0
-7 -237 233 232 0
-8 -237 233 0
-8 237 -233 0
-9 -237 233 0
-9 237 -233 0
-10 -237 233 0
-10 -237 234 0
-10 237 -233 -234 0
-11 -237 233 0
-11 -237 235 0
-11 237 -233 -235 0
-12 -237 233 0
-12 237 -233 0
-32 -237 233 0
-32 237 -233 0
-7 -238 234 0
-7 238 -234 0
-8 -234 238 0
-8 -232 238 0
-8 -238 234 232 0
-9 -238 234 0
-9 238 -234 0
-10 -234 238 0
-10 -233 238 0
-10 -238 234 233 0
-11 -238 234 0
-11 238 -234 0
-12 -238 234 0
-12 -238 235 0
-12 238 -234 -235 0
-32 -238 234 0
-32 238 -234 0
-7 -239 235 0
-7 239 -235 0
-8 -239 235 0
-8 239 -235 0
-9 -235 239 0
-9 -232 239 0
-9 -239 235 232 0
-10 -239 235 0
-10 239 -235 0
-11 -235 239 0
-11 -233 239 0
-11 -239 235 233 0
-12 -235 239 0
-12 -234 239 0
-12 -239 235 234 0
-32 -239 235 0
-32 239 -235 0
-13 -240 236 0
-13 -240 237 0
-13 240 -236 -237 0
-14 -240 236 0
-14 -240 238 0
-14 240 -236 -238 0
-15 -240 236 0
-15 -240 239 0
-15 240 -236 -239 0
-16 -240 236 0
-16 240 -236 0
-17 -240 236 0
-17 240 -236 0
-18 -240 236 0
-18 240 -236 0
-33 -240 236 0
-33 240 -236 0
-13 -237 241 0
-13 -236 241 0
-13 -241 237 236 0
-14 -241 237 0
-14 241 -237 0
-15 -241 237 0
-15 241 -237 0
-16 -241 237 0
-16 -241 238 0
-16 241 -237 -238 0
-17 -241 237 0
-17 -241 239 0
-17 241 -237 -239 0
-18 -241 237 0
-18 241 -237 0
-33 -241 237 0
-33 241 -237 0
-13 -242 238 0
-13 242 -238 0
-14 -238 242 0
-14 -236 242 0
-14 -242 238 236 0
-15 -242 238 0
-15 242 -238 0
-16 -238 242 0
-16 -237 242 0
-16 -242 238 237 0
-17 -242 238 0
-17 242 -238 0
-18 -242 238 0
-18 -242 239 0
-18 242 -238 -239 0
-33 -242 238 0
-33 242 -238 0
-13 -243 239 0
-13 243 -239 0
-14 -243 239 0
-14 243 -239 0
-15 -239 243 0
-15 -236 243 0
-15 -243 239 236 0
-16 -243 239 0
-16 243 -239 0
-17 -239 243 0
-17 -237 243 0
-17 -243 239 237 0
-18 -239 243 0
-18 -238 243 0
-18 -243 239 238 0
-33 -243 239 0
-33 243 -239 0
-19 -244 240 0
-19 -244 241 0
-19 244 -240 -241 0
-20 -244 240 0
-20 -244 242 0
-20 244 -240 -242 0
-21 -244 240 0
-21 -244 243 0
-21 244 -240 -243 0
-22 -244 240 0
-22 244 -240 0
-23 -244 240 0
-23 244 -240 0
-24 -244 240 0
-24 244 -240 0
-34 -244 240 0
-34 244 -240 0
-19 -241 245 0
-19 -240 245 0
-19 -245 241 240 0
-20 -245 241 0
-20 245 -241 0
-21 -245 241 0
-21 245 -241 0
-22 -245 241 0
-22 -245 242 0
-22 245 -241 -242 0
-23 -245 241 0
-23 -245 243 0
-23 245 -241 -243 0
-24 -245 241 0
-24 245 -241 0
-34 -245 241 0
-34 245 -241 0
-19 -246 242 0
-19 246 -242 0
-20 -242 246 0
-20 -240 246 0
-20 -246 242 240 0
-21 -246 242 0
-21 246 -242 0
-22 -242 246 0
-22 -241 246 0
-22 -246 242 241 0
-23 -246 242 0
-23 246 -242 0
-24 -246 242 0
-24 -246 243 0
-24 246 -242 -243 0
-34 -246 242 0
-34 246 -242 0
-19 -247 243 0
-19 247 -243 0
-20 -247 243 0
-20 247 -243 0
-21 -243 247 0
-21 -240 247 0
-21 -247 243 240 0
-22 -247 243 0
-22 247 -243 0
-23 -243 247 0
-23 -241 247 0
-23 -247 243 241 0
-24 -243 247 0
-24 -242 247 0
-24 -247 243 242 0
-34 -247 243 0
-34 247 -243 0
-25 -248 244 0
-25 -248 245 0
-25 248 -244 -245 0
-26 -248 244 0
-26 -248 246 0
-26 248 -244 -246 0
-27 -248 244 0
-27 -248 247 0
-27 248 -244 -247 0
-28 -248 244 0
-28 248 -244 0
-29 -248 244 0
-29 248 -244 0
-30 -248 244 0
-30 248 -244 0
-35 -248 244 0
-35 248 -244 0
-25 -245 249 0
-25 -244 249 0
-25 -249 245 244 0
-26 -249 245 0
-26 249 -245 0
-27 -249 245 0
-27 249 -245 0
-28 -249 245 0
-28 -249 246 0
-28 249 -245 -246 0
-29 -249 245 0
-29 -249 247 0
-29 249 -245 -247 0
-30 -249 245 0
-30 249 -245 0
-35 -249 245 0
-35 249 -245 0
-25 -250 246 0
-25 250 -246 0
-26 -246 250 0
-26 -244 250 0
-26 -250 246 244 0
-27 -250 246 0
-27 250 -246 0
-28 -246 250 0
-28 -245 250 0
-28 -250 246 245 0
-29 -250 246 0
-29 250 -246 0
-30 -250 246 0
-30 -250 247 0
-30 250 -246 -247 0
-35 -250 246 0
-35 250 -246 0
-25 -251 247 0
-25 251 -247 0
-26 -251 247 0
-26 251 -247 0
-27 -247 251 0
-27 -244 251 0
-27 -251 247 244 0
-28 -251 247 0
-28 251 -247 0
-29 -247 251 0
-29 -245 251 0
-29 -251 247 245 0
-30 -247 251 0
-30 -246 251 0
-30 -251 247 246 0
-35 -251 247 0
-35 251 -247 0
252 0
-1 -256 252 0
-1 -256 253 0
-1 256 -252 -253 0
-2 -256 252 0
-2 -256 254 0
-2 256 -252 -254 0
-3 -256 252 0
-3 -256 255 0
-3 256 -252 -255 0
-4 -256 252 0
-4 256 -252 0
-5 -256 252 0
-5 256 -252 0
-6 -256 252 0
-6 256 -252 0
-31 -256 252 0
-31 256 -252 0
253 0
-1 -253 257 0
-1 -252 257 0
-1 -257 253 252 0
-2 -257 253 0
-2 257 -253 0
-3 -257 253 0
-3 257 -253 0
-4 -257 253 0
-4 -257 254 0
-4 257 -253 -254 0
-5 -257 253 0
-5 -257 255 0
-5 257 -253 -255 0
-6 -257 253 0
-6 257 -253 0
-31 -257 253 0
-31 257 -253 0
-254 0
-1 -258 254 0
-1 258 -254 0
-2 -254 258 0
-2 -252 258 0
-2 -258 254 252 0
-3 -258 254 0
-3 258 -254 0
-4 -254 258 0
-4 -253 258 0
-4 -258 254 253 0
-5 -258 254 0
-5 258 -254 0
-6 -258 254 0
-6 -258 255 0
-6 258 -254 -255 0
-31 -258 254 0
-31 258 -254 0
255 0
-1 -259 255 0
-1 259 -255 0
-2 -259 255 0
-2 259 -255 0
-3 -255 259 0
-3 -252 259 0
-3 -259 255 252 0
-4 -259 255 0
-4 259 -255 0
-5 -255 259 0
-5 -253 259 0
-5 -259 255 253 0
-6 -255 259 0
-6 -254 259 0
-6 -259 255 254 0
-31 -259 255 0
-31 259 -255 0
-7 -260 256 0
-7 -260 257 0
-7 260 -256 -257 0
-8 -260 256 0
-8 -260 258 0
-8 260 -256 -258 0
-9 -260 256 0
-9 -260 259 0
-9 260 -256 -259 0
-10 -260 256 0
-10 260 -256 0
-11 -260 256 0
-11 260 -256 0
-12 -260 256 0
-12 260 -256 0
-32 -260 256 0
-32 260 -256 0
-7 -257 261 0
-7 -256 261 0
-7 -261 257 256 0
-8 -261 257 0
-8 261 -257 0
-9 -261 257 0
-9 261 -257 0
-10 -261 257 0
-10 -261 258 0
-10 261 -257 -258 0
-11 -261 257 0
-11 -261 259 0
-11 261 -257 -259 0
-12 -261 257 0
-12 261 -257 0
-32 -261 257 0
-32 261 -257 0
-7 -262 258 0
-7 262 -258 0
-8 -258 262 0
-8 -256 262 0
-8 -262 258 256 0
-9 -262 258 0
-9 262 -258 0
-10 -258 262 0
-10 -257 262 0
-10 -262 258 257 0
-11 -262 258 0
-11 262 -258 0
-12 -262 258 0
-12 -262 259 0
-12 262 -258 -259 0
-32 -262 258 0
-32 262 -258 0
-7 -263 259 0
-7 263 -259 0
-8 -263 259 0
-8 263 -259 0
-9 -259 263 0
-9 -256 263 0
-9 -263 259 256 0
-10 -263 259 0
-10 263 -259 0
-11 -259 263 0
-11 -257 263 0
-11 -263 259 257 0
-12 -259 263 0
-12 -258 263 0
-12 -263 259 258 0
-32 -263 259 0
-32 263 -259 0
-13 -264 260 0
-13 -264 261 0
-13 264 -260 -261 0
-14 -264 260 0
-14 -264 262 0
-14 264 -260 -262 0
-15 -264 260 0
-15 -264 263 0
-15 264 -260 -263 0
-16 -264 260 0
-16 264 -260 0
-17 -264 260 0
-17 264 -260 0
-18 -264 260 0
-18 264 -260 0
-33 -264 260 0
-33 264 -260 0
-13 -261 265 0
-13 -260 265 0
-13 -265 261 260 0
-14 -265 261 0
-14 265 -261 0
-15 -265 261 0
-15 265 -261 0
-16 -265 261 0
-16 -265 262 0
-16 265 -261 -262 0
-17 -265 261 0
-17 -265 263 0
-17 265 -261 -263 0
-18 -265 261 0
-18 265 -261 0
-33 -265 261 0
-33 265 -261 0
-13 -266 262 0
-13 266 -262 0
-14 -262 266 0
-14 -260 266 0
-14 -266 262 260 0
-15 -266 262 0
-15 266 -262 0
-16 -262 266 0
-16 -261 266 0
-16 -266 262 261 0
-17 -266 262 0
-17 266 -262 0
-18 -266 262 0
-18 -266 263 0
-18 266 -262 -263 0
-33 -266 262 0
-33 266 -262 0
-13 -267 263 0
-13 267 -263 0
-14 -267 263 0
-14 267 -263 0
-15 -263 267 0
-15 -260 267 0
-15 -267 263 260 0
-16 -267 263 0
-16 267 -263 0
-17 -263 267 0
-17 -261 267 0
-17 -267 263 261 0
-18 -263 267 0
-18 -262 267 0
-18 -267 263 262 0
-33 -267 263 0
-33 267 -263 0
-19 -268 264 0
-19 -268 265 0
-19 268 -264 -265 0
-20 -268 264 0
-20 -268 266 0
-20 268 -264 -266 0
-21 -268 264 0
-21 -268 267 0
-21 268 -264 -267 0
-22 -268 264 0
-22 268 -264 0
-23 -268 264 0
-23 268 -264 0
-24 -268 264 0
-24 268 -264 0
-34 -268 264 0
-34 268 -264 0
-19 -265 269 0
-19 -264 269 0
-19 -269 265 264 0
-20 -269 265 0
-20 269 -265 0
-21 -269 265 0
-21 269 -265 0
-22 -269 265 0
-22 -269 266 0
-22 269 -265 -266 0
-23 -269 265 0
-23 -269 267 0
-23 269 -265 -267 0
-24 -269 265 0
-24 269 -265 0
-34 -269 265 0
-34 269 -265 0
-19 -270 266 0
-19 270 -266 0
-20 -266 270 0
-20 -264 270 0
-20 -270 266 264 0
-21 -270 266 0
-21 270 -266 0
-22 -266 270 0
-22 -265 270 0
-22 -270 266 265 0
-23 -270 266 0
-23 270 -266 0
-24 -270 266 0
-24 -270 267 0
-24 270 -266 -267 0
-34 -270 266 0
-34 270 -266 0
-19 -271 267 0
-19 271 -267 0
-20 -271 267 0
-20 271 -267 0
-21 -267 271 0
-21 -264 271 0
-21 -271 267 264 0
-22 -271 267 0
-22 271 -267 0
-23 -267 271 0
-23 -265 271 0
-23 -271 267 265 0
-24 -267 271 0
-24 -266 271 0
-24 -271 267 266 0
-34 -271 267 0
-34 271 -267 0
-25 -272 268 0
-25 -272 269 0
-25 272 -268 -269 0
-26 -272 268 0
-26 -272 270 0
-26 272 -268 -270 0
-27 -272 268 0
-27 -272 271 0
-27 272 -268 -271 0
-28 -272 268 0
-28 272 -268 0
-29 -272 268 0
-29 272 -268 0
-30 -272 268 0
-30 272 -268 0
-35 -272 268 0
-35 272 -268 0
-25 -269 273 0
-25 -268 273 0
-25 -273 269 268 0
-26 -273 269 0
-26 273 -269 0
-27 -273 269 0
-27 273 -269 0
-28 -273 269 0
-28 -273 270 0
-28 273 -269 -270 0
-29 -273 269 0
-29 -273 271 0
-29 273 -269 -271 0
-30 -273 269 0
-30 273 -269 0
-35 -273 269 0
-35 273 -269 0
-25 -274 270 0
-25 274 -270 0
-26 -270 274 0
-26 -268 274 0
-26 -274 270 268 0
-27 -274 270 0
-27 274 -270 0
-28 -270 274 0
-28 -269 274 0
-28 -274 270 269 0
-29 -274 270 0
-29 274 -270 0
-30 -274 270 0
-30 -274 271 0
-30 274 -270 -271 0
-35 -274 270 0
-35 274 -270 0
-25 -275 271 0
-25 275 -271 0
-26 -275 271 0
-26 275 -271 0
-27 -271 275 0
-27 -268 275 0
-27 -275 271 268 0
-28 -275 271 0
-28 275 -271 0
-29 -271 275 0
-29 -269 275 0
-29 -275 271 269 0
-30 -271 275 0
-30 -270 275 0
-30 -275 271 270 0
-35 -275 271 0
-35 275 -271 0
276 0
-1 -280 276 0
-1 -280 277 0
-1 280 -276 -277 0
-2 -280 276 0
-2 -280 278 0
-2 280 -276 -278 0
-3 -280 276 0
-3 -280 279 0
-3 280 -276 -279 0
-4 -280 276 0
-4 280 -276 0
-5 -280 276 0
-5 280 -276 0
-6 -280 276 0
-6 280 -276 0
-31 -280 276 0
-31 280 -276 0
277 0
-1 -277 281 0
-1 -276 281 0
-1 -281 277 276 0
-2 -281 277 0
-2 281 -277 0
-3 -281 277 0
-3 281 -277 0
-4 -281 277 0
-4 -281 278 0
-4 281 -277 -278 0
-5 -281 277 0
-5 -281 279 0
-5 281 -277 -279 0
-6 -281 277 0
-6 281 -277 0
-31 -281 277 0
-31 281 -277 0
278 0
-1 -282 278 0
-1 282 -278 0
-2 -278 282 0
-2 -276 282 0
-2 -282 278 276 0
-3 -282 278 0
-3 282 -278 0
-4 -278 282 0
-4 -277 282 0
-4 -282 278 277 0
-5 -282 278 0
-5 282 -278 0
-6 -282 278 0
-6 -282 279 0
-6 282 -278 -279 0
-31 -282 278 0
-31 282 -278 0
-279 0
-1 -283 279 0
-1 283 -279 0
-2 -283 279 0
-2 283 -279 0
-3 -279 283 0
-3 -276 283 0
-3 -283 279 276 0
-4 -283 279 0
-4 283 -279 0
-5 -279 283 0
-5 -277 283 0
-5 -283 279 277 0
-6 -279 283 0
-6 -278 283 0
-6 -283 279 278 0
-31 -283 279 0
-31 283 -279 0
-7 -284 280 0
-7 -284 281 0
-7 284 -280 -281 0
-8 -284 280 0
-8 -284 282 0
-8 284 -280 -282 0
-9 -284 280 0
-9 -284 283 0
-9 284 -280 -283 0
-10 -284 280 0
-10 284 -280 0
-11 -284 280 0
-11 284 -280 0
-12 -284 280 0
-12 284 -280 0
-32 -284 280 0
-32 284 -280 0
-7 -281 285 0
-7 -280 285 0
-7 -285 281 280 0
-8 -285 281 0
-8 285 -281 0
-9 -285 281 0
-9 285 -281 0
-10 -285 281 0
-10 -285 282 0
-10 285 -281 -282 0
-11 -285 281 0
-11 -285 283 0
-11 285 -281 -283 0
-12 -285 281 0
-12 285 -281 0
-32 -285 281 0
-32 285 -281 0
-7 -286 282 0
-7 286 -282 0
-8 -282 286 0
-8 -280 286 0
-8 -286 282 280 0
-9 -286 282 0
-9 286 -282 0
-10 -282 286 0
-10 -281 286 0
-10 -286 282 281 0
-11 -286 282 0
-11 286 -282 0
-12 -286 282 0
-12 -286 283 0
-12 286 -282 -283 0
-32 -286 282 0
-32 286 -282 0
-7 -287 283 0
-7 287 -283 0
-8 -287 283 0
-8 287 -283 0
-9 -283 287 0
-9 -280 287 0
-9 -287 283 280 0
-10 -287 283 0
-10 287 -283 0
-11 -283 287 0
-11 -281 287 0
-11 -287 283 281 0
-12 -283 287 0
-12 -282 287 0
-12 -287 283 282 0
-32 -287 283 0
-32 287 -283 0
-13 -288 284 0
-13 -288 285 0
-13 288 -284 -285 0
-14 -288 284 0
-14 -288 286 0
-14 288 -284 -286 0
-15 -288 284 0
-15 -288 287 0
-15 288 -284 -287 0
-16 -288 284 0
-16 288 -284 0
-17 -288 284 0
-17 288 -284 0
-18 -288 284 0
-18 288 -284 0
-33 -288 284 0
-33 288 -284 0
-13 -285 289 0
-13 -284 289 0
-13 -289 285 284 0
-14 -289 285 0
-14 289 -285 0
-15 -289 285 0
-15 289 -285 0
-16 -289 285 0
-16 -289 286 0
-16 289 -285 -286 0
-17 -289 285 0
-17 -289 287 0
-17 289 -285 -287 0
-18 -289 285 0
-18 289 -285 0
-33 -289 285 0
-33 289 -285 0
-13 -290 286 0
-13 290 -286 0
-14 -286 290 0
-14 -284 290 0
-14 -290 286 284 0
-15 -290 286 0
-15 290 -286 0
-16 -286 290 0
-16 -285 290 0
-16 -290 286 285 0
-17 -290 286 0
-17 290 -286 0
-18 -290 286 0
-18 -290 287 0
-18 290 -286 -287 0
-33 -290 286 0
-33 290 -286 0
-13 -291 287 0
-13 291 -287 0
-14 -291 287 0
-14 291 -287 0
-15 -287 291 0
-15 -284 291 0
-15 -291 287 284 0
-16 -291 287 0
-16 291 -287 0
-17 -287 291 0
-17 -285 291 0
-17 -291 287 285 0
-18 -287 291 0
-18 -286 291 0
-18 -291 287 286 0
-33 -291 287 0
-33 291 -287 0
-19 -292 288 0
-19 -292 289 0
-19 292 -288 -289 0
-20 -292 288 0
-20 -292 290 0
-20 292 -288 -290 0
-21 -292 288 0
-21 -292 291 0
-21 292 -288 -291 0
-22 -292 288 0
-22 292 -288 0
-23 -292 288 0
-23 292 -288 0
-24 -292 288 0
-24 292 -288 0
-34 -292 288 0
-34 292 -288 0
-19 -289 293 0
-19 -288 293 0
-19 -293 289 288 0
-20 -293 289 0
-20 293 -289 0
-21 -293 289 0
-21 293 -289 0
-22 -293 289 0
-22 -293 290 0
-22 293 -289 -290 0
-23 -293 289 0
-23 -293 291 0
-23 293 -289 -291 0
-24 -293 289 0
-24 293 -289 0
-34 -293 289 0
-34 293 -289 0
-19 -294 290 0
-19 294 -290 0
-20 -290 294 0
-20 -288 294 0
-20 -294 290 288 0
-21 -294 290 0
-21 294 -290 0
-22 -290 294 0
-22 -289 294 0
-22 -294 290 289 0
-23 -294 290 0
-23 294 -290 0
-24 -294 290 0
-24 -294 291 0
-24 294 -290 -291 0
-34 -294 290 0
-34 294 -290 0
-19 -295 291 0
-19 295 -291 0
-20 -295 291 0
-20 295 -291 0
-21 -291 295 0
-21 -288 295 0
-21 -295 291 288 0
-22 -295 291 0
-22 295 -291 0
-23 -291 295 0
-23 -289 295 0
-23 -295 291 289 0
-24 -291 295 0
-24 -290 295 0
-24 -295 291 290 0
-34 -295 291 0
-34 295 -291 0
-25 -296 292 0
-25 -296 293 0
-25 296 -292 -293 0
-26 -296 292 0
-26 -296 294 0
-26 296 -292 -294 0
-27 -296 292 0
-27 -296 295 0
-27 296 -292 -295 0
-28 -296 292 0
-28 296 -292 0
-29 -296 292 0
-29 296 -292 0
-30 -296 292 0
-30 296 -292 0
-35 -296 292 0
-35 296 -292 0
-25 -293 297 0
-25 -292 297 0
-25 -297 293 292 0
-26 -297 293 0
-26 297 -293 0
-27 -297 293 0
-27 297 -293 0
-28 -297 293 0
-28 -297 294 0
-28 297 -293 -294 0
-29 -297 293 0
-29 -297 295 0
-29 297 -293 -295 0
-30 -297 293 0
-30 297 -293 0
-35 -297 293 0
-35 297 -293 0
-25 -298 294 0
-25 298 -294 0
-26 -294 298 0
-26 -292 298 0
-26 -298 294 292 0
-27 -298 294 0
-27 298 -294 0
-28 -294 298 0
-28 -293 298 0
-28 -298 294 293 0
-29 -298 294 0
-29 298 -294 0
-30 -298 294 0
-30 -298 295 0
-30 298 -294 -295 0
-35 -298 294 0
-35 298 -294 0
-25 -299 295 0
-25 299 -295 0
-26 -299 295 0
-26 299 -295 0
-27 -295 299 0
-27 -292 299 0
-27 -299 295 292 0
-28 -299 295 0
-28 299 -295 0
-29 -295 299 0
-29 -293 299 0
-29 -299 295 293 0
-30 -295 299 0
-30 -294 299 0
-30 -299 295 294 0
-35 -299 295 0
-35 299 -295 0
-56 57 0
-57 58 0
-58 59 0
-80 81 0
-81 82 0
-82 83 0
-104 105 0
-105 106 0
-106 107 0
-128 129 0
-129 130 0
-130 131 0
-152 153 0
-153 154 0
-154 155 0
-176 177 0
-177 178 0
-178 179 0
-200 201 0
-201 202 0
-202 203 0
-224 225 0
-225 226 0
-226 227 0
-248 249 0
-249 250 0
-250 251 0
-272 273 0
-273 274 0
-274 275 0
-296 297 0
-297 298 0
-298 299 0
