p cnf 835 17436
1 2 3 4 5 6 7 8 9 10 51 0
-1 -2 0
-1 -3 0
-1 -4 0
-1 -5 0
-1 -6 0
-1 -7 0
-1 -8 0
-1 -9 0
-1 -10 0
-1 -51 0
-2 -3 0
-2 -4 0
-2 -5 0
-2 -6 0
-2 -7 0
-2 -8 0
-2 -9 0
-2 -10 0
-2 -51 0
-3 -4 0
-3 -5 0
-3 -6 0
-3 -7 0
-3 -8 0
-3 -9 0
-3 -10 0
-3 -51 0
-4 -5 0
-4 -6 0
-4 -7 0
-4 -8 0
-4 -9 0
-4 -10 0
-4 -51 0
-5 -6 0
-5 -7 0
-5 -8 0
-5 -9 0
-5 -10 0
-5 -51 0
-6 -7 0
-6 -8 0
-6 -9 0
-6 -10 0
-6 -51 0
-7 -8 0
-7 -9 0
-7 -10 0
-7 -51 0
-8 -9 0
-8 -10 0
-8 -51 0
-9 -10 0
-9 -51 0
-10 -51 0
11 12 13 14 15 16 17 18 19 20 52 0
-11 -12 0
-11 -13 0
-11 -14 0
-11 -15 0
-11 -16 0
-11 -17 0
-11 -18 0
-11 -19 0
-11 -20 0
-11 -52 0
-12 -13 0
-12 -14 0
-12 -15 0
-12 -16 0
-12 -17 0
-12 -18 0
-12 -19 0
-12 -20 0
-12 -52 0
-13 -14 0
-13 -15 0
-13 -16 0
-13 -17 0
-13 -18 0
-13 -19 0
-13 -20 0
-13 -52 0
-14 -15 0
-14 -16 0
-14 -17 0
-14 -18 0
-14 -19 0
-14 -20 0
-14 -52 0
-15 -16 0
-15 -17 0
-15 -18 0
-15 -19 0
-15 -20 0
-15 -52 0
-16 -17 0
-16 -18 0
-16 -19 0
-16 -20 0
-16 -52 0
-17 -18 0
-17 -19 0
-17 -20 0
-17 -52 0
-18 -19 0
-18 -20 0
-18 -52 0
-19 -20 0
-19 -52 0
-20 -52 0
21 22 23 24 25 26 27 28 29 30 53 0
-21 -22 0
-21 -23 0
-21 -24 0
-21 -25 0
-21 -26 0
-21 -27 0
-21 -28 0
-21 -29 0
-21 -30 0
-21 -53 0
-22 -23 0
-22 -24 0
-22 -25 0
-22 -26 0
-22 -27 0
-22 -28 0
-22 -29 0
-22 -30 0
-22 -53 0
-23 -24 0
-23 -25 0
-23 -26 0
-23 -27 0
-23 -28 0
-23 -29 0
-23 -30 0
-23 -53 0
-24 -25 0
-24 -26 0
-24 -27 0
-24 -28 0
-24 -29 0
-24 -30 0
-24 -53 0
-25 -26 0
-25 -27 0
-25 -28 0
-25 -29 0
-25 -30 0
-25 -53 0
-26 -27 0
-26 -28 0
-26 -29 0
-26 -30 0
-26 -53 0
-27 -28 0
-27 -29 0
-27 -30 0
-27 -53 0
-28 -29 0
-28 -30 0
-28 -53 0
-29 -30 0
-29 -53 0
-30 -53 0
31 32 33 34 35 36 37 38 39 40 54 0
-31 -32 0
-31 -33 0
-31 -34 0
-31 -35 0
-31 -36 0
-31 -37 0
-31 -38 0
-31 -39 0
-31 -40 0
-31 -54 0
-32 -33 0
-32 -34 0
-32 -35 0
-32 -36 0
-32 -37 0
-32 -38 0
-32 -39 0
-32 -40 0
-32 -54 0
-33 -34 0
-33 -35 0
-33 -36 0
-33 -37 0
-33 -38 0
-33 -39 0
-33 -40 0
-33 -54 0
-34 -35 0
-34 -36 0
-34 -37 0
-34 -38 0
-34 -39 0
-34 -40 0
-34 -54 0
-35 -36 0
-35 -37 0
-35 -38 0
-35 -39 0
-35 -40 0
-35 -54 0
-36 -37 0
-36 -38 0
-36 -39 0
-36 -40 0
-36 -54 0
-37 -38 0
-37 -39 0
-37 -40 0
-37 -54 0
-38 -39 0
-38 -40 0
-38 -54 0
-39 -40 0
-39 -54 0
-40 -54 0
41 42 43 44 45 46 47 48 49 50 55 0
-41 -42 0
-41 -43 0
-41 -44 0
-41 -45 0
-41 -46 0
-41 -47 0
-41 -48 0
-41 -49 0
-41 -50 0
-41 -55 0
-42 -43 0
-42 -44 0
-42 -45 0
-42 -46 0
-42 -47 0
-42 -48 0
-42 -49 0
-42 -50 0
-42 -55 0
-43 -44 0
-43 -45 0
-43 -46 0
-43 -47 0
-43 -48 0
-43 -49 0
-43 -50 0
-43 -55 0
-44 -45 0
-44 -46 0
-44 -47 0
-44 -48 0
-44 -49 0
-44 -50 0
-44 -55 0
-45 -46 0
-45 -47 0
-45 -48 0
-45 -49 0
-45 -50 0
-45 -55 0
-46 -47 0
-46 -48 0
-46 -49 0
-46 -50 0
-46 -55 0
-47 -48 0
-47 -49 0
-47 -50 0
-47 -55 0
-48 -49 0
-48 -50 0
-48 -55 0
-49 -50 0
-49 -55 0
-50 -55 0
-1 -11 0
-2 -12 0
-3 -13 0
-4 -14 0
-5 -15 0
-6 -16 0
-7 -17 0
-8 -18 0
-9 -19 0
-10 -20 0
-11 -21 0
-12 -22 0
-13 -23 0
-14 -24 0
-15 -25 0
-16 -26 0
-17 -27 0
-18 -28 0
-19 -29 0
-20 -30 0
-21 -31 0
-22 -32 0
-23 -33 0
-24 -34 0
-25 -35 0
-26 -36 0
-27 -37 0
-28 -38 0
-29 -39 0
-30 -40 0
-31 -41 0
-32 -42 0
-33 -43 0
-34 -44 0
-35 -45 0
-36 -46 0
-37 -47 0
-38 -48 0
-39 -49 0
-40 -50 0
-5 -13 0
-5 -14 0
-6 -12 0
-6 -14 0
-7 -12 0
-7 -13 0
-8 -11 0
-8 -14 0
-8 -17 0
-9 -11 0
-9 -13 0
-9 -16 0
-10 -11 0
-10 -12 0
-10 -15 0
-15 -23 0
-15 -24 0
-16 -22 0
-16 -24 0
-17 -22 0
-17 -23 0
-18 -21 0
-18 -24 0
-18 -27 0
-19 -21 0
-19 -23 0
-19 -26 0
-20 -21 0
-20 -22 0
-20 -25 0
-25 -33 0
-25 -34 0
-26 -32 0
-26 -34 0
-27 -32 0
-27 -33 0
-28 -31 0
-28 -34 0
-28 -37 0
-29 -31 0
-29 -33 0
-29 -36 0
-30 -31 0
-30 -32 0
-30 -35 0
-35 -43 0
-35 -44 0
-36 -42 0
-36 -44 0
-37 -42 0
-37 -43 0
-38 -41 0
-38 -44 0
-38 -47 0
-39 -41 0
-39 -43 0
-39 -46 0
-40 -41 0
-40 -42 0
-40 -45 0
-56 0
-1 -61 56 0
-1 -61 57 0
-1 61 -56 -57 0
-2 -61 56 0
-2 -61 58 0
-2 61 -56 -58 0
-3 -61 56 0
-3 -61 59 0
-3 61 -56 -59 0
-4 -61 56 0
-4 -61 60 0
-4 61 -56 -60 0
-5 -61 56 0
-5 61 -56 0
-6 -61 56 0
-6 61 -56 0
-7 -61 56 0
-7 61 -56 0
-8 -61 56 0
-8 61 -56 0
-9 -61 56 0
-9 61 -56 0
-10 -61 56 0
-10 61 -56 0
-51 -61 56 0
-51 61 -56 0
-57 0
-1 -57 62 0
-1 -56 62 0
-1 -62 57 56 0
-2 -62 57 0
-2 62 -57 0
-3 -62 57 0
-3 62 -57 0
-4 -62 57 0
-4 62 -57 0
-5 -62 57 0
-5 -62 58 0
-5 62 -57 -58 0
-6 -62 57 0
-6 -62 59 0
-6 62 -57 -59 0
-7 -62 57 0
-7 -62 60 0
-7 62 -57 -60 0
-8 -62 57 0
-8 62 -57 0
-9 -62 57 0
-9 62 -57 0
-10 -62 57 0
-10 62 -57 0
-51 -62 57 0
-51 62 -57 0
-58 0
-1 -63 58 0
-1 63 -58 0
-2 -58 63 0
-2 -56 63 0
-2 -63 58 56 0
-3 -63 58 0
-3 63 -58 0
-4 -63 58 0
-4 63 -58 0
-5 -58 63 0
-5 -57 63 0
-5 -63 58 57 0
-6 -63 58 0
-6 63 -58 0
-7 -63 58 0
-7 63 -58 0
-8 -63 58 0
-8 -63 59 0
-8 63 -58 -59 0
-9 -63 58 0
-9 -63 60 0
-9 63 -58 -60 0
-10 -63 58 0
-10 63 -58 0
-51 -63 58 0
-51 63 -58 0
59 0
-1 -64 59 0
-1 64 -59 0
-2 -64 59 0
-2 64 -59 0
-3 -59 64 0
-3 -56 64 0
-3 -64 59 56 0
-4 -64 59 0
-4 64 -59 0
-5 -64 59 0
-5 64 -59 0
-6 -59 64 0
-6 -57 64 0
-6 -64 59 57 0
-7 -64 59 0
-7 64 -59 0
-8 -59 64 0
-8 -58 64 0
-8 -64 59 58 0
-9 -64 59 0
-9 64 -59 0
-10 -64 59 0
-10 -64 60 0
-10 64 -59 -60 0
-51 -64 59 0
-51 64 -59 0
-60 0
-1 -65 60 0
-1 65 -60 0
-2 -65 60 0
-2 65 -60 0
-3 -65 60 0
-3 65 -60 0
-4 -60 65 0
-4 -56 65 0
-4 -65 60 56 0
-5 -65 60 0
-5 65 -60 0
-6 -65 60 0
-6 65 -60 0
-7 -60 65 0
-7 -57 65 0
-7 -65 60 57 0
-8 -65 60 0
-8 65 -60 0
-9 -60 65 0
-9 -58 65 0
-9 -65 60 58 0
-10 -60 65 0
-10 -59 65 0
-10 -65 60 59 0
-51 -65 60 0
-51 65 -60 0
-11 -66 61 0
-11 -66 62 0
-11 66 -61 -62 0
-12 -66 61 0
-12 -66 63 0
-12 66 -61 -63 0
-13 -66 61 0
-13 -66 64 0
-13 66 -61 -64 0
-14 -66 61 0
-14 -66 65 0
-14 66 -61 -65 0
-15 -66 61 0
-15 66 -61 0
-16 -66 61 0
-16 66 -61 0
-17 -66 61 0
-17 66 -61 0
-18 -66 61 0
-18 66 -61 0
-19 -66 61 0
-19 66 -61 0
-20 -66 61 0
-20 66 -61 0
-52 -66 61 0
-52 66 -61 0
-11 -62 67 0
-11 -61 67 0
-11 -67 62 61 0
-12 -67 62 0
-12 67 -62 0
-13 -67 62 0
-13 67 -62 0
-14 -67 62 0
-14 67 -62 0
-15 -67 62 0
-15 -67 63 0
-15 67 -62 -63 0
-16 -67 62 0
-16 -67 64 0
-16 67 -62 -64 0
-17 -67 62 0
-17 -67 65 0
-17 67 -62 -65 0
-18 -67 62 0
-18 67 -62 0
-19 -67 62 0
-19 67 -62 0
-20 -67 62 0
-20 67 -62 0
-52 -67 62 0
-52 67 -62 0
-11 -68 63 0
-11 68 -63 0
-12 -63 68 0
-12 -61 68 0
-12 -68 63 61 0
-13 -68 63 0
-13 68 -63 0
-14 -68 63 0
-14 68 -63 0
-15 -63 68 0
-15 -62 68 0
-15 -68 63 62 0
-16 -68 63 0
-16 68 -63 0
-17 -68 63 0
-17 68 -63 0
-18 -68 63 0
-18 -68 64 0
-18 68 -63 -64 0
-19 -68 63 0
-19 -68 65 0
-19 68 -63 -65 0
-20 -68 63 0
-20 68 -63 0
-52 -68 63 0
-52 68 -63 0
-11 -69 64 0
-11 69 -64 0
-12 -69 64 0
-12 69 -64 0
-13 -64 69 0
-13 -61 69 0
-13 -69 64 61 0
-14 -69 64 0
-14 69 -64 0
-15 -69 64 0
-15 69 -64 0
-16 -64 69 0
-16 -62 69 0
-16 -69 64 62 0
-17 -69 64 0
-17 69 -64 0
-18 -64 69 0
-18 -63 69 0
-18 -69 64 63 0
-19 -69 64 0
-19 69 -64 0
-20 -69 64 0
-20 -69 65 0
-20 69 -64 -65 0
-52 -69 64 0
-52 69 -64 0
-11 -70 65 0
-11 70 -65 0
-12 -70 65 0
-12 70 -65 0
-13 -70 65 0
-13 70 -65 0
-14 -65 70 0
-14 -61 70 0
-14 -70 65 61 0
-15 -70 65 0
-15 70 -65 0
-16 -70 65 0
-16 70 -65 0
-17 -65 70 0
-17 -62 70 0
-17 -70 65 62 0
-18 -70 65 0
-18 70 -65 0
-19 -65 70 0
-19 -63 70 0
-19 -70 65 63 0
-20 -65 70 0
-20 -64 70 0
-20 -70 65 64 0
-52 -70 65 0
-52 70 -65 0
-21 -71 66 0
-21 -71 67 0
-21 71 -66 -67 0
-22 -71 66 0
-22 -71 68 0
-22 71 -66 -68 0
-23 -71 66 0
-23 -71 69 0
-23 71 -66 -69 0
-24 -71 66 0
-24 -71 70 0
-24 71 -66 -70 0
-25 -71 66 0
-25 71 -66 0
-26 -71 66 0
-26 71 -66 0
-27 -71 66 0
-27 71 -66 0
-28 -71 66 0
-28 71 -66 0
-29 -71 66 0
-29 71 -66 0
-30 -71 66 0
-30 71 -66 0
-53 -71 66 0
-53 71 -66 0
-21 -67 72 0
-21 -66 72 0
-21 -72 67 66 0
-22 -72 67 0
-22 72 -67 0
-23 -72 67 0
-23 72 -67 0
-24 -72 67 0
-24 72 -67 0
-25 -72 67 0
-25 -72 68 0
-25 72 -67 -68 0
-26 -72 67 0
-26 -72 69 0
-26 72 -67 -69 0
-27 -72 67 0
-27 -72 70 0
-27 72 -67 -70 0
-28 -72 67 0
-28 72 -67 0
-29 -72 67 0
-29 72 -67 0
-30 -72 67 0
-30 72 -67 0
-53 -72 67 0
-53 72 -67 0
-21 -73 68 0
-21 73 -68 0
-22 -68 73 0
-22 -66 73 0
-22 -73 68 66 0
-23 -73 68 0
-23 73 -68 0
-24 -73 68 0
-24 73 -68 0
-25 -68 73 0
-25 -67 73 0
-25 -73 68 67 0
-26 -73 68 0
-26 73 -68 0
-27 -73 68 0
-27 73 -68 0
-28 -73 68 0
-28 -73 69 0
-28 73 -68 -69 0
-29 -73 68 0
-29 -73 70 0
-29 73 -68 -70 0
-30 -73 68 0
-30 73 -68 0
-53 -73 68 0
-53 73 -68 0
-21 -74 69 0
-21 74 -69 0
-22 -74 69 0
-22 74 -69 0
-23 -69 74 0
-23 -66 74 0
-23 -74 69 66 0
-24 -74 69 0
-24 74 -69 0
-25 -74 69 0
-25 74 -69 0
-26 -69 74 0
-26 -67 74 0
-26 -74 69 67 0
-27 -74 69 0
-27 74 -69 0
-28 -69 74 0
-28 -68 74 0
-28 -74 69 68 0
-29 -74 69 0
-29 74 -69 0
-30 -74 69 0
-30 -74 70 0
-30 74 -69 -70 0
-53 -74 69 0
-53 74 -69 0
-21 -75 70 0
-21 75 -70 0
-22 -75 70 0
-22 75 -70 0
-23 -75 70 0
-23 75 -70 0
-24 -70 75 0
-24 -66 75 0
-24 -75 70 66 0
-25 -75 70 0
-25 75 -70 0
-26 -75 70 0
-26 75 -70 0
-27 -70 75 0
-27 -67 75 0
-27 -75 70 67 0
-28 -75 70 0
-28 75 -70 0
-29 -70 75 0
-29 -68 75 0
-29 -75 70 68 0
-30 -70 75 0
-30 -69 75 0
-30 -75 70 69 0
-53 -75 70 0
-53 75 -70 0
-31 -76 71 0
-31 -76 72 0
-31 76 -71 -72 0
-32 -76 71 0
-32 -76 73 0
-32 76 -71 -73 0
-33 -76 71 0
-33 -76 74 0
-33 76 -71 -74 0
-34 -76 71 0
-34 -76 75 0
-34 76 -71 -75 0
-35 -76 71 0
-35 76 -71 0
-36 -76 71 0
-36 76 -71 0
-37 -76 71 0
-37 76 -71 0
-38 -76 71 0
-38 76 -71 0
-39 -76 71 0
-39 76 -71 0
-40 -76 71 0
-40 76 -71 0
-54 -76 71 0
-54 76 -71 0
-31 -72 77 0
-31 -71 77 0
-31 -77 72 71 0
-32 -77 72 0
-32 77 -72 0
-33 -77 72 0
-33 77 -72 0
-34 -77 72 0
-34 77 -72 0
-35 -77 72 0
-35 -77 73 0
-35 77 -72 -73 0
-36 -77 72 0
-36 -77 74 0
-36 77 -72 -74 0
-37 -77 72 0
-37 -77 75 0
-37 77 -72 -75 0
-38 -77 72 0
-38 77 -72 0
-39 -77 72 0
-39 77 -72 0
-40 -77 72 0
-40 77 -72 0
-54 -77 72 0
-54 77 -72 0
-31 -78 73 0
-31 78 -73 0
-32 -73 78 0
-32 -71 78 0
-32 -78 73 71 0
-33 -78 73 0
-33 78 -73 0
-34 -78 73 0
-34 78 -73 0
-35 -73 78 0
-35 -72 78 0
-35 -78 73 72 0
-36 -78 73 0
-36 78 -73 0
-37 -78 73 0
-37 78 -73 0
-38 -78 73 0
-38 -78 74 0
-38 78 -73 -74 0
-39 -78 73 0
-39 -78 75 0
-39 78 -73 -75 0
-40 -78 73 0
-40 78 -73 0
-54 -78 73 0
-54 78 -73 0
-31 -79 74 0
-31 79 -74 0
-32 -79 74 0
-32 79 -74 0
-33 -74 79 0
-33 -71 79 0
-33 -79 74 71 0
-34 -79 74 0
-34 79 -74 0
-35 -79 74 0
-35 79 -74 0
-36 -74 79 0
-36 -72 79 0
-36 -79 74 72 0
-37 -79 74 0
-37 79 -74 0
-38 -74 79 0
-38 -73 79 0
-38 -79 74 73 0
-39 -79 74 0
-39 79 -74 0
-40 -79 74 0
-40 -79 75 0
-40 79 -74 -75 0
-54 -79 74 0
-54 79 -74 0
-31 -80 75 0
-31 80 -75 0
-32 -80 75 0
-32 80 -75 0
-33 -80 75 0
-33 80 -75 0
-34 -75 80 0
-34 -71 80 0
-34 -80 75 71 0
-35 -80 75 0
-35 80 -75 0
-36 -80 75 0
-36 80 -75 0
-37 -75 80 0
-37 -72 80 0
-37 -80 75 72 0
-38 -80 75 0
-38 80 -75 0
-39 -75 80 0
-39 -73 80 0
-39 -80 75 73 0
-40 -75 80 0
-40 -74 80 0
-40 -80 75 74 0
-54 -80 75 0
-54 80 -75 0
-41 -81 76 0
-41 -81 77 0
-41 81 -76 -77 0
-42 -81 76 0
-42 -81 78 0
-42 81 -76 -78 0
-43 -81 76 0
-43 -81 79 0
-43 81 -76 -79 0
-44 -81 76 0
-44 -81 80 0
-44 81 -76 -80 0
-45 -81 76 0
-45 81 -76 0
-46 -81 76 0
-46 81 -76 0
-47 -81 76 0
-47 81 -76 0
-48 -81 76 0
-48 81 -76 0
-49 -81 76 0
-49 81 -76 0
-50 -81 76 0
-50 81 -76 0
-55 -81 76 0
-55 81 -76 0
-41 -77 82 0
-41 -76 82 0
-41 -82 77 76 0
-42 -82 77 0
-42 82 -77 0
-43 -82 77 0
-43 82 -77 0
-44 -82 77 0
-44 82 -77 0
-45 -82 77 0
-45 -82 78 0
-45 82 -77 -78 0
-46 -82 77 0
-46 -82 79 0
-46 82 -77 -79 0
-47 -82 77 0
-47 -82 80 0
-47 82 -77 -80 0
-48 -82 77 0
-48 82 -77 0
-49 -82 77 0
-49 82 -77 0
-50 -82 77 0
-50 82 -77 0
-55 -82 77 0
-55 82 -77 0
-41 -83 78 0
-41 83 -78 0
-42 -78 83 0
-42 -76 83 0
-42 -83 78 76 0
-43 -83 78 0
-43 83 -78 0
-44 -83 78 0
-44 83 -78 0
-45 -78 83 0
-45 -77 83 0
-45 -83 78 77 0
-46 -83 78 0
-46 83 -78 0
-47 -83 78 0
-47 83 -78 0
-48 -83 78 0
-48 -83 79 0
-48 83 -78 -79 0
-49 -83 78 0
-49 -83 80 0
-49 83 -78 -80 0
-50 -83 78 0
-50 83 -78 0
-55 -83 78 0
-55 83 -78 0
-41 -84 79 0
-41 84 -79 0
-42 -84 79 0
-42 84 -79 0
-43 -79 84 0
-43 -76 84 0
-43 -84 79 76 0
-44 -84 79 0
-44 84 -79 0
-45 -84 79 0
-45 84 -79 0
-46 -79 84 0
-46 -77 84 0
-46 -84 79 77 0
-47 -84 79 0
-47 84 -79 0
-48 -79 84 0
-48 -78 84 0
-48 -84 79 78 0
-49 -84 79 0
-49 84 -79 0
-50 -84 79 0
-50 -84 80 0
-50 84 -79 -80 0
-55 -84 79 0
-55 84 -79 0
-41 -85 80 0
-41 85 -80 0
-42 -85 80 0
-42 85 -80 0
-43 -85 80 0
-43 85 -80 0
-44 -80 85 0
-44 -76 85 0
-44 -85 80 76 0
-45 -85 80 0
-45 85 -80 0
-46 -85 80 0
-46 85 -80 0
-47 -80 85 0
-47 -77 85 0
-47 -85 80 77 0
-48 -85 80 0
-48 85 -80 0
-49 -80 85 0
-49 -78 85 0
-49 -85 80 78 0
-50 -80 85 0
-50 -79 85 0
-50 -85 80 79 0
-55 -85 80 0
-55 85 -80 0
-86 0
-1 -91 86 0
-1 -91 87 0
-1 91 -86 -87 0
-2 -91 86 0
-2 -91 88 0
-2 91 -86 -88 0
-3 -91 86 0
-3 -91 89 0
-3 91 -86 -89 0
-4 -91 86 0
-4 -91 90 0
-4 91 -86 -90 0
-5 -91 86 0
-5 91 -86 0
-6 -91 86 0
-6 91 -86 0
-7 -91 86 0
-7 91 -86 0
-8 -91 86 0
-8 91 -86 0
-9 -91 86 0
-9 91 -86 0
-10 -91 86 0
-10 91 -86 0
-51 -91 86 0
-51 91 -86 0
-87 0
-1 -87 92 0
-1 -86 92 0
-1 -92 87 86 0
-2 -92 87 0
-2 92 -87 0
-3 -92 87 0
-3 92 -87 0
-4 -92 87 0
-4 92 -87 0
-5 -92 87 0
-5 -92 88 0
-5 92 -87 -88 0
-6 -92 87 0
-6 -92 89 0
-6 92 -87 -89 0
-7 -92 87 0
-7 -92 90 0
-7 92 -87 -90 0
-8 -92 87 0
-8 92 -87 0
-9 -92 87 0
-9 92 -87 0
-10 -92 87 0
-10 92 -87 0
-51 -92 87 0
-51 92 -87 0
88 0
-1 -93 88 0
-1 93 -88 0
-2 -88 93 0
-2 -86 93 0
-2 -93 88 86 0
-3 -93 88 0
-3 93 -88 0
-4 -93 88 0
-4 93 -88 0
-5 -88 93 0
-5 -87 93 0
-5 -93 88 87 0
-6 -93 88 0
-6 93 -88 0
-7 -93 88 0
-7 93 -88 0
-8 -93 88 0
-8 -93 89 0
-8 93 -88 -89 0
-9 -93 88 0
-9 -93 90 0
-9 93 -88 -90 0
-10 -93 88 0
-10 93 -88 0
-51 -93 88 0
-51 93 -88 0
-89 0
-1 -94 89 0
-1 94 -89 0
-2 -94 89 0
-2 94 -89 0
-3 -89 94 0
-3 -86 94 0
-3 -94 89 86 0
-4 -94 89 0
-4 94 -89 0
-5 -94 89 0
-5 94 -89 0
-6 -89 94 0
-6 -87 94 0
-6 -94 89 87 0
-7 -94 89 0
-7 94 -89 0
-8 -89 94 0
-8 -88 94 0
-8 -94 89 88 0
-9 -94 89 0
-9 94 -89 0
-10 -94 89 0
-10 -94 90 0
-10 94 -89 -90 0
-51 -94 89 0
-51 94 -89 0
-90 0
-1 -95 90 0
-1 95 -90 0
-2 -95 90 0
-2 95 -90 0
-3 -95 90 0
-3 95 -90 0
-4 -90 95 0
-4 -86 95 0
-4 -95 90 86 0
-5 -95 90 0
-5 95 -90 0
-6 -95 90 0
-6 95 -90 0
-7 -90 95 0
-7 -87 95 0
-7 -95 90 87 0
-8 -95 90 0
-8 95 -90 0
-9 -90 95 0
-9 -88 95 0
-9 -95 90 88 0
-10 -90 95 0
-10 -89 95 0
-10 -95 90 89 0
-51 -95 90 0
-51 95 -90 0
-11 -96 91 0
-11 -96 92 0
-11 96 -91 -92 0
-12 -96 91 0
-12 -96 93 0
-12 96 -91 -93 0
-13 -96 91 0
-13 -96 94 0
-13 96 -91 -94 0
-14 -96 91 0
-14 -96 95 0
-14 96 -91 -95 0
-15 -96 91 0
-15 96 -91 0
-16 -96 91 0
-16 96 -91 0
-17 -96 91 0
-17 96 -91 0
-18 -96 91 0
-18 96 -91 0
-19 -96 91 0
-19 96 -91 0
-20 -96 91 0
-20 96 -91 0
-52 -96 91 0
-52 96 -91 0
-11 -92 97 0
-11 -91 97 0
-11 -97 92 91 0
-12 -97 92 0
-12 97 -92 0
-13 -97 92 0
-13 97 -92 0
-14 -97 92 0
-14 97 -92 0
-15 -97 92 0
-15 -97 93 0
-15 97 -92 -93 0
-16 -97 92 0
-16 -97 94 0
-16 97 -92 -94 0
-17 -97 92 0
-17 -97 95 0
-17 97 -92 -95 0
-18 -97 92 0
-18 97 -92 0
-19 -97 92 0
-19 97 -92 0
-20 -97 92 0
-20 97 -92 0
-52 -97 92 0
-52 97 -92 0
-11 -98 93 0
-11 98 -93 0
-12 -93 98 0
-12 -91 98 0
-12 -98 93 91 0
-13 -98 93 0
-13 98 -93 0
-14 -98 93 0
-14 98 -93 0
-15 -93 98 0
-15 -92 98 0
-15 -98 93 92 0
-16 -98 93 0
-16 98 -93 0
-17 -98 93 0
-17 98 -93 0
-18 -98 93 0
-18 -98 94 0
-18 98 -93 -94 0
-19 -98 93 0
-19 -98 95 0
-19 98 -93 -95 0
-20 -98 93 0
-20 98 -93 0
-52 -98 93 0
-52 98 -93 0
-11 -99 94 0
-11 99 -94 0
-12 -99 94 0
-12 99 -94 0
-13 -94 99 0
-13 -91 99 0
-13 -99 94 91 0
-14 -99 94 0
-14 99 -94 0
-15 -99 94 0
-15 99 -94 0
-16 -94 99 0
-16 -92 99 0
-16 -99 94 92 0
-17 -99 94 0
-17 99 -94 0
-18 -94 99 0
-18 -93 99 0
-18 -99 94 93 0
-19 -99 94 0
-19 99 -94 0
-20 -99 94 0
-20 -99 95 0
-20 99 -94 -95 0
-52 -99 94 0
-52 99 -94 0
-11 -100 95 0
-11 100 -95 0
-12 -100 95 0
-12 100 -95 0
-13 -100 95 0
-13 100 -95 0
-14 -95 100 0
-14 -91 100 0
-14 -100 95 91 0
-15 -100 95 0
-15 100 -95 0
-16 -100 95 0
-16 100 -95 0
-17 -95 100 0
-17 -92 100 0
-17 -100 95 92 0
-18 -100 95 0
-18 100 -95 0
-19 -95 100 0
-19 -93 100 0
-19 -100 95 93 0
-20 -95 100 0
-20 -94 100 0
-20 -100 95 94 0
-52 -100 95 0
-52 100 -95 0
-21 -101 96 0
-21 -101 97 0
-21 101 -96 -97 0
-22 -101 96 0
-22 -101 98 0
-22 101 -96 -98 0
-23 -101 96 0
-23 -101 99 0
-23 101 -96 -99 0
-24 -101 96 0
-24 -101 100 0
-24 101 -96 -100 0
-25 -101 96 0
-25 101 -96 0
-26 -101 96 0
-26 101 -96 0
-27 -101 96 0
-27 101 -96 0
-28 -101 96 0
-28 101 -96 0
-29 -101 96 0
-29 101 -96 0
-30 -101 96 0
-30 101 -96 0
-53 -101 96 0
-53 101 -96 0
-21 -97 102 0
-21 -96 102 0
-21 -102 97 96 0
-22 -102 97 0
-22 102 -97 0
-23 -102 97 0
-23 102 -97 0
-24 -102 97 0
-24 102 -97 0
-25 -102 97 0
-25 -102 98 0
-25 102 -97 -98 0
-26 -102 97 0
-26 -102 99 0
-26 102 -97 -99 0
-27 -102 97 0
-27 -102 100 0
-27 102 -97 -100 0
-28 -102 97 0
-28 102 -97 0
-29 -102 97 0
-29 102 -97 0
-30 -102 97 0
-30 102 -97 0
-53 -102 97 0
-53 102 -97 0
-21 -103 98 0
-21 103 -98 0
-22 -98 103 0
-22 -96 103 0
-22 -103 98 96 0
-23 -103 98 0
-23 103 -98 0
-24 -103 98 0
-24 103 -98 0
-25 -98 103 0
-25 -97 103 0
-25 -103 98 97 0
-26 -103 98 0
-26 103 -98 0
-27 -103 98 0
-27 103 -98 0
-28 -103 98 0
-28 -103 99 0
-28 103 -98 -99 0
-29 -103 98 0
-29 -103 100 0
-29 103 -98 -100 0
-30 -103 98 0
-30 103 -98 0
-53 -103 98 0
-53 103 -98 0
-21 -104 99 0
-21 104 -99 0
-22 -104 99 0
-22 104 -99 0
-23 -99 104 0
-23 -96 104 0
-23 -104 99 96 0
-24 -104 99 0
-24 104 -99 0
-25 -104 99 0
-25 104 -99 0
-26 -99 104 0
-26 -97 104 0
-26 -104 99 97 0
-27 -104 99 0
-27 104 -99 0
-28 -99 104 0
-28 -98 104 0
-28 -104 99 98 0
-29 -104 99 0
-29 104 -99 0
-30 -104 99 0
-30 -104 100 0
-30 104 -99 -100 0
-53 -104 99 0
-53 104 -99 0
-21 -105 100 0
-21 105 -100 0
-22 -105 100 0
-22 105 -100 0
-23 -105 100 0
-23 105 -100 0
-24 -100 105 0
-24 -96 105 0
-24 -105 100 96 0
-25 -105 100 0
-25 105 -100 0
-26 -105 100 0
-26 105 -100 0
-27 -100 105 0
-27 -97 105 0
-27 -105 100 97 0
-28 -105 100 0
-28 105 -100 0
-29 -100 105 0
-29 -98 105 0
-29 -105 100 98 0
-30 -100 105 0
-30 -99 105 0
-30 -105 100 99 0
-53 -105 100 0
-53 105 -100 0
-31 -106 101 0
-31 -106 102 0
-31 106 -101 -102 0
-32 -106 101 0
-32 -106 103 0
-32 106 -101 -103 0
-33 -106 101 0
-33 -106 104 0
-33 106 -101 -104 0
-34 -106 101 0
-34 -106 105 0
-34 106 -101 -105 0
-35 -106 101 0
-35 106 -101 0
-36 -106 101 0
-36 106 -101 0
-37 -106 101 0
-37 106 -101 0
-38 -106 101 0
-38 106 -101 0
-39 -106 101 0
-39 106 -101 0
-40 -106 101 0
-40 106 -101 0
-54 -106 101 0
-54 106 -101 0
-31 -102 107 0
-31 -101 107 0
-31 -107 102 101 0
-32 -107 102 0
-32 107 -102 0
-33 -107 102 0
-33 107 -102 0
-34 -107 102 0
-34 107 -102 0
-35 -107 102 0
-35 -107 103 0
-35 107 -102 -103 0
-36 -107 102 0
-36 -107 104 0
-36 107 -102 -104 0
-37 -107 102 0
-37 -107 105 0
-37 107 -102 -105 0
-38 -107 102 0
-38 107 -102 0
-39 -107 102 0
-39 107 -102 0
-40 -107 102 0
-40 107 -102 0
-54 -107 102 0
-54 107 -102 0
-31 -108 103 0
-31 108 -103 0
-32 -103 108 0
-32 -101 108 0
-32 -108 103 101 0
-33 -108 103 0
-33 108 -103 0
-34 -108 103 0
-34 108 -103 0
-35 -103 108 0
-35 -102 108 0
-35 -108 103 102 0
-36 -108 103 0
-36 108 -103 0
-37 -108 103 0
-37 108 -103 0
-38 -108 103 0
-38 -108 104 0
-38 108 -103 -104 0
-39 -108 103 0
-39 -108 105 0
-39 108 -103 -105 0
-40 -108 103 0
-40 108 -103 0
-54 -108 103 0
-54 108 -103 0
-31 -109 104 0
-31 109 -104 0
-32 -109 104 0
-32 109 -104 0
-33 -104 109 0
-33 -101 109 0
-33 -109 104 101 0
-34 -109 104 0
-34 109 -104 0
-35 -109 104 0
-35 109 -104 0
-36 -104 109 0
-36 -102 109 0
-36 -109 104 102 0
-37 -109 104 0
-37 109 -104 0
-38 -104 109 0
-38 -103 109 0
-38 -109 104 103 0
-39 -109 104 0
-39 109 -104 0
-40 -109 104 0
-40 -109 105 0
-40 109 -104 -105 0
-54 -109 104 0
-54 109 -104 0
-31 -110 105 0
-31 110 -105 0
-32 -110 105 0
-32 110 -105 0
-33 -110 105 0
-33 110 -105 0
-34 -105 110 0
-34 -101 110 0
-34 -110 105 101 0
-35 -110 105 0
-35 110 -105 0
-36 -110 105 0
-36 110 -105 0
-37 -105 110 0
-37 -102 110 0
-37 -110 105 102 0
-38 -110 105 0
-38 110 -105 0
-39 -105 110 0
-39 -103 110 0
-39 -110 105 103 0
-40 -105 110 0
-40 -104 110 0
-40 -110 105 104 0
-54 -110 105 0
-54 110 -105 0
-41 -111 106 0
-41 -111 107 0
-41 111 -106 -107 0
-42 -111 106 0
-42 -111 108 0
-42 111 -106 -108 0
-43 -111 106 0
-43 -111 109 0
-43 111 -106 -109 0
-44 -111 106 0
-44 -111 110 0
-44 111 -106 -110 0
-45 -111 106 0
-45 111 -106 0
-46 -111 106 0
-46 111 -106 0
-47 -111 106 0
-47 111 -106 0
-48 -111 106 0
-48 111 -106 0
-49 -111 106 0
-49 111 -106 0
-50 -111 106 0
-50 111 -106 0
-55 -111 106 0
-55 111 -106 0
-41 -107 112 0
-41 -106 112 0
-41 -112 107 106 0
-42 -112 107 0
-42 112 -107 0
-43 -112 107 0
-43 112 -107 0
-44 -112 107 0
-44 112 -107 0
-45 -112 107 0
-45 -112 108 0
-45 112 -107 -108 0
-46 -112 107 0
-46 -112 109 0
-46 112 -107 -109 0
-47 -112 107 0
-47 -112 110 0
-47 112 -107 -110 0
-48 -112 107 0
-48 112 -107 0
-49 -112 107 0
-49 112 -107 0
-50 -112 107 0
-50 112 -107 0
-55 -112 107 0
-55 112 -107 0
-41 -113 108 0
-41 113 -108 0
-42 -108 113 0
-42 -106 113 0
-42 -113 108 106 0
-43 -113 108 0
-43 113 -108 0
-44 -113 108 0
-44 113 -108 0
-45 -108 113 0
-45 -107 113 0
-45 -113 108 107 0
-46 -113 108 0
-46 113 -108 0
-47 -113 108 0
-47 113 -108 0
-48 -113 108 0
-48 -113 109 0
-48 113 -108 -109 0
-49 -113 108 0
-49 -113 110 0
-49 113 -108 -110 0
-50 -113 108 0
-50 113 -108 0
-55 -113 108 0
-55 113 -108 0
-41 -114 109 0
-41 114 -109 0
-42 -114 109 0
-42 114 -109 0
-43 -109 114 0
-43 -106 114 0
-43 -114 109 106 0
-44 -114 109 0
-44 114 -109 0
-45 -114 109 0
-45 114 -109 0
-46 -109 114 0
-46 -107 114 0
-46 -114 109 107 0
-47 -114 109 0
-47 114 -109 0
-48 -109 114 0
-48 -108 114 0
-48 -114 109 108 0
-49 -114 109 0
-49 114 -109 0
-50 -114 109 0
-50 -114 110 0
-50 114 -109 -110 0
-55 -114 109 0
-55 114 -109 0
-41 -115 110 0
-41 115 -110 0
-42 -115 110 0
-42 115 -110 0
-43 -115 110 0
-43 115 -110 0
-44 -110 115 0
-44 -106 115 0
-44 -115 110 106 0
-45 -115 110 0
-45 115 -110 0
-46 -115 110 0
-46 115 -110 0
-47 -110 115 0
-47 -107 115 0
-47 -115 110 107 0
-48 -115 110 0
-48 115 -110 0
-49 -110 115 0
-49 -108 115 0
-49 -115 110 108 0
-50 -110 115 0
-50 -109 115 0
-50 -115 110 109 0
-55 -115 110 0
-55 115 -110 0
-116 0
-1 -121 116 0
-1 -121 117 0
-1 121 -116 -117 0
-2 -121 116 0
-2 -121 118 0
-2 121 -116 -118 0
-3 -121 116 0
-3 -121 119 0
-3 121 -116 -119 0
-4 -121 116 0
-4 -121 120 0
-4 121 -116 -120 0
-5 -121 116 0
-5 121 -116 0
-6 -121 116 0
-6 121 -116 0
-7 -121 116 0
-7 121 -116 0
-8 -121 116 0
-8 121 -116 0
-9 -121 116 0
-9 121 -116 0
-10 -121 116 0
-10 121 -116 0
-51 -121 116 0
-51 121 -116 0
-117 0
-1 -117 122 0
-1 -116 122 0
-1 -122 117 116 0
-2 -122 117 0
-2 122 -117 0
-3 -122 117 0
-3 122 -117 0
-4 -122 117 0
-4 122 -117 0
-5 -122 117 0
-5 -122 118 0
-5 122 -117 -118 0
-6 -122 117 0
-6 -122 119 0
-6 122 -117 -119 0
-7 -122 117 0
-7 -122 120 0
-7 122 -117 -120 0
-8 -122 117 0
-8 122 -117 0
-9 -122 117 0
-9 122 -117 0
-10 -122 117 0
-10 122 -117 0
-51 -122 117 0
-51 122 -117 0
118 0
-1 -123 118 0
-1 123 -118 0
-2 -118 123 0
-2 -116 123 0
-2 -123 118 116 0
-3 -123 118 0
-3 123 -118 0
-4 -123 118 0
-4 123 -118 0
-5 -118 123 0
-5 -117 123 0
-5 -123 118 117 0
-6 -123 118 0
-6 123 -118 0
-7 -123 118 0
-7 123 -118 0
-8 -123 118 0
-8 -123 119 0
-8 123 -118 -119 0
-9 -123 118 0
-9 -123 120 0
-9 123 -118 -120 0
-10 -123 118 0
-10 123 -118 0
-51 -123 118 0
-51 123 -118 0
-119 0
-1 -124 119 0
-1 124 -119 0
-2 -124 119 0
-2 124 -119 0
-3 -119 124 0
-3 -116 124 0
-3 -124 119 116 0
-4 -124 119 0
-4 124 -119 0
-5 -124 119 0
-5 124 -119 0
-6 -119 124 0
-6 -117 124 0
-6 -124 119 117 0
-7 -124 119 0
-7 124 -119 0
-8 -119 124 0
-8 -118 124 0
-8 -124 119 118 0
-9 -124 119 0
-9 124 -119 0
-10 -124 119 0
-10 -124 120 0
-10 124 -119 -120 0
-51 -124 119 0
-51 124 -119 0
120 0
-1 -125 120 0
-1 125 -120 0
-2 -125 120 0
-2 125 -120 0
-3 -125 120 0
-3 125 -120 0
-4 -120 125 0
-4 -116 125 0
-4 -125 120 116 0
-5 -125 120 0
-5 125 -120 0
-6 -125 120 0
-6 125 -120 0
-7 -120 125 0
-7 -117 125 0
-7 -125 120 117 0
-8 -125 120 0
-8 125 -120 0
-9 -120 125 0
-9 -118 125 0
-9 -125 120 118 0
-10 -120 125 0
-10 -119 125 0
-10 -125 120 119 0
-51 -125 120 0
-51 125 -120 0
-11 -126 121 0
-11 -126 122 0
-11 126 -121 -122 0
-12 -126 121 0
-12 -126 123 0
-12 126 -121 -123 0
-13 -126 121 0
-13 -126 124 0
-13 126 -121 -124 0
-14 -126 121 0
-14 -126 125 0
-14 126 -121 -125 0
-15 -126 121 0
-15 126 -121 0
-16 -126 121 0
-16 126 -121 0
-17 -126 121 0
-17 126 -121 0
-18 -126 121 0
-18 126 -121 0
-19 -126 121 0
-19 126 -121 0
-20 -126 121 0
-20 126 -121 0
-52 -126 121 0
-52 126 -121 0
-11 -122 127 0
-11 -121 127 0
-11 -127 122 121 0
-12 -127 122 0
-12 127 -122 0
-13 -127 122 0
-13 127 -122 0
-14 -127 122 0
-14 127 -122 0
-15 -127 122 0
-15 -127 123 0
-15 127 -122 -123 0
-16 -127 122 0
-16 -127 124 0
-16 127 -122 -124 0
-17 -127 122 0
-17 -127 125 0
-17 127 -122 -125 0
-18 -127 122 0
-18 127 -122 0
-19 -127 122 0
-19 127 -122 0
-20 -127 122 0
-20 127 -122 0
-52 -127 122 0
-52 127 -122 0
-11 -128 123 0
-11 128 -123 0
-12 -123 128 0
-12 -121 128 0
-12 -128 123 121 0
-13 -128 123 0
-13 128 -123 0
-14 -128 123 0
-14 128 -123 0
-15 -123 128 0
-15 -122 128 0
-15 -128 123 122 0
-16 -128 123 0
-16 128 -123 0
-17 -128 123 0
-17 128 -123 0
-18 -128 123 0
-18 -128 124 0
-18 128 -123 -124 0
-19 -128 123 0
-19 -128 125 0
-19 128 -123 -125 0
-20 -128 123 0
-20 128 -123 0
-52 -128 123 0
-52 128 -123 0
-11 -129 124 0
-11 129 -124 0
-12 -129 124 0
-12 129 -124 0
-13 -124 129 0
-13 -121 129 0
-13 -129 124 121 0
-14 -129 124 0
-14 129 -124 0
-15 -129 124 0
-15 129 -124 0
-16 -124 129 0
-16 -122 129 0
-16 -129 124 122 0
-17 -129 124 0
-17 129 -124 0
-18 -124 129 0
-18 -123 129 0
-18 -129 124 123 0
-19 -129 124 0
-19 129 -124 0
-20 -129 124 0
-20 -129 125 0
-20 129 -124 -125 0
-52 -129 124 0
-52 129 -124 0
-11 -130 125 0
-11 130 -125 0
-12 -130 125 0
-12 130 -125 0
-13 -130 125 0
-13 130 -125 0
-14 -125 130 0
-14 -121 130 0
-14 -130 125 121 0
-15 -130 125 0
-15 130 -125 0
-16 -130 125 0
-16 130 -125 0
-17 -125 130 0
-17 -122 130 0
-17 -130 125 122 0
-18 -130 125 0
-18 130 -125 0
-19 -125 130 0
-19 -123 130 0
-19 -130 125 123 0
-20 -125 130 0
-20 -124 130 0
-20 -130 125 124 0
-52 -130 125 0
-52 130 -125 0
-21 -131 126 0
-21 -131 127 0
-21 131 -126 -127 0
-22 -131 126 0
-22 -131 128 0
-22 131 -126 -128 0
-23 -131 126 0
-23 -131 129 0
-23 131 -126 -129 0
-24 -131 126 0
-24 -131 130 0
-24 131 -126 -130 0
-25 -131 126 0
-25 131 -126 0
-26 -131 126 0
-26 131 -126 0
-27 -131 126 0
-27 131 -126 0
-28 -131 126 0
-28 131 -126 0
-29 -131 126 0
-29 131 -126 0
-30 -131 126 0
-30 131 -126 0
-53 -131 126 0
-53 131 -126 0
-21 -127 132 0
-21 -126 132 0
-21 -132 127 126 0
-22 -132 127 0
-22 132 -127 0
-23 -132 127 0
-23 132 -127 0
-24 -132 127 0
-24 132 -127 0
-25 -132 127 0
-25 -132 128 0
-25 132 -127 -128 0
-26 -132 127 0
-26 -132 129 0
-26 132 -127 -129 0
-27 -132 127 0
-27 -132 130 0
-27 132 -127 -130 0
-28 -132 127 0
-28 132 -127 0
-29 -132 127 0
-29 132 -127 0
-30 -132 127 0
-30 132 -127 0
-53 -132 127 0
-53 132 -127 0
-21 -133 128 0
-21 133 -128 0
-22 -128 133 0
-22 -126 133 0
-22 -133 128 126 0
-23 -133 128 0
-23 133 -128 0
-24 -133 128 0
-24 133 -128 0
-25 -128 133 0
-25 -127 133 0
-25 -133 128 127 0
-26 -133 128 0
-26 133 -128 0
-27 -133 128 0
-27 133 -128 0
-28 -133 128 0
-28 -133 129 0
-28 133 -128 -129 0
-29 -133 128 0
-29 -133 130 0
-29 133 -128 -130 0
-30 -133 128 0
-30 133 -128 0
-53 -133 128 0
-53 133 -128 0
-21 -134 129 0
-21 134 -129 0
-22 -134 129 0
-22 134 -129 0
-23 -129 134 0
-23 -126 134 0
-23 -134 129 126 0
-24 -134 129 0
-24 134 -129 0
-25 -134 129 0
-25 134 -129 0
-26 -129 134 0
-26 -127 134 0
-26 -134 129 127 0
-27 -134 129 0
-27 134 -129 0
-28 -129 134 0
-28 -128 134 0
-28 -134 129 128 0
-29 -134 129 0
-29 134 -129 0
-30 -134 129 0
-30 -134 130 0
-30 134 -129 -130 0
-53 -134 129 0
-53 134 -129 0
-21 -135 130 0
-21 135 -130 0
-22 -135 130 0
-22 135 -130 0
-23 -135 130 0
-23 135 -130 0
-24 -130 135 0
-24 -126 135 0
-24 -135 130 126 0
-25 -135 130 0
-25 135 -130 0
-26 -135 130 0
-26 135 -130 0
-27 -130 135 0
-27 -127 135 0
-27 -135 130 127 0
-28 -135 130 0
-28 135 -130 0
-29 -130 135 0
-29 -128 135 0
-29 -135 130 128 0
-30 -130 135 0
-30 -129 135 0
-30 -135 130 129 0
-53 -135 130 0
-53 135 -130 0
-31 -136 131 0
-31 -136 132 0
-31 136 -131 -132 0
-32 -136 131 0
-32 -136 133 0
-32 136 -131 -133 0
-33 -136 131 0
-33 -136 134 0
-33 136 -131 -134 0
-34 -136 131 0
-34 -136 135 0
-34 136 -131 -135 0
-35 -136 131 0
-35 136 -131 0
-36 -136 131 0
-36 136 -131 0
-37 -136 131 0
-37 136 -131 0
-38 -136 131 0
-38 136 -131 0
-39 -136 131 0
-39 136 -131 0
-40 -136 131 0
-40 136 -131 0
-54 -136 131 0
-54 136 -131 0
-31 -132 137 0
-31 -131 137 0
-31 -137 132 131 0
-32 -137 132 0
-32 137 -132 0
-33 -137 132 0
-33 137 -132 0
-34 -137 132 0
-34 137 -132 0
-35 -137 132 0
-35 -137 133 0
-35 137 -132 -133 0
-36 -137 132 0
-36 -137 134 0
-36 137 -132 -134 0
-37 -137 132 0
-37 -137 135 0
-37 137 -132 -135 0
-38 -137 132 0
-38 137 -132 0
-39 -137 132 0
-39 137 -132 0
-40 -137 132 0
-40 137 -132 0
-54 -137 132 0
-54 137 -132 0
-31 -138 133 0
-31 138 -133 0
-32 -133 138 0
-32 -131 138 0
-32 -138 133 131 0
-33 -138 133 0
-33 138 -133 0
-34 -138 133 0
-34 138 -133 0
-35 -133 138 0
-35 -132 138 0
-35 -138 133 132 0
-36 -138 133 0
-36 138 -133 0
-37 -138 133 0
-37 138 -133 0
-38 -138 133 0
-38 -138 134 0
-38 138 -133 -134 0
-39 -138 133 0
-39 -138 135 0
-39 138 -133 -135 0
-40 -138 133 0
-40 138 -133 0
-54 -138 133 0
-54 138 -133 0
-31 -139 134 0
-31 139 -134 0
-32 -139 134 0
-32 139 -134 0
-33 -134 139 0
-33 -131 139 0
-33 -139 134 131 0
-34 -139 134 0
-34 139 -134 0
-35 -139 134 0
-35 139 -134 0
-36 -134 139 0
-36 -132 139 0
-36 -139 134 132 0
-37 -139 134 0
-37 139 -134 0
-38 -134 139 0
-38 -133 139 0
-38 -139 134 133 0
-39 -139 134 0
-39 139 -134 0
-40 -139 134 0
-40 -139 135 0
-40 139 -134 -135 0
-54 -139 134 0
-54 139 -134 0
-31 -140 135 0
-31 140 -135 0
-32 -140 135 0
-32 140 -135 0
-33 -140 135 0
-33 140 -135 0
-34 -135 140 0
-34 -131 140 0
-34 -140 135 131 0
-35 -140 135 0
-35 140 -135 0
-36 -140 135 0
-36 140 -135 0
-37 -135 140 0
-37 -132 140 0
-37 -140 135 132 0
-38 -140 135 0
-38 140 -135 0
-39 -135 140 0
-39 -133 140 0
-39 -140 135 133 0
-40 -135 140 0
-40 -134 140 0
-40 -140 135 134 0
-54 -140 135 0
-54 140 -135 0
-41 -141 136 0
-41 -141 137 0
-41 141 -136 -137 0
-42 -141 136 0
-42 -141 138 0
-42 141 -136 -138 0
-43 -141 136 0
-43 -141 139 0
-43 141 -136 -139 0
-44 -141 136 0
-44 -141 140 0
-44 141 -136 -140 0
-45 -141 136 0
-45 141 -136 0
-46 -141 136 0
-46 141 -136 0
-47 -141 136 0
-47 141 -136 0
-48 -141 136 0
-48 141 -136 0
-49 -141 136 0
-49 141 -136 0
-50 -141 136 0
-50 141 -136 0
-55 -141 136 0
-55 141 -136 0
-41 -137 142 0
-41 -136 142 0
-41 -142 137 136 0
-42 -142 137 0
-42 142 -137 0
-43 -142 137 0
-43 142 -137 0
-44 -142 137 0
-44 142 -137 0
-45 -142 137 0
-45 -142 138 0
-45 142 -137 -138 0
-46 -142 137 0
-46 -142 139 0
-46 142 -137 -139 0
-47 -142 137 0
-47 -142 140 0
-47 142 -137 -140 0
-48 -142 137 0
-48 142 -137 0
-49 -142 137 0
-49 142 -137 0
-50 -142 137 0
-50 142 -137 0
-55 -142 137 0
-55 142 -137 0
-41 -143 138 0
-41 143 -138 0
-42 -138 143 0
-42 -136 143 0
-42 -143 138 136 0
-43 -143 138 0
-43 143 -138 0
-44 -143 138 0
-44 143 -138 0
-45 -138 143 0
-45 -137 143 0
-45 -143 138 137 0
-46 -143 138 0
-46 143 -138 0
-47 -143 138 0
-47 143 -138 0
-48 -143 138 0
-48 -143 139 0
-48 143 -138 -139 0
-49 -143 138 0
-49 -143 140 0
-49 143 -138 -140 0
-50 -143 138 0
-50 143 -138 0
-55 -143 138 0
-55 143 -138 0
-41 -144 139 0
-41 144 -139 0
-42 -144 139 0
-42 144 -139 0
-43 -139 144 0
-43 -136 144 0
-43 -144 139 136 0
-44 -144 139 0
-44 144 -139 0
-45 -144 139 0
-45 144 -139 0
-46 -139 144 0
-46 -137 144 0
-46 -144 139 137 0
-47 -144 139 0
-47 144 -139 0
-48 -139 144 0
-48 -138 144 0
-48 -144 139 138 0
-49 -144 139 0
-49 144 -139 0
-50 -144 139 0
-50 -144 140 0
-50 144 -139 -140 0
-55 -144 139 0
-55 144 -139 0
-41 -145 140 0
-41 145 -140 0
-42 -145 140 0
-42 145 -140 0
-43 -145 140 0
-43 145 -140 0
-44 -140 145 0
-44 -136 145 0
-44 -145 140 136 0
-45 -145 140 0
-45 145 -140 0
-46 -145 140 0
-46 145 -140 0
-47 -140 145 0
-47 -137 145 0
-47 -145 140 137 0
-48 -145 140 0
-48 145 -140 0
-49 -140 145 0
-49 -138 145 0
-49 -145 140 138 0
-50 -140 145 0
-50 -139 145 0
-50 -145 140 139 0
-55 -145 140 0
-55 145 -140 0
-146 0
-1 -151 146 0
-1 -151 147 0
-1 151 -146 -147 0
-2 -151 146 0
-2 -151 148 0
-2 151 -146 -148 0
-3 -151 146 0
-3 -151 149 0
-3 151 -146 -149 0
-4 -151 146 0
-4 -151 150 0
-4 151 -146 -150 0
-5 -151 146 0
-5 151 -146 0
-6 -151 146 0
-6 151 -146 0
-7 -151 146 0
-7 151 -146 0
-8 -151 146 0
-8 151 -146 0
-9 -151 146 0
-9 151 -146 0
-10 -151 146 0
-10 151 -146 0
-51 -151 146 0
-51 151 -146 0
-147 0
-1 -147 152 0
-1 -146 152 0
-1 -152 147 146 0
-2 -152 147 0
-2 152 -147 0
-3 -152 147 0
-3 152 -147 0
-4 -152 147 0
-4 152 -147 0
-5 -152 147 0
-5 -152 148 0
-5 152 -147 -148 0
-6 -152 147 0
-6 -152 149 0
-6 152 -147 -149 0
-7 -152 147 0
-7 -152 150 0
-7 152 -147 -150 0
-8 -152 147 0
-8 152 -147 0
-9 -152 147 0
-9 152 -147 0
-10 -152 147 0
-10 152 -147 0
-51 -152 147 0
-51 152 -147 0
148 0
-1 -153 148 0
-1 153 -148 0
-2 -148 153 0
-2 -146 153 0
-2 -153 148 146 0
-3 -153 148 0
-3 153 -148 0
-4 -153 148 0
-4 153 -148 0
-5 -148 153 0
-5 -147 153 0
-5 -153 148 147 0
-6 -153 148 0
-6 153 -148 0
-7 -153 148 0
-7 153 -148 0
-8 -153 148 0
-8 -153 149 0
-8 153 -148 -149 0
-9 -153 148 0
-9 -153 150 0
-9 153 -148 -150 0
-10 -153 148 0
-10 153 -148 0
-51 -153 148 0
-51 153 -148 0
149 0
-1 -154 149 0
-1 154 -149 0
-2 -154 149 0
-2 154 -149 0
-3 -149 154 0
-3 -146 154 0
-3 -154 149 146 0
-4 -154 149 0
-4 154 -149 0
-5 -154 149 0
-5 154 -149 0
-6 -149 154 0
-6 -147 154 0
-6 -154 149 147 0
-7 -154 149 0
-7 154 -149 0
-8 -149 154 0
-8 -148 154 0
-8 -154 149 148 0
-9 -154 149 0
-9 154 -149 0
-10 -154 149 0
-10 -154 150 0
-10 154 -149 -150 0
-51 -154 149 0
-51 154 -149 0
-150 0
-1 -155 150 0
-1 155 -150 0
-2 -155 150 0
-2 155 -150 0
-3 -155 150 0
-3 155 -150 0
-4 -150 155 0
-4 -146 155 0
-4 -155 150 146 0
-5 -155 150 0
-5 155 -150 0
-6 -155 150 0
-6 155 -150 0
-7 -150 155 0
-7 -147 155 0
-7 -155 150 147 0
-8 -155 150 0
-8 155 -150 0
-9 -150 155 0
-9 -148 155 0
-9 -155 150 148 0
-10 -150 155 0
-10 -149 155 0
-10 -155 150 149 0
-51 -155 150 0
-51 155 -150 0
-11 -156 151 0
-11 -156 152 0
-11 156 -151 -152 0
-12 -156 151 0
-12 -156 153 0
-12 156 -151 -153 0
-13 -156 151 0
-13 -156 154 0
-13 156 -151 -154 0
-14 -156 151 0
-14 -156 155 0
-14 156 -151 -155 0
-15 -156 151 0
-15 156 -151 0
-16 -156 151 0
-16 156 -151 0
-17 -156 151 0
-17 156 -151 0
-18 -156 151 0
-18 156 -151 0
-19 -156 151 0
-19 156 -151 0
-20 -156 151 0
-20 156 -151 0
-52 -156 151 0
-52 156 -151 0
-11 -152 157 0
-11 -151 157 0
-11 -157 152 151 0
-12 -157 152 0
-12 157 -152 0
-13 -157 152 0
-13 157 -152 0
-14 -157 152 0
-14 157 -152 0
-15 -157 152 0
-15 -157 153 0
-15 157 -152 -153 0
-16 -157 152 0
-16 -157 154 0
-16 157 -152 -154 0
-17 -157 152 0
-17 -157 155 0
-17 157 -152 -155 0
-18 -157 152 0
-18 157 -152 0
-19 -157 152 0
-19 157 -152 0
-20 -157 152 0
-20 157 -152 0
-52 -157 152 0
-52 157 -152 0
-11 -158 153 0
-11 158 -153 0
-12 -153 158 0
-12 -151 158 0
-12 -158 153 151 0
-13 -158 153 0
-13 158 -153 0
-14 -158 153 0
-14 158 -153 0
-15 -153 158 0
-15 -152 158 0
-15 -158 153 152 0
-16 -158 153 0
-16 158 -153 0
-17 -158 153 0
-17 158 -153 0
-18 -158 153 0
-18 -158 154 0
-18 158 -153 -154 0
-19 -158 153 0
-19 -158 155 0
-19 158 -153 -155 0
-20 -158 153 0
-20 158 -153 0
-52 -158 153 0
-52 158 -153 0
-11 -159 154 0
-11 159 -154 0
-12 -159 154 0
-12 159 -154 0
-13 -154 159 0
-13 -151 159 0
-13 -159 154 151 0
-14 -159 154 0
-14 159 -154 0
-15 -159 154 0
-15 159 -154 0
-16 -154 159 0
-16 -152 159 0
-16 -159 154 152 0
-17 -159 154 0
-17 159 -154 0
-18 -154 159 0
-18 -153 159 0
-18 -159 154 153 0
-19 -159 154 0
-19 159 -154 0
-20 -159 154 0
-20 -159 155 0
-20 159 -154 -155 0
-52 -159 154 0
-52 159 -154 0
-11 -160 155 0
-11 160 -155 0
-12 -160 155 0
-12 160 -155 0
-13 -160 155 0
-13 160 -155 0
-14 -155 160 0
-14 -151 160 0
-14 -160 155 151 0
-15 -160 155 0
-15 160 -155 0
-16 -160 155 0
-16 160 -155 0
-17 -155 160 0
-17 -152 160 0
-17 -160 155 152 0
-18 -160 155 0
-18 160 -155 0
-19 -155 160 0
-19 -153 160 0
-19 -160 155 153 0
-20 -155 160 0
-20 -154 160 0
-20 -160 155 154 0
-52 -160 155 0
-52 160 -155 0
-21 -161 156 0
-21 -161 157 0
-21 161 -156 -157 0
-22 -161 156 0
-22 -161 158 0
-22 161 -156 -158 0
-23 -161 156 0
-23 -161 159 0
-23 161 -156 -159 0
-24 -161 156 0
-24 -161 160 0
-24 161 -156 -160 0
-25 -161 156 0
-25 161 -156 0
-26 -161 156 0
-26 161 -156 0
-27 -161 156 0
-27 161 -156 0
-28 -161 156 0
-28 161 -156 0
-29 -161 156 0
-29 161 -156 0
-30 -161 156 0
-30 161 -156 0
-53 -161 156 0
-53 161 -156 0
-21 -157 162 0
-21 -156 162 0
-21 -162 157 156 0
-22 -162 157 0
-22 162 -157 0
-23 -162 157 0
-23 162 -157 0
-24 -162 157 0
-24 162 -157 0
-25 -162 157 0
-25 -162 158 0
-25 162 -157 -158 0
-26 -162 157 0
-26 -162 159 0
-26 162 -157 -159 0
-27 -162 157 0
-27 -162 160 0
-27 162 -157 -160 0
-28 -162 157 0
-28 162 -157 0
-29 -162 157 0
-29 162 -157 0
-30 -162 157 0
-30 162 -157 0
-53 -162 157 0
-53 162 -157 0
-21 -163 158 0
-21 163 -158 0
-22 -158 163 0
-22 -156 163 0
-22 -163 158 156 0
-23 -163 158 0
-23 163 -158 0
-24 -163 158 0
-24 163 -158 0
-25 -158 163 0
-25 -157 163 0
-25 -163 158 157 0
-26 -163 158 0
-26 163 -158 0
-27 -163 158 0
-27 163 -158 0
-28 -163 158 0
-28 -163 159 0
-28 163 -158 -159 0
-29 -163 158 0
-29 -163 160 0
-29 163 -158 -160 0
-30 -163 158 0
-30 163 -158 0
-53 -163 158 0
-53 163 -158 0
-21 -164 159 0
-21 164 -159 0
-22 -164 159 0
-22 164 -159 0
-23 -159 164 0
-23 -156 164 0
-23 -164 159 156 0
-24 -164 159 0
-24 164 -159 0
-25 -164 159 0
-25 164 -159 0
-26 -159 164 0
-26 -157 164 0
-26 -164 159 157 0
-27 -164 159 0
-27 164 -159 0
-28 -159 164 0
-28 -158 164 0
-28 -164 159 158 0
-29 -164 159 0
-29 164 -159 0
-30 -164 159 0
-30 -164 160 0
-30 164 -159 -160 0
-53 -164 159 0
-53 164 -159 0
-21 -165 160 0
-21 165 -160 0
-22 -165 160 0
-22 165 -160 0
-23 -165 160 0
-23 165 -160 0
-24 -160 165 0
-24 -156 165 0
-24 -165 160 156 0
-25 -165 160 0
-25 165 -160 0
-26 -165 160 0
-26 165 -160 0
-27 -160 165 0
-27 -157 165 0
-27 -165 160 157 0
-28 -165 160 0
-28 165 -160 0
-29 -160 165 0
-29 -158 165 0
-29 -165 160 158 0
-30 -160 165 0
-30 -159 165 0
-30 -165 160 159 0
-53 -165 160 0
-53 165 -160 0
-31 -166 161 0
-31 -166 162 0
-31 166 -161 -162 0
-32 -166 161 0
-32 -166 163 0
-32 166 -161 -163 0
-33 -166 161 0
-33 -166 164 0
-33 166 -161 -164 0
-34 -166 161 0
-34 -166 165 0
-34 166 -161 -165 0
-35 -166 161 0
-35 166 -161 0
-36 -166 161 0
-36 166 -161 0
-37 -166 161 0
-37 166 -161 0
-38 -166 161 0
-38 166 -161 0
-39 -166 161 0
-39 166 -161 0
-40 -166 161 0
-40 166 -161 0
-54 -166 161 0
-54 166 -161 0
-31 -162 167 0
-31 -161 167 0
-31 -167 162 161 0
-32 -167 162 0
-32 167 -162 0
-33 -167 162 0
-33 167 -162 0
-34 -167 162 0
-34 167 -162 0
-35 -167 162 0
-35 -167 163 0
-35 167 -162 -163 0
-36 -167 162 0
-36 -167 164 0
-36 167 -162 -164 0
-37 -167 162 0
-37 -167 165 0
-37 167 -162 -165 0
-38 -167 162 0
-38 167 -162 0
-39 -167 162 0
-39 167 -162 0
-40 -167 162 0
-40 167 -162 0
-54 -167 162 0
-54 167 -162 0
-31 -168 163 0
-31 168 -163 0
-32 -163 168 0
-32 -161 168 0
-32 -168 163 161 0
-33 -168 163 0
-33 168 -163 0
-34 -168 163 0
-34 168 -163 0
-35 -163 168 0
-35 -162 168 0
-35 -168 163 162 0
-36 -168 163 0
-36 168 -163 0
-37 -168 163 0
-37 168 -163 0
-38 -168 163 0
-38 -168 164 0
-38 168 -163 -164 0
-39 -168 163 0
-39 -168 165 0
-39 168 -163 -165 0
-40 -168 163 0
-40 168 -163 0
-54 -168 163 0
-54 168 -163 0
-31 -169 164 0
-31 169 -164 0
-32 -169 164 0
-32 169 -164 0
-33 -164 169 0
-33 -161 169 0
-33 -169 164 161 0
-34 -169 164 0
-34 169 -164 0
-35 -169 164 0
-35 169 -164 0
-36 -164 169 0
-36 -162 169 0
-36 -169 164 162 0
-37 -169 164 0
-37 169 -164 0
-38 -164 169 0
-38 -163 169 0
-38 -169 164 163 0
-39 -169 164 0
-39 169 -164 0
-40 -169 164 0
-40 -169 165 0
-40 169 -164 -165 0
-54 -169 164 0
-54 169 -164 0
-31 -170 165 0
-31 170 -165 0
-32 -170 165 0
-32 170 -165 0
-33 -170 165 0
-33 170 -165 0
-34 -165 170 0
-34 -161 170 0
-34 -170 165 161 0
-35 -170 165 0
-35 170 -165 0
-36 -170 165 0
-36 170 -165 0
-37 -165 170 0
-37 -162 170 0
-37 -170 165 162 0
-38 -170 165 0
-38 170 -165 0
-39 -165 170 0
-39 -163 170 0
-39 -170 165 163 0
-40 -165 170 0
-40 -164 170 0
-40 -170 165 164 0
-54 -170 165 0
-54 170 -165 0
-41 -171 166 0
-41 -171 167 0
-41 171 -166 -167 0
-42 -171 166 0
-42 -171 168 0
-42 171 -166 -168 0
-43 -171 166 0
-43 -171 169 0
-43 171 -166 -169 0
-44 -171 166 0
-44 -171 170 0
-44 171 -166 -170 0
-45 -171 166 0
-45 171 -166 0
-46 -171 166 0
-46 171 -166 0
-47 -171 166 0
-47 171 -166 0
-48 -171 166 0
-48 171 -166 0
-49 -171 166 0
-49 171 -166 0
-50 -171 166 0
-50 171 -166 0
-55 -171 166 0
-55 171 -166 0
-41 -167 172 0
-41 -166 172 0
-41 -172 167 166 0
-42 -172 167 0
-42 172 -167 0
-43 -172 167 0
-43 172 -167 0
-44 -172 167 0
-44 172 -167 0
-45 -172 167 0
-45 -172 168 0
-45 172 -167 -168 0
-46 -172 167 0
-46 -172 169 0
-46 172 -167 -169 0
-47 -172 167 0
-47 -172 170 0
-47 172 -167 -170 0
-48 -172 167 0
-48 172 -167 0
-49 -172 167 0
-49 172 -167 0
-50 -172 167 0
-50 172 -167 0
-55 -172 167 0
-55 172 -167 0
-41 -173 168 0
-41 173 -168 0
-42 -168 173 0
-42 -166 173 0
-42 -173 168 166 0
-43 -173 168 0
-43 173 -168 0
-44 -173 168 0
-44 173 -168 0
-45 -168 173 0
-45 -167 173 0
-45 -173 168 167 0
-46 -173 168 0
-46 173 -168 0
-47 -173 168 0
-47 173 -168 0
-48 -173 168 0
-48 -173 169 0
-48 173 -168 -169 0
-49 -173 168 0
-49 -173 170 0
-49 173 -168 -170 0
-50 -173 168 0
-50 173 -168 0
-55 -173 168 0
-55 173 -168 0
-41 -174 169 0
-41 174 -169 0
-42 -174 169 0
-42 174 -169 0
-43 -169 174 0
-43 -166 174 0
-43 -174 169 166 0
-44 -174 169 0
-44 174 -169 0
-45 -174 169 0
-45 174 -169 0
-46 -169 174 0
-46 -167 174 0
-46 -174 169 167 0
-47 -174 169 0
-47 174 -169 0
-48 -169 174 0
-48 -168 174 0
-48 -174 169 168 0
-49 -174 169 0
-49 174 -169 0
-50 -174 169 0
-50 -174 170 0
-50 174 -169 -170 0
-55 -174 169 0
-55 174 -169 0
-41 -175 170 0
-41 175 -170 0
-42 -175 170 0
-42 175 -170 0
-43 -175 170 0
-43 175 -170 0
-44 -170 175 0
-44 -166 175 0
-44 -175 170 166 0
-45 -175 170 0
-45 175 -170 0
-46 -175 170 0
-46 175 -170 0
-47 -170 175 0
-47 -167 175 0
-47 -175 170 167 0
-48 -175 170 0
-48 175 -170 0
-49 -170 175 0
-49 -168 175 0
-49 -175 170 168 0
-50 -170 175 0
-50 -169 175 0
-50 -175 170 169 0
-55 -175 170 0
-55 175 -170 0
-176 0
-1 -181 176 0
-1 -181 177 0
-1 181 -176 -177 0
-2 -181 176 0
-2 -181 178 0
-2 181 -176 -178 0
-3 -181 176 0
-3 -181 179 0
-3 181 -176 -179 0
-4 -181 176 0
-4 -181 180 0
-4 181 -176 -180 0
-5 -181 176 0
-5 181 -176 0
-6 -181 176 0
-6 181 -176 0
-7 -181 176 0
-7 181 -176 0
-8 -181 176 0
-8 181 -176 0
-9 -181 176 0
-9 181 -176 0
-10 -181 176 0
-10 181 -176 0
-51 -181 176 0
-51 181 -176 0
177 0
-1 -177 182 0
-1 -176 182 0
-1 -182 177 176 0
-2 -182 177 0
-2 182 -177 0
-3 -182 177 0
-3 182 -177 0
-4 -182 177 0
-4 182 -177 0
-5 -182 177 0
-5 -182 178 0
-5 182 -177 -178 0
-6 -182 177 0
-6 -182 179 0
-6 182 -177 -179 0
-7 -182 177 0
-7 -182 180 0
-7 182 -177 -180 0
-8 -182 177 0
-8 182 -177 0
-9 -182 177 0
-9 182 -177 0
-10 -182 177 0
-10 182 -177 0
-51 -182 177 0
-51 182 -177 0
-178 0
-1 -183 178 0
-1 183 -178 0
-2 -178 183 0
-2 -176 183 0
-2 -183 178 176 0
-3 -183 178 0
-3 183 -178 0
-4 -183 178 0
-4 183 -178 0
-5 -178 183 0
-5 -177 183 0
-5 -183 178 177 0
-6 -183 178 0
-6 183 -178 0
-7 -183 178 0
-7 183 -178 0
-8 -183 178 0
-8 -183 179 0
-8 183 -178 -179 0
-9 -183 178 0
-9 -183 180 0
-9 183 -178 -180 0
-10 -183 178 0
-10 183 -178 0
-51 -183 178 0
-51 183 -178 0
-179 0
-1 -184 179 0
-1 184 -179 0
-2 -184 179 0
-2 184 -179 0
-3 -179 184 0
-3 -176 184 0
-3 -184 179 176 0
-4 -184 179 0
-4 184 -179 0
-5 -184 179 0
-5 184 -179 0
-6 -179 184 0
-6 -177 184 0
-6 -184 179 177 0
-7 -184 179 0
-7 184 -179 0
-8 -179 184 0
-8 -178 184 0
-8 -184 179 178 0
-9 -184 179 0
-9 184 -179 0
-10 -184 179 0
-10 -184 180 0
-10 184 -179 -180 0
-51 -184 179 0
-51 184 -179 0
-180 0
-1 -185 180 0
-1 185 -180 0
-2 -185 180 0
-2 185 -180 0
-3 -185 180 0
-3 185 -180 0
-4 -180 185 0
-4 -176 185 0
-4 -185 180 176 0
-5 -185 180 0
-5 185 -180 0
-6 -185 180 0
-6 185 -180 0
-7 -180 185 0
-7 -177 185 0
-7 -185 180 177 0
-8 -185 180 0
-8 185 -180 0
-9 -180 185 0
-9 -178 185 0
-9 -185 180 178 0
-10 -180 185 0
-10 -179 185 0
-10 -185 180 179 0
-51 -185 180 0
-51 185 -180 0
-11 -186 181 0
-11 -186 182 0
-11 186 -181 -182 0
-12 -186 181 0
-12 -186 183 0
-12 186 -181 -183 0
-13 -186 181 0
-13 -186 184 0
-13 186 -181 -184 0
-14 -186 181 0
-14 -186 185 0
-14 186 -181 -185 0
-15 -186 181 0
-15 186 -181 0
-16 -186 181 0
-16 186 -181 0
-17 -186 181 0
-17 186 -181 0
-18 -186 181 0
-18 186 -181 0
-19 -186 181 0
-19 186 -181 0
-20 -186 181 0
-20 186 -181 0
-52 -186 181 0
-52 186 -181 0
-11 -182 187 0
-11 -181 187 0
-11 -187 182 181 0
-12 -187 182 0
-12 187 -182 0
-13 -187 182 0
-13 187 -182 0
-14 -187 182 0
-14 187 -182 0
-15 -187 182 0
-15 -187 183 0
-15 187 -182 -183 0
-16 -187 182 0
-16 -187 184 0
-16 187 -182 -184 0
-17 -187 182 0
-17 -187 185 0
-17 187 -182 -185 0
-18 -187 182 0
-18 187 -182 0
-19 -187 182 0
-19 187 -182 0
-20 -187 182 0
-20 187 -182 0
-52 -187 182 0
-52 187 -182 0
-11 -188 183 0
-11 188 -183 0
-12 -183 188 0
-12 -181 188 0
-12 -188 183 181 0
-13 -188 183 0
-13 188 -183 0
-14 -188 183 0
-14 188 -183 0
-15 -183 188 0
-15 -182 188 0
-15 -188 183 182 0
-16 -188 183 0
-16 188 -183 0
-17 -188 183 0
-17 188 -183 0
-18 -188 183 0
-18 -188 184 0
-18 188 -183 -184 0
-19 -188 183 0
-19 -188 185 0
-19 188 -183 -185 0
-20 -188 183 0
-20 188 -183 0
-52 -188 183 0
-52 188 -183 0
-11 -189 184 0
-11 189 -184 0
-12 -189 184 0
-12 189 -184 0
-13 -184 189 0
-13 -181 189 0
-13 -189 184 181 0
-14 -189 184 0
-14 189 -184 0
-15 -189 184 0
-15 189 -184 0
-16 -184 189 0
-16 -182 189 0
-16 -189 184 182 0
-17 -189 184 0
-17 189 -184 0
-18 -184 189 0
-18 -183 189 0
-18 -189 184 183 0
-19 -189 184 0
-19 189 -184 0
-20 -189 184 0
-20 -189 185 0
-20 189 -184 -185 0
-52 -189 184 0
-52 189 -184 0
-11 -190 185 0
-11 190 -185 0
-12 -190 185 0
-12 190 -185 0
-13 -190 185 0
-13 190 -185 0
-14 -185 190 0
-14 -181 190 0
-14 -190 185 181 0
-15 -190 185 0
-15 190 -185 0
-16 -190 185 0
-16 190 -185 0
-17 -185 190 0
-17 -182 190 0
-17 -190 185 182 0
-18 -190 185 0
-18 190 -185 0
-19 -185 190 0
-19 -183 190 0
-19 -190 185 183 0
-20 -185 190 0
-20 -184 190 0
-20 -190 185 184 0
-52 -190 185 0
-52 190 -185 0
-21 -191 186 0
-21 -191 187 0
-21 191 -186 -187 0
-22 -191 186 0
-22 -191 188 0
-22 191 -186 -188 0
-23 -191 186 0
-23 -191 189 0
-23 191 -186 -189 0
-24 -191 186 0
-24 -191 190 0
-24 191 -186 -190 0
-25 -191 186 0
-25 191 -186 0
-26 -191 186 0
-26 191 -186 0
-27 -191 186 0
-27 191 -186 0
-28 -191 186 0
-28 191 -186 0
-29 -191 186 0
-29 191 -186 0
-30 -191 186 0
-30 191 -186 0
-53 -191 186 0
-53 191 -186 0
-21 -187 192 0
-21 -186 192 0
-21 -192 187 186 0
-22 -192 187 0
-22 192 -187 0
-23 -192 187 0
-23 192 -187 0
-24 -192 187 0
-24 192 -187 0
-25 -192 187 0
-25 -192 188 0
-25 192 -187 -188 0
-26 -192 187 0
-26 -192 189 0
-26 192 -187 -189 0
-27 -192 187 0
-27 -192 190 0
-27 192 -187 -190 0
-28 -192 187 0
-28 192 -187 0
-29 -192 187 0
-29 192 -187 0
-30 -192 187 0
-30 192 -187 0
-53 -192 187 0
-53 192 -187 0
-21 -193 188 0
-21 193 -188 0
-22 -188 193 0
-22 -186 193 0
-22 -193 188 186 0
-23 -193 188 0
-23 193 -188 0
-24 -193 188 0
-24 193 -188 0
-25 -188 193 0
-25 -187 193 0
-25 -193 188 187 0
-26 -193 188 0
-26 193 -188 0
-27 -193 188 0
-27 193 -188 0
-28 -193 188 0
-28 -193 189 0
-28 193 -188 -189 0
-29 -193 188 0
-29 -193 190 0
-29 193 -188 -190 0
-30 -193 188 0
-30 193 -188 0
-53 -193 188 0
-53 193 -188 0
-21 -194 189 0
-21 194 -189 0
-22 -194 189 0
-22 194 -189 0
-23 -189 194 0
-23 -186 194 0
-23 -194 189 186 0
-24 -194 189 0
-24 194 -189 0
-25 -194 189 0
-25 194 -189 0
-26 -189 194 0
-26 -187 194 0
-26 -194 189 187 0
-27 -194 189 0
-27 194 -189 0
-28 -189 194 0
-28 -188 194 0
-28 -194 189 188 0
-29 -194 189 0
-29 194 -189 0
-30 -194 189 0
-30 -194 190 0
-30 194 -189 -190 0
-53 -194 189 0
-53 194 -189 0
-21 -195 190 0
-21 195 -190 0
-22 -195 190 0
-22 195 -190 0
-23 -195 190 0
-23 195 -190 0
-24 -190 195 0
-24 -186 195 0
-24 -195 190 186 0
-25 -195 190 0
-25 195 -190 0
-26 -195 190 0
-26 195 -190 0
-27 -190 195 0
-27 -187 195 0
-27 -195 190 187 0
-28 -195 190 0
-28 195 -190 0
-29 -190 195 0
-29 -188 195 0
-29 -195 190 188 0
-30 -190 195 0
-30 -189 195 0
-30 -195 190 189 0
-53 -195 190 0
-53 195 -190 0
-31 -196 191 0
-31 -196 192 0
-31 196 -191 -192 0
-32 -196 191 0
-32 -196 193 0
-32 196 -191 -193 0
-33 -196 191 0
-33 -196 194 0
-33 196 -191 -194 0
-34 -196 191 0
-34 -196 195 0
-34 196 -191 -195 0
-35 -196 191 0
-35 196 -191 0
-36 -196 191 0
-36 196 -191 0
-37 -196 191 0
-37 196 -191 0
-38 -196 191 0
-38 196 -191 0
-39 -196 191 0
-39 196 -191 0
-40 -196 191 0
-40 196 -191 0
-54 -196 191 0
-54 196 -191 0
-31 -192 197 0
-31 -191 197 0
-31 -197 192 191 0
-32 -197 192 0
-32 197 -192 0
-33 -197 192 0
-33 197 -192 0
-34 -197 192 0
-34 197 -192 0
-35 -197 192 0
-35 -197 193 0
-35 197 -192 -193 0
-36 -197 192 0
-36 -197 194 0
-36 197 -192 -194 0
-37 -197 192 0
-37 -197 195 0
-37 197 -192 -195 0
-38 -197 192 0
-38 197 -192 0
-39 -197 192 0
-39 197 -192 0
-40 -197 192 0
-40 197 -192 0
-54 -197 192 0
-54 197 -192 0
-31 -198 193 0
-31 198 -193 0
-32 -193 198 0
-32 -191 198 0
-32 -198 193 191 0
-33 -198 193 0
-33 198 -193 0
-34 -198 193 0
-34 198 -193 0
-35 -193 198 0
-35 -192 198 0
-35 -198 193 192 0
-36 -198 193 0
-36 198 -193 0
-37 -198 193 0
-37 198 -193 0
-38 -198 193 0
-38 -198 194 0
-38 198 -193 -194 0
-39 -198 193 0
-39 -198 195 0
-39 198 -193 -195 0
-40 -198 193 0
-40 198 -193 0
-54 -198 193 0
-54 198 -193 0
-31 -199 194 0
-31 199 -194 0
-32 -199 194 0
-32 199 -194 0
-33 -194 199 0
-33 -191 199 0
-33 -199 194 191 0
-34 -199 194 0
-34 199 -194 0
-35 -199 194 0
-35 199 -194 0
-36 -194 199 0
-36 -192 199 0
-36 -199 194 192 0
-37 -199 194 0
-37 199 -194 0
-38 -194 199 0
-38 -193 199 0
-38 -199 194 193 0
-39 -199 194 0
-39 199 -194 0
-40 -199 194 0
-40 -199 195 0
-40 199 -194 -195 0
-54 -199 194 0
-54 199 -194 0
-31 -200 195 0
-31 200 -195 0
-32 -200 195 0
-32 200 -195 0
-33 -200 195 0
-33 200 -195 0
-34 -195 200 0
-34 -191 200 0
-34 -200 195 191 0
-35 -200 195 0
-35 200 -195 0
-36 -200 195 0
-36 200 -195 0
-37 -195 200 0
-37 -192 200 0
-37 -200 195 192 0
-38 -200 195 0
-38 200 -195 0
-39 -195 200 0
-39 -193 200 0
-39 -200 195 193 0
-40 -195 200 0
-40 -194 200 0
-40 -200 195 194 0
-54 -200 195 0
-54 200 -195 0
-41 -201 196 0
-41 -201 197 0
-41 201 -196 -197 0
-42 -201 196 0
-42 -201 198 0
-42 201 -196 -198 0
-43 -201 196 0
-43 -201 199 0
-43 201 -196 -199 0
-44 -201 196 0
-44 -201 200 0
-44 201 -196 -200 0
-45 -201 196 0
-45 201 -196 0
-46 -201 196 0
-46 201 -196 0
-47 -201 196 0
-47 201 -196 0
-48 -201 196 0
-48 201 -196 0
-49 -201 196 0
-49 201 -196 0
-50 -201 196 0
-50 201 -196 0
-55 -201 196 0
-55 201 -196 0
-41 -197 202 0
-41 -196 202 0
-41 -202 197 196 0
-42 -202 197 0
-42 202 -197 0
-43 -202 197 0
-43 202 -197 0
-44 -202 197 0
-44 202 -197 0
-45 -202 197 0
-45 -202 198 0
-45 202 -197 -198 0
-46 -202 197 0
-46 -202 199 0
-46 202 -197 -199 0
-47 -202 197 0
-47 -202 200 0
-47 202 -197 -200 0
-48 -202 197 0
-48 202 -197 0
-49 -202 197 0
-49 202 -197 0
-50 -202 197 0
-50 202 -197 0
-55 -202 197 0
-55 202 -197 0
-41 -203 198 0
-41 203 -198 0
-42 -198 203 0
-42 -196 203 0
-42 -203 198 196 0
-43 -203 198 0
-43 203 -198 0
-44 -203 198 0
-44 203 -198 0
-45 -198 203 0
-45 -197 203 0
-45 -203 198 197 0
-46 -203 198 0
-46 203 -198 0
-47 -203 198 0
-47 203 -198 0
-48 -203 198 0
-48 -203 199 0
-48 203 -198 -199 0
-49 -203 198 0
-49 -203 200 0
-49 203 -198 -200 0
-50 -203 198 0
-50 203 -198 0
-55 -203 198 0
-55 203 -198 0
-41 -204 199 0
-41 204 -199 0
-42 -204 199 0
-42 204 -199 0
-43 -199 204 0
-43 -196 204 0
-43 -204 199 196 0
-44 -204 199 0
-44 204 -199 0
-45 -204 199 0
-45 204 -199 0
-46 -199 204 0
-46 -197 204 0
-46 -204 199 197 0
-47 -204 199 0
-47 204 -199 0
-48 -199 204 0
-48 -198 204 0
-48 -204 199 198 0
-49 -204 199 0
-49 204 -199 0
-50 -204 199 0
-50 -204 200 0
-50 204 -199 -200 0
-55 -204 199 0
-55 204 -199 0
-41 -205 200 0
-41 205 -200 0
-42 -205 200 0
-42 205 -200 0
-43 -205 200 0
-43 205 -200 0
-44 -200 205 0
-44 -196 205 0
-44 -205 200 196 0
-45 -205 200 0
-45 205 -200 0
-46 -205 200 0
-46 205 -200 0
-47 -200 205 0
-47 -197 205 0
-47 -205 200 197 0
-48 -205 200 0
-48 205 -200 0
-49 -200 205 0
-49 -198 205 0
-49 -205 200 198 0
-50 -200 205 0
-50 -199 205 0
-50 -205 200 199 0
-55 -205 200 0
-55 205 -200 0
-206 0
-1 -211 206 0
-1 -211 207 0
-1 211 -206 -207 0
-2 -211 206 0
-2 -211 208 0
-2 211 -206 -208 0
-3 -211 206 0
-3 -211 209 0
-3 211 -206 -209 0
-4 -211 206 0
-4 -211 210 0
-4 211 -206 -210 0
-5 -211 206 0
-5 211 -206 0
-6 -211 206 0
-6 211 -206 0
-7 -211 206 0
-7 211 -206 0
-8 -211 206 0
-8 211 -206 0
-9 -211 206 0
-9 211 -206 0
-10 -211 206 0
-10 211 -206 0
-51 -211 206 0
-51 211 -206 0
207 0
-1 -207 212 0
-1 -206 212 0
-1 -212 207 206 0
-2 -212 207 0
-2 212 -207 0
-3 -212 207 0
-3 212 -207 0
-4 -212 207 0
-4 212 -207 0
-5 -212 207 0
-5 -212 208 0
-5 212 -207 -208 0
-6 -212 207 0
-6 -212 209 0
-6 212 -207 -209 0
-7 -212 207 0
-7 -212 210 0
-7 212 -207 -210 0
-8 -212 207 0
-8 212 -207 0
-9 -212 207 0
-9 212 -207 0
-10 -212 207 0
-10 212 -207 0
-51 -212 207 0
-51 212 -207 0
-208 0
-1 -213 208 0
-1 213 -208 0
-2 -208 213 0
-2 -206 213 0
-2 -213 208 206 0
-3 -213 208 0
-3 213 -208 0
-4 -213 208 0
-4 213 -208 0
-5 -208 213 0
-5 -207 213 0
-5 -213 208 207 0
-6 -213 208 0
-6 213 -208 0
-7 -213 208 0
-7 213 -208 0
-8 -213 208 0
-8 -213 209 0
-8 213 -208 -209 0
-9 -213 208 0
-9 -213 210 0
-9 213 -208 -210 0
-10 -213 208 0
-10 213 -208 0
-51 -213 208 0
-51 213 -208 0
-209 0
-1 -214 209 0
-1 214 -209 0
-2 -214 209 0
-2 214 -209 0
-3 -209 214 0
-3 -206 214 0
-3 -214 209 206 0
-4 -214 209 0
-4 214 -209 0
-5 -214 209 0
-5 214 -209 0
-6 -209 214 0
-6 -207 214 0
-6 -214 209 207 0
-7 -214 209 0
-7 214 -209 0
-8 -209 214 0
-8 -208 214 0
-8 -214 209 208 0
-9 -214 209 0
-9 214 -209 0
-10 -214 209 0
-10 -214 210 0
-10 214 -209 -210 0
-51 -214 209 0
-51 214 -209 0
210 0
-1 -215 210 0
-1 215 -210 0
-2 -215 210 0
-2 215 -210 0
-3 -215 210 0
-3 215 -210 0
-4 -210 215 0
-4 -206 215 0
-4 -215 210 206 0
-5 -215 210 0
-5 215 -210 0
-6 -215 210 0
-6 215 -210 0
-7 -210 215 0
-7 -207 215 0
-7 -215 210 207 0
-8 -215 210 0
-8 215 -210 0
-9 -210 215 0
-9 -208 215 0
-9 -215 210 208 0
-10 -210 215 0
-10 -209 215 0
-10 -215 210 209 0
-51 -215 210 0
-51 215 -210 0
-11 -216 211 0
-11 -216 212 0
-11 216 -211 -212 0
-12 -216 211 0
-12 -216 213 0
-12 216 -211 -213 0
-13 -216 211 0
-13 -216 214 0
-13 216 -211 -214 0
-14 -216 211 0
-14 -216 215 0
-14 216 -211 -215 0
-15 -216 211 0
-15 216 -211 0
-16 -216 211 0
-16 216 -211 0
-17 -216 211 0
-17 216 -211 0
-18 -216 211 0
-18 216 -211 0
-19 -216 211 0
-19 216 -211 0
-20 -216 211 0
-20 216 -211 0
-52 -216 211 0
-52 216 -211 0
-11 -212 217 0
-11 -211 217 0
-11 -217 212 211 0
-12 -217 212 0
-12 217 -212 0
-13 -217 212 0
-13 217 -212 0
-14 -217 212 0
-14 217 -212 0
-15 -217 212 0
-15 -217 213 0
-15 217 -212 -213 0
-16 -217 212 0
-16 -217 214 0
-16 217 -212 -214 0
-17 -217 212 0
-17 -217 215 0
-17 217 -212 -215 0
-18 -217 212 0
-18 217 -212 0
-19 -217 212 0
-19 217 -212 0
-20 -217 212 0
-20 217 -212 0
-52 -217 212 0
-52 217 -212 0
-11 -218 213 0
-11 218 -213 0
-12 -213 218 0
-12 -211 218 0
-12 -218 213 211 0
-13 -218 213 0
-13 218 -213 0
-14 -218 213 0
-14 218 -213 0
-15 -213 218 0
-15 -212 218 0
-15 -218 213 212 0
-16 -218 213 0
-16 218 -213 0
-17 -218 213 0
-17 218 -213 0
-18 -218 213 0
-18 -218 214 0
-18 218 -213 -214 0
-19 -218 213 0
-19 -218 215 0
-19 218 -213 -215 0
-20 -218 213 0
-20 218 -213 0
-52 -218 213 0
-52 218 -213 0
-11 -219 214 0
-11 219 -214 0
-12 -219 214 0
-12 219 -214 0
-13 -214 219 0
-13 -211 219 0
-13 -219 214 211 0
-14 -219 214 0
-14 219 -214 0
-15 -219 214 0
-15 219 -214 0
-16 -214 219 0
-16 -212 219 0
-16 -219 214 212 0
-17 -219 214 0
-17 219 -214 0
-18 -214 219 0
-18 -213 219 0
-18 -219 214 213 0
-19 -219 214 0
-19 219 -214 0
-20 -219 214 0
-20 -219 215 0
-20 219 -214 -215 0
-52 -219 214 0
-52 219 -214 0
-11 -220 215 0
-11 220 -215 0
-12 -220 215 0
-12 220 -215 0
-13 -220 215 0
-13 220 -215 0
-14 -215 220 0
-14 -211 220 0
-14 -220 215 211 0
-15 -220 215 0
-15 220 -215 0
-16 -220 215 0
-16 220 -215 0
-17 -215 220 0
-17 -212 220 0
-17 -220 215 212 0
-18 -220 215 0
-18 220 -215 0
-19 -215 220 0
-19 -213 220 0
-19 -220 215 213 0
-20 -215 220 0
-20 -214 220 0
-20 -220 215 214 0
-52 -220 215 0
-52 220 -215 0
-21 -221 216 0
-21 -221 217 0
-21 221 -216 -217 0
-22 -221 216 0
-22 -221 218 0
-22 221 -216 -218 0
-23 -221 216 0
-23 -221 219 0
-23 221 -216 -219 0
-24 -221 216 0
-24 -221 220 0
-24 221 -216 -220 0
-25 -221 216 0
-25 221 -216 0
-26 -221 216 0
-26 221 -216 0
-27 -221 216 0
-27 221 -216 0
-28 -221 216 0
-28 221 -216 0
-29 -221 216 0
-29 221 -216 0
-30 -221 216 0
-30 221 -216 0
-53 -221 216 0
-53 221 -216 0
-21 -217 222 0
-21 -216 222 0
-21 -222 217 216 0
-22 -222 217 0
-22 222 -217 0
-23 -222 217 0
-23 222 -217 0
-24 -222 217 0
-24 222 -217 0
-25 -222 217 0
-25 -222 218 0
-25 222 -217 -218 0
-26 -222 217 0
-26 -222 219 0
-26 222 -217 -219 0
-27 -222 217 0
-27 -222 220 0
-27 222 -217 -220 0
-28 -222 217 0
-28 222 -217 0
-29 -222 217 0
-29 222 -217 0
-30 -222 217 0
-30 222 -217 0
-53 -222 217 0
-53 222 -217 0
-21 -223 218 0
-21 223 -218 0
-22 -218 223 0
-22 -216 223 0
-22 -223 218 216 0
-23 -223 218 0
-23 223 -218 0
-24 -223 218 0
-24 223 -218 0
-25 -218 223 0
-25 -217 223 0
-25 -223 218 217 0
-26 -223 218 0
-26 223 -218 0
-27 -223 218 0
-27 223 -218 0
-28 -223 218 0
-28 -223 219 0
-28 223 -218 -219 0
-29 -223 218 0
-29 -223 220 0
-29 223 -218 -220 0
-30 -223 218 0
-30 223 -218 0
-53 -223 218 0
-53 223 -218 0
-21 -224 219 0
-21 224 -219 0
-22 -224 219 0
-22 224 -219 0
-23 -219 224 0
-23 -216 224 0
-23 -224 219 216 0
-24 -224 219 0
-24 224 -219 0
-25 -224 219 0
-25 224 -219 0
-26 -219 224 0
-26 -217 224 0
-26 -224 219 217 0
-27 -224 219 0
-27 224 -219 0
-28 -219 224 0
-28 -218 224 0
-28 -224 219 218 0
-29 -224 219 0
-29 224 -219 0
-30 -224 219 0
-30 -224 220 0
-30 224 -219 -220 0
-53 -224 219 0
-53 224 -219 0
-21 -225 220 0
-21 225 -220 0
-22 -225 220 0
-22 225 -220 0
-23 -225 220 0
-23 225 -220 0
-24 -220 225 0
-24 -216 225 0
-24 -225 220 216 0
-25 -225 220 0
-25 225 -220 0
-26 -225 220 0
-26 225 -220 0
-27 -220 225 0
-27 -217 225 0
-27 -225 220 217 0
-28 -225 220 0
-28 225 -220 0
-29 -220 225 0
-29 -218 225 0
-29 -225 220 218 0
-30 -220 225 0
-30 -219 225 0
-30 -225 220 219 0
-53 -225 220 0
-53 225 -220 0
-31 -226 221 0
-31 -226 222 0
-31 226 -221 -222 0
-32 -226 221 0
-32 -226 223 0
-32 226 -221 -223 0
-33 -226 221 0
-33 -226 224 0
-33 226 -221 -224 0
-34 -226 221 0
-34 -226 225 0
-34 226 -221 -225 0
-35 -226 221 0
-35 226 -221 0
-36 -226 221 0
-36 226 -221 0
-37 -226 221 0
-37 226 -221 0
-38 -226 221 0
-38 226 -221 0
-39 -226 221 0
-39 226 -221 0
-40 -226 221 0
-40 226 -221 0
-54 -226 221 0
-54 226 -221 0
-31 -222 227 0
-31 -221 227 0
-31 -227 222 221 0
-32 -227 222 0
-32 227 -222 0
-33 -227 222 0
-33 227 -222 0
-34 -227 222 0
-34 227 -222 0
-35 -227 222 0
-35 -227 223 0
-35 227 -222 -223 0
-36 -227 222 0
-36 -227 224 0
-36 227 -222 -224 0
-37 -227 222 0
-37 -227 225 0
-37 227 -222 -225 0
-38 -227 222 0
-38 227 -222 0
-39 -227 222 0
-39 227 -222 0
-40 -227 222 0
-40 227 -222 0
-54 -227 222 0
-54 227 -222 0
-31 -228 223 0
-31 228 -223 0
-32 -223 228 0
-32 -221 228 0
-32 -228 223 221 0
-33 -228 223 0
-33 228 -223 0
-34 -228 223 0
-34 228 -223 0
-35 -223 228 0
-35 -222 228 0
-35 -228 223 222 0
-36 -228 223 0
-36 228 -223 0
-37 -228 223 0
-37 228 -223 0
-38 -228 223 0
-38 -228 224 0
-38 228 -223 -224 0
-39 -228 223 0
-39 -228 225 0
-39 228 -223 -225 0
-40 -228 223 0
-40 228 -223 0
-54 -228 223 0
-54 228 -223 0
-31 -229 224 0
-31 229 -224 0
-32 -229 224 0
-32 229 -224 0
-33 -224 229 0
-33 -221 229 0
-33 -229 224 221 0
-34 -229 224 0
-34 229 -224 0
-35 -229 224 0
-35 229 -224 0
-36 -224 229 0
-36 -222 229 0
-36 -229 224 222 0
-37 -229 224 0
-37 229 -224 0
-38 -224 229 0
-38 -223 229 0
-38 -229 224 223 0
-39 -229 224 0
-39 229 -224 0
-40 -229 224 0
-40 -229 225 0
-40 229 -224 -225 0
-54 -229 224 0
-54 229 -224 0
-31 -230 225 0
-31 230 -225 0
-32 -230 225 0
-32 230 -225 0
-33 -230 225 0
-33 230 -225 0
-34 -225 230 0
-34 -221 230 0
-34 -230 225 221 0
-35 -230 225 0
-35 230 -225 0
-36 -230 225 0
-36 230 -225 0
-37 -225 230 0
-37 -222 230 0
-37 -230 225 222 0
-38 -230 225 0
-38 230 -225 0
-39 -225 230 0
-39 -223 230 0
-39 -230 225 223 0
-40 -225 230 0
-40 -224 230 0
-40 -230 225 224 0
-54 -230 225 0
-54 230 -225 0
-41 -231 226 0
-41 -231 227 0
-41 231 -226 -227 0
-42 -231 226 0
-42 -231 228 0
-42 231 -226 -228 0
-43 -231 226 0
-43 -231 229 0
-43 231 -226 -229 0
-44 -231 226 0
-44 -231 230 0
-44 231 -226 -230 0
-45 -231 226 0
-45 231 -226 0
-46 -231 226 0
-46 231 -226 0
-47 -231 226 0
-47 231 -226 0
-48 -231 226 0
-48 231 -226 0
-49 -231 226 0
-49 231 -226 0
-50 -231 226 0
-50 231 -226 0
-55 -231 226 0
-55 231 -226 0
-41 -227 232 0
-41 -226 232 0
-41 -232 227 226 0
-42 -232 227 0
-42 232 -227 0
-43 -232 227 0
-43 232 -227 0
-44 -232 227 0
-44 232 -227 0
-45 -232 227 0
-45 -232 228 0
-45 232 -227 -228 0
-46 -232 227 0
-46 -232 229 0
-46 232 -227 -229 0
-47 -232 227 0
-47 -232 230 0
-47 232 -227 -230 0
-48 -232 227 0
-48 232 -227 0
-49 -232 227 0
-49 232 -227 0
-50 -232 227 0
-50 232 -227 0
-55 -232 227 0
-55 232 -227 0
-41 -233 228 0
-41 233 -228 0
-42 -228 233 0
-42 -226 233 0
-42 -233 228 226 0
-43 -233 228 0
-43 233 -228 0
-44 -233 228 0
-44 233 -228 0
-45 -228 233 0
-45 -227 233 0
-45 -233 228 227 0
-46 -233 228 0
-46 233 -228 0
-47 -233 228 0
-47 233 -228 0
-48 -233 228 0
-48 -233 229 0
-48 233 -228 -229 0
-49 -233 228 0
-49 -233 230 0
-49 233 -228 -230 0
-50 -233 228 0
-50 233 -228 0
-55 -233 228 0
-55 233 -228 0
-41 -234 229 0
-41 234 -229 0
-42 -234 229 0
-42 234 -229 0
-43 -229 234 0
-43 -226 234 0
-43 -234 229 226 0
-44 -234 229 0
-44 234 -229 0
-45 -234 229 0
-45 234 -229 0
-46 -229 234 0
-46 -227 234 0
-46 -234 229 227 0
-47 -234 229 0
-47 234 -229 0
-48 -229 234 0
-48 -228 234 0
-48 -234 229 228 0
-49 -234 229 0
-49 234 -229 0
-50 -234 229 0
-50 -234 230 0
-50 234 -229 -230 0
-55 -234 229 0
-55 234 -229 0
-41 -235 230 0
-41 235 -230 0
-42 -235 230 0
-42 235 -230 0
-43 -235 230 0
-43 235 -230 0
-44 -230 235 0
-44 -226 235 0
-44 -235 230 226 0
-45 -235 230 0
-45 235 -230 0
-46 -235 230 0
-46 235 -230 0
-47 -230 235 0
-47 -227 235 0
-47 -235 230 227 0
-48 -235 230 0
-48 235 -230 0
-49 -230 235 0
-49 -228 235 0
-49 -235 230 228 0
-50 -230 235 0
-50 -229 235 0
-50 -235 230 229 0
-55 -235 230 0
-55 235 -230 0
-236 0
-1 -241 236 0
-1 -241 237 0
-1 241 -236 -237 0
-2 -241 236 0
-2 -241 238 0
-2 241 -236 -238 0
-3 -241 236 0
-3 -241 239 0
-3 241 -236 -239 0
-4 -241 236 0
-4 -241 240 0
-4 241 -236 -240 0
-5 -241 236 0
-5 241 -236 0
-6 -241 236 0
-6 241 -236 0
-7 -241 236 0
-7 241 -236 0
-8 -241 236 0
-8 241 -236 0
-9 -241 236 0
-9 241 -236 0
-10 -241 236 0
-10 241 -236 0
-51 -241 236 0
-51 241 -236 0
237 0
-1 -237 242 0
-1 -236 242 0
-1 -242 237 236 0
-2 -242 237 0
-2 242 -237 0
-3 -242 237 0
-3 242 -237 0
-4 -242 237 0
-4 242 -237 0
-5 -242 237 0
-5 -242 238 0
-5 242 -237 -238 0
-6 -242 237 0
-6 -242 239 0
-6 242 -237 -239 0
-7 -242 237 0
-7 -242 240 0
-7 242 -237 -240 0
-8 -242 237 0
-8 242 -237 0
-9 -242 237 0
-9 242 -237 0
-10 -242 237 0
-10 242 -237 0
-51 -242 237 0
-51 242 -237 0
-238 0
-1 -243 238 0
-1 243 -238 0
-2 -238 243 0
-2 -236 243 0
-2 -243 238 236 0
-3 -243 238 0
-3 243 -238 0
-4 -243 238 0
-4 243 -238 0
-5 -238 243 0
-5 -237 243 0
-5 -243 238 237 0
-6 -243 238 0
-6 243 -238 0
-7 -243 238 0
-7 243 -238 0
-8 -243 238 0
-8 -243 239 0
-8 243 -238 -239 0
-9 -243 238 0
-9 -243 240 0
-9 243 -238 -240 0
-10 -243 238 0
-10 243 -238 0
-51 -243 238 0
-51 243 -238 0
239 0
-1 -244 239 0
-1 244 -239 0
-2 -244 239 0
-2 244 -239 0
-3 -239 244 0
-3 -236 244 0
-3 -244 239 236 0
-4 -244 239 0
-4 244 -239 0
-5 -244 239 0
-5 244 -239 0
-6 -239 244 0
-6 -237 244 0
-6 -244 239 237 0
-7 -244 239 0
-7 244 -239 0
-8 -239 244 0
-8 -238 244 0
-8 -244 239 238 0
-9 -244 239 0
-9 244 -239 0
-10 -244 239 0
-10 -244 240 0
-10 244 -239 -240 0
-51 -244 239 0
-51 244 -239 0
-240 0
-1 -245 240 0
-1 245 -240 0
-2 -245 240 0
-2 245 -240 0
-3 -245 240 0
-3 245 -240 0
-4 -240 245 0
-4 -236 245 0
-4 -245 240 236 0
-5 -245 240 0
-5 245 -240 0
-6 -245 240 0
-6 245 -240 0
-7 -240 245 0
-7 -237 245 0
-7 -245 240 237 0
-8 -245 240 0
-8 245 -240 0
-9 -240 245 0
-9 -238 245 0
-9 -245 240 238 0
-10 -240 245 0
-10 -239 245 0
-10 -245 240 239 0
-51 -245 240 0
-51 245 -240 0
-11 -246 241 0
-11 -246 242 0
-11 246 -241 -242 0
-12 -246 241 0
-12 -246 243 0
-12 246 -241 -243 0
-13 -246 241 0
-13 -246 244 0
-13 246 -241 -244 0
-14 -246 241 0
-14 -246 245 0
-14 246 -241 -245 0
-15 -246 241 0
-15 246 -241 0
-16 -246 241 0
-16 246 -241 0
-17 -246 241 0
-17 246 -241 0
-18 -246 241 0
-18 246 -241 0
-19 -246 241 0
-19 246 -241 0
-20 -246 241 0
-20 246 -241 0
-52 -246 241 0
-52 246 -241 0
-11 -242 247 0
-11 -241 247 0
-11 -247 242 241 0
-12 -247 242 0
-12 247 -242 0
-13 -247 242 0
-13 247 -242 0
-14 -247 242 0
-14 247 -242 0
-15 -247 242 0
-15 -247 243 0
-15 247 -242 -243 0
-16 -247 242 0
-16 -247 244 0
-16 247 -242 -244 0
-17 -247 242 0
-17 -247 245 0
-17 247 -242 -245 0
-18 -247 242 0
-18 247 -242 0
-19 -247 242 0
-19 247 -242 0
-20 -247 242 0
-20 247 -242 0
-52 -247 242 0
-52 247 -242 0
-11 -248 243 0
-11 248 -243 0
-12 -243 248 0
-12 -241 248 0
-12 -248 243 241 0
-13 -248 243 0
-13 248 -243 0
-14 -248 243 0
-14 248 -243 0
-15 -243 248 0
-15 -242 248 0
-15 -248 243 242 0
-16 -248 243 0
-16 248 -243 0
-17 -248 243 0
-17 248 -243 0
-18 -248 243 0
-18 -248 244 0
-18 248 -243 -244 0
-19 -248 243 0
-19 -248 245 0
-19 248 -243 -245 0
-20 -248 243 0
-20 248 -243 0
-52 -248 243 0
-52 248 -243 0
-11 -249 244 0
-11 249 -244 0
-12 -249 244 0
-12 249 -244 0
-13 -244 249 0
-13 -241 249 0
-13 -249 244 241 0
-14 -249 244 0
-14 249 -244 0
-15 -249 244 0
-15 249 -244 0
-16 -244 249 0
-16 -242 249 0
-16 -249 244 242 0
-17 -249 244 0
-17 249 -244 0
-18 -244 249 0
-18 -243 249 0
-18 -249 244 243 0
-19 -249 244 0
-19 249 -244 0
-20 -249 244 0
-20 -249 245 0
-20 249 -244 -245 0
-52 -249 244 0
-52 249 -244 0
-11 -250 245 0
-11 250 -245 0
-12 -250 245 0
-12 250 -245 0
-13 -250 245 0
-13 250 -245 0
-14 -245 250 0
-14 -241 250 0
-14 -250 245 241 0
-15 -250 245 0
-15 250 -245 0
-16 -250 245 0
-16 250 -245 0
-17 -245 250 0
-17 -242 250 0
-17 -250 245 242 0
-18 -250 245 0
-18 250 -245 0
-19 -245 250 0
-19 -243 250 0
-19 -250 245 243 0
-20 -245 250 0
-20 -244 250 0
-20 -250 245 244 0
-52 -250 245 0
-52 250 -245 0
-21 -251 246 0
-21 -251 247 0
-21 251 -246 -247 0
-22 -251 246 0
-22 -251 248 0
-22 251 -246 -248 0
-23 -251 246 0
-23 -251 249 0
-23 251 -246 -249 0
-24 -251 246 0
-24 -251 250 0
-24 251 -246 -250 0
-25 -251 246 0
-25 251 -246 0
-26 -251 246 0
-26 251 -246 0
-27 -251 246 0
-27 251 -246 0
-28 -251 246 0
-28 251 -246 0
-29 -251 246 0
-29 251 -246 0
-30 -251 246 0
-30 251 -246 0
-53 -251 246 0
-53 251 -246 0
-21 -247 252 0
-21 -246 252 0
-21 -252 247 246 0
-22 -252 247 0
-22 252 -247 0
-23 -252 247 0
-23 252 -247 0
-24 -252 247 0
-24 252 -247 0
-25 -252 247 0
-25 -252 248 0
-25 252 -247 -248 0
-26 -252 247 0
-26 -252 249 0
-26 252 -247 -249 0
-27 -252 247 0
-27 -252 250 0
-27 252 -247 -250 0
-28 -252 247 0
-28 252 -247 0
-29 -252 247 0
-29 252 -247 0
-30 -252 247 0
-30 252 -247 0
-53 -252 247 0
-53 252 -247 0
-21 -253 248 0
-21 253 -248 0
-22 -248 253 0
-22 -246 253 0
-22 -253 248 246 0
-23 -253 248 0
-23 253 -248 0
-24 -253 248 0
-24 253 -248 0
-25 -248 253 0
-25 -247 253 0
-25 -253 248 247 0
-26 -253 248 0
-26 253 -248 0
-27 -253 248 0
-27 253 -248 0
-28 -253 248 0
-28 -253 249 0
-28 253 -248 -249 0
-29 -253 248 0
-29 -253 250 0
-29 253 -248 -250 0
-30 -253 248 0
-30 253 -248 0
-53 -253 248 0
-53 253 -248 0
-21 -254 249 0
-21 254 -249 0
-22 -254 249 0
-22 254 -249 0
-23 -249 254 0
-23 -246 254 0
-23 -254 249 246 0
-24 -254 249 0
-24 254 -249 0
-25 -254 249 0
-25 254 -249 0
-26 -249 254 0
-26 -247 254 0
-26 -254 249 247 0
-27 -254 249 0
-27 254 -249 0
-28 -249 254 0
-28 -248 254 0
-28 -254 249 248 0
-29 -254 249 0
-29 254 -249 0
-30 -254 249 0
-30 -254 250 0
-30 254 -249 -250 0
-53 -254 249 0
-53 254 -249 0
-21 -255 250 0
-21 255 -250 0
-22 -255 250 0
-22 255 -250 0
-23 -255 250 0
-23 255 -250 0
-24 -250 255 0
-24 -246 255 0
-24 -255 250 246 0
-25 -255 250 0
-25 255 -250 0
-26 -255 250 0
-26 255 -250 0
-27 -250 255 0
-27 -247 255 0
-27 -255 250 247 0
-28 -255 250 0
-28 255 -250 0
-29 -250 255 0
-29 -248 255 0
-29 -255 250 248 0
-30 -250 255 0
-30 -249 255 0
-30 -255 250 249 0
-53 -255 250 0
-53 255 -250 0
-31 -256 251 0
-31 -256 252 0
-31 256 -251 -252 0
-32 -256 251 0
-32 -256 253 0
-32 256 -251 -253 0
-33 -256 251 0
-33 -256 254 0
-33 256 -251 -254 0
-34 -256 251 0
-34 -256 255 0
-34 256 -251 -255 0
-35 -256 251 0
-35 256 -251 0
-36 -256 251 0
-36 256 -251 0
-37 -256 251 0
-37 256 -251 0
-38 -256 251 0
-38 256 -251 0
-39 -256 251 0
-39 256 -251 0
-40 -256 251 0
-40 256 -251 0
-54 -256 251 0
-54 256 -251 0
-31 -252 257 0
-31 -251 257 0
-31 -257 252 251 0
-32 -257 252 0
-32 257 -252 0
-33 -257 252 0
-33 257 -252 0
-34 -257 252 0
-34 257 -252 0
-35 -257 252 0
-35 -257 253 0
-35 257 -252 -253 0
-36 -257 252 0
-36 -257 254 0
-36 257 -252 -254 0
-37 -257 252 0
-37 -257 255 0
-37 257 -252 -255 0
-38 -257 252 0
-38 257 -252 0
-39 -257 252 0
-39 257 -252 0
-40 -257 252 0
-40 257 -252 0
-54 -257 252 0
-54 257 -252 0
-31 -258 253 0
-31 258 -253 0
-32 -253 258 0
-32 -251 258 0
-32 -258 253 251 0
-33 -258 253 0
-33 258 -253 0
-34 -258 253 0
-34 258 -253 0
-35 -253 258 0
-35 -252 258 0
-35 -258 253 252 0
-36 -258 253 0
-36 258 -253 0
-37 -258 253 0
-37 258 -253 0
-38 -258 253 0
-38 -258 254 0
-38 258 -253 -254 0
-39 -258 253 0
-39 -258 255 0
-39 258 -253 -255 0
-40 -258 253 0
-40 258 -253 0
-54 -258 253 0
-54 258 -253 0
-31 -259 254 0
-31 259 -254 0
-32 -259 254 0
-32 259 -254 0
-33 -254 259 0
-33 -251 259 0
-33 -259 254 251 0
-34 -259 254 0
-34 259 -254 0
-35 -259 254 0
-35 259 -254 0
-36 -254 259 0
-36 -252 259 0
-36 -259 254 252 0
-37 -259 254 0
-37 259 -254 0
-38 -254 259 0
-38 -253 259 0
-38 -259 254 253 0
-39 -259 254 0
-39 259 -254 0
-40 -259 254 0
-40 -259 255 0
-40 259 -254 -255 0
-54 -259 254 0
-54 259 -254 0
-31 -260 255 0
-31 260 -255 0
-32 -260 255 0
-32 260 -255 0
-33 -260 255 0
-33 260 -255 0
-34 -255 260 0
-34 -251 260 0
-34 -260 255 251 0
-35 -260 255 0
-35 260 -255 0
-36 -260 255 0
-36 260 -255 0
-37 -255 260 0
-37 -252 260 0
-37 -260 255 252 0
-38 -260 255 0
-38 260 -255 0
-39 -255 260 0
-39 -253 260 0
-39 -260 255 253 0
-40 -255 260 0
-40 -254 260 0
-40 -260 255 254 0
-54 -260 255 0
-54 260 -255 0
-41 -261 256 0
-41 -261 257 0
-41 261 -256 -257 0
-42 -261 256 0
-42 -261 258 0
-42 261 -256 -258 0
-43 -261 256 0
-43 -261 259 0
-43 261 -256 -259 0
-44 -261 256 0
-44 -261 260 0
-44 261 -256 -260 0
-45 -261 256 0
-45 261 -256 0
-46 -261 256 0
-46 261 -256 0
-47 -261 256 0
-47 261 -256 0
-48 -261 256 0
-48 261 -256 0
-49 -261 256 0
-49 261 -256 0
-50 -261 256 0
-50 261 -256 0
-55 -261 256 0
-55 261 -256 0
-41 -257 262 0
-41 -256 262 0
-41 -262 257 256 0
-42 -262 257 0
-42 262 -257 0
-43 -262 257 0
-43 262 -257 0
-44 -262 257 0
-44 262 -257 0
-45 -262 257 0
-45 -262 258 0
-45 262 -257 -258 0
-46 -262 257 0
-46 -262 259 0
-46 262 -257 -259 0
-47 -262 257 0
-47 -262 260 0
-47 262 -257 -260 0
-48 -262 257 0
-48 262 -257 0
-49 -262 257 0
-49 262 -257 0
-50 -262 257 0
-50 262 -257 0
-55 -262 257 0
-55 262 -257 0
-41 -263 258 0
-41 263 -258 0
-42 -258 263 0
-42 -256 263 0
-42 -263 258 256 0
-43 -263 258 0
-43 263 -258 0
-44 -263 258 0
-44 263 -258 0
-45 -258 263 0
-45 -257 263 0
-45 -263 258 257 0
-46 -263 258 0
-46 263 -258 0
-47 -263 258 0
-47 263 -258 0
-48 -263 258 0
-48 -263 259 0
-48 263 -258 -259 0
-49 -263 258 0
-49 -263 260 0
-49 263 -258 -260 0
-50 -263 258 0
-50 263 -258 0
-55 -263 258 0
-55 263 -258 0
-41 -264 259 0
-41 264 -259 0
-42 -264 259 0
-42 264 -259 0
-43 -259 264 0
-43 -256 264 0
-43 -264 259 256 0
-44 -264 259 0
-44 264 -259 0
-45 -264 259 0
-45 264 -259 0
-46 -259 264 0
-46 -257 264 0
-46 -264 259 257 0
-47 -264 259 0
-47 264 -259 0
-48 -259 264 0
-48 -258 264 0
-48 -264 259 258 0
-49 -264 259 0
-49 264 -259 0
-50 -264 259 0
-50 -264 260 0
-50 264 -259 -260 0
-55 -264 259 0
-55 264 -259 0
-41 -265 260 0
-41 265 -260 0
-42 -265 260 0
-42 265 -260 0
-43 -265 260 0
-43 265 -260 0
-44 -260 265 0
-44 -256 265 0
-44 -265 260 256 0
-45 -265 260 0
-45 265 -260 0
-46 -265 260 0
-46 265 -260 0
-47 -260 265 0
-47 -257 265 0
-47 -265 260 257 0
-48 -265 260 0
-48 265 -260 0
-49 -260 265 0
-49 -258 265 0
-49 -265 260 258 0
-50 -260 265 0
-50 -259 265 0
-50 -265 260 259 0
-55 -265 260 0
-55 265 -260 0
-266 0
-1 -271 266 0
-1 -271 267 0
-1 271 -266 -267 0
-2 -271 266 0
-2 -271 268 0
-2 271 -266 -268 0
-3 -271 266 0
-3 -271 269 0
-3 271 -266 -269 0
-4 -271 266 0
-4 -271 270 0
-4 271 -266 -270 0
-5 -271 266 0
-5 271 -266 0
-6 -271 266 0
-6 271 -266 0
-7 -271 266 0
-7 271 -266 0
-8 -271 266 0
-8 271 -266 0
-9 -271 266 0
-9 271 -266 0
-10 -271 266 0
-10 271 -266 0
-51 -271 266 0
-51 271 -266 0
267 0
-1 -267 272 0
-1 -266 272 0
-1 -272 267 266 0
-2 -272 267 0
-2 272 -267 0
-3 -272 267 0
-3 272 -267 0
-4 -272 267 0
-4 272 -267 0
-5 -272 267 0
-5 -272 268 0
-5 272 -267 -268 0
-6 -272 267 0
-6 -272 269 0
-6 272 -267 -269 0
-7 -272 267 0
-7 -272 270 0
-7 272 -267 -270 0
-8 -272 267 0
-8 272 -267 0
-9 -272 267 0
-9 272 -267 0
-10 -272 267 0
-10 272 -267 0
-51 -272 267 0
-51 272 -267 0
-268 0
-1 -273 268 0
-1 273 -268 0
-2 -268 273 0
-2 -266 273 0
-2 -273 268 266 0
-3 -273 268 0
-3 273 -268 0
-4 -273 268 0
-4 273 -268 0
-5 -268 273 0
-5 -267 273 0
-5 -273 268 267 0
-6 -273 268 0
-6 273 -268 0
-7 -273 268 0
-7 273 -268 0
-8 -273 268 0
-8 -273 269 0
-8 273 -268 -269 0
-9 -273 268 0
-9 -273 270 0
-9 273 -268 -270 0
-10 -273 268 0
-10 273 -268 0
-51 -273 268 0
-51 273 -268 0
269 0
-1 -274 269 0
-1 274 -269 0
-2 -274 269 0
-2 274 -269 0
-3 -269 274 0
-3 -266 274 0
-3 -274 269 266 0
-4 -274 269 0
-4 274 -269 0
-5 -274 269 0
-5 274 -269 0
-6 -269 274 0
-6 -267 274 0
-6 -274 269 267 0
-7 -274 269 0
-7 274 -269 0
-8 -269 274 0
-8 -268 274 0
-8 -274 269 268 0
-9 -274 269 0
-9 274 -269 0
-10 -274 269 0
-10 -274 270 0
-10 274 -269 -270 0
-51 -274 269 0
-51 274 -269 0
270 0
-1 -275 270 0
-1 275 -270 0
-2 -275 270 0
-2 275 -270 0
-3 -275 270 0
-3 275 -270 0
-4 -270 275 0
-4 -266 275 0
-4 -275 270 266 0
-5 -275 270 0
-5 275 -270 0
-6 -275 270 0
-6 275 -270 0
-7 -270 275 0
-7 -267 275 0
-7 -275 270 267 0
-8 -275 270 0
-8 275 -270 0
-9 -270 275 0
-9 -268 275 0
-9 -275 270 268 0
-10 -270 275 0
-10 -269 275 0
-10 -275 270 269 0
-51 -275 270 0
-51 275 -270 0
-11 -276 271 0
-11 -276 272 0
-11 276 -271 -272 0
-12 -276 271 0
-12 -276 273 0
-12 276 -271 -273 0
-13 -276 271 0
-13 -276 274 0
-13 276 -271 -274 0
-14 -276 271 0
-14 -276 275 0
-14 276 -271 -275 0
-15 -276 271 0
-15 276 -271 0
-16 -276 271 0
-16 276 -271 0
-17 -276 271 0
-17 276 -271 0
-18 -276 271 0
-18 276 -271 0
-19 -276 271 0
-19 276 -271 0
-20 -276 271 0
-20 276 -271 0
-52 -276 271 0
-52 276 -271 0
-11 -272 277 0
-11 -271 277 0
-11 -277 272 271 0
-12 -277 272 0
-12 277 -272 0
-13 -277 272 0
-13 277 -272 0
-14 -277 272 0
-14 277 -272 0
-15 -277 272 0
-15 -277 273 0
-15 277 -272 -273 0
-16 -277 272 0
-16 -277 274 0
-16 277 -272 -274 0
-17 -277 272 0
-17 -277 275 0
-17 277 -272 -275 0
-18 -277 272 0
-18 277 -272 0
-19 -277 272 0
-19 277 -272 0
-20 -277 272 0
-20 277 -272 0
-52 -277 272 0
-52 277 -272 0
-11 -278 273 0
-11 278 -273 0
-12 -273 278 0
-12 -271 278 0
-12 -278 273 271 0
-13 -278 273 0
-13 278 -273 0
-14 -278 273 0
-14 278 -273 0
-15 -273 278 0
-15 -272 278 0
-15 -278 273 272 0
-16 -278 273 0
-16 278 -273 0
-17 -278 273 0
-17 278 -273 0
-18 -278 273 0
-18 -278 274 0
-18 278 -273 -274 0
-19 -278 273 0
-19 -278 275 0
-19 278 -273 -275 0
-20 -278 273 0
-20 278 -273 0
-52 -278 273 0
-52 278 -273 0
-11 -279 274 0
-11 279 -274 0
-12 -279 274 0
-12 279 -274 0
-13 -274 279 0
-13 -271 279 0
-13 -279 274 271 0
-14 -279 274 0
-14 279 -274 0
-15 -279 274 0
-15 279 -274 0
-16 -274 279 0
-16 -272 279 0
-16 -279 274 272 0
-17 -279 274 0
-17 279 -274 0
-18 -274 279 0
-18 -273 279 0
-18 -279 274 273 0
-19 -279 274 0
-19 279 -274 0
-20 -279 274 0
-20 -279 275 0
-20 279 -274 -275 0
-52 -279 274 0
-52 279 -274 0
-11 -280 275 0
-11 280 -275 0
-12 -280 275 0
-12 280 -275 0
-13 -280 275 0
-13 280 -275 0
-14 -275 280 0
-14 -271 280 0
-14 -280 275 271 0
-15 -280 275 0
-15 280 -275 0
-16 -280 275 0
-16 280 -275 0
-17 -275 280 0
-17 -272 280 0
-17 -280 275 272 0
-18 -280 275 0
-18 280 -275 0
-19 -275 280 0
-19 -273 280 0
-19 -280 275 273 0
-20 -275 280 0
-20 -274 280 0
-20 -280 275 274 0
-52 -280 275 0
-52 280 -275 0
-21 -281 276 0
-21 -281 277 0
-21 281 -276 -277 0
-22 -281 276 0
-22 -281 278 0
-22 281 -276 -278 0
-23 -281 276 0
-23 -281 279 0
-23 281 -276 -279 0
-24 -281 276 0
-24 -281 280 0
-24 281 -276 -280 0
-25 -281 276 0
-25 281 -276 0
-26 -281 276 0
-26 281 -276 0
-27 -281 276 0
-27 281 -276 0
-28 -281 276 0
-28 281 -276 0
-29 -281 276 0
-29 281 -276 0
-30 -281 276 0
-30 281 -276 0
-53 -281 276 0
-53 281 -276 0
-21 -277 282 0
-21 -276 282 0
-21 -282 277 276 0
-22 -282 277 0
-22 282 -277 0
-23 -282 277 0
-23 282 -277 0
-24 -282 277 0
-24 282 -277 0
-25 -282 277 0
-25 -282 278 0
-25 282 -277 -278 0
-26 -282 277 0
-26 -282 279 0
-26 282 -277 -279 0
-27 -282 277 0
-27 -282 280 0
-27 282 -277 -280 0
-28 -282 277 0
-28 282 -277 0
-29 -282 277 0
-29 282 -277 0
-30 -282 277 0
-30 282 -277 0
-53 -282 277 0
-53 282 -277 0
-21 -283 278 0
-21 283 -278 0
-22 -278 283 0
-22 -276 283 0
-22 -283 278 276 0
-23 -283 278 0
-23 283 -278 0
-24 -283 278 0
-24 283 -278 0
-25 -278 283 0
-25 -277 283 0
-25 -283 278 277 0
-26 -283 278 0
-26 283 -278 0
-27 -283 278 0
-27 283 -278 0
-28 -283 278 0
-28 -283 279 0
-28 283 -278 -279 0
-29 -283 278 0
-29 -283 280 0
-29 283 -278 -280 0
-30 -283 278 0
-30 283 -278 0
-53 -283 278 0
-53 283 -278 0
-21 -284 279 0
-21 284 -279 0
-22 -284 279 0
-22 284 -279 0
-23 -279 284 0
-23 -276 284 0
-23 -284 279 276 0
-24 -284 279 0
-24 284 -279 0
-25 -284 279 0
-25 284 -279 0
-26 -279 284 0
-26 -277 284 0
-26 -284 279 277 0
-27 -284 279 0
-27 284 -279 0
-28 -279 284 0
-28 -278 284 0
-28 -284 279 278 0
-29 -284 279 0
-29 284 -279 0
-30 -284 279 0
-30 -284 280 0
-30 284 -279 -280 0
-53 -284 279 0
-53 284 -279 0
-21 -285 280 0
-21 285 -280 0
-22 -285 280 0
-22 285 -280 0
-23 -285 280 0
-23 285 -280 0
-24 -280 285 0
-24 -276 285 0
-24 -285 280 276 0
-25 -285 280 0
-25 285 -280 0
-26 -285 280 0
-26 285 -280 0
-27 -280 285 0
-27 -277 285 0
-27 -285 280 277 0
-28 -285 280 0
-28 285 -280 0
-29 -280 285 0
-29 -278 285 0
-29 -285 280 278 0
-30 -280 285 0
-30 -279 285 0
-30 -285 280 279 0
-53 -285 280 0
-53 285 -280 0
-31 -286 281 0
-31 -286 282 0
-31 286 -281 -282 0
-32 -286 281 0
-32 -286 283 0
-32 286 -281 -283 0
-33 -286 281 0
-33 -286 284 0
-33 286 -281 -284 0
-34 -286 281 0
-34 -286 285 0
-34 286 -281 -285 0
-35 -286 281 0
-35 286 -281 0
-36 -286 281 0
-36 286 -281 0
-37 -286 281 0
-37 286 -281 0
-38 -286 281 0
-38 286 -281 0
-39 -286 281 0
-39 286 -281 0
-40 -286 281 0
-40 286 -281 0
-54 -286 281 0
-54 286 -281 0
-31 -282 287 0
-31 -281 287 0
-31 -287 282 281 0
-32 -287 282 0
-32 287 -282 0
-33 -287 282 0
-33 287 -282 0
-34 -287 282 0
-34 287 -282 0
-35 -287 282 0
-35 -287 283 0
-35 287 -282 -283 0
-36 -287 282 0
-36 -287 284 0
-36 287 -282 -284 0
-37 -287 282 0
-37 -287 285 0
-37 287 -282 -285 0
-38 -287 282 0
-38 287 -282 0
-39 -287 282 0
-39 287 -282 0
-40 -287 282 0
-40 287 -282 0
-54 -287 282 0
-54 287 -282 0
-31 -288 283 0
-31 288 -283 0
-32 -283 288 0
-32 -281 288 0
-32 -288 283 281 0
-33 -288 283 0
-33 288 -283 0
-34 -288 283 0
-34 288 -283 0
-35 -283 288 0
-35 -282 288 0
-35 -288 283 282 0
-36 -288 283 0
-36 288 -283 0
-37 -288 283 0
-37 288 -283 0
-38 -288 283 0
-38 -288 284 0
-38 288 -283 -284 0
-39 -288 283 0
-39 -288 285 0
-39 288 -283 -285 0
-40 -288 283 0
-40 288 -283 0
-54 -288 283 0
-54 288 -283 0
-31 -289 284 0
-31 289 -284 0
-32 -289 284 0
-32 289 -284 0
-33 -284 289 0
-33 -281 289 0
-33 -289 284 281 0
-34 -289 284 0
-34 289 -284 0
-35 -289 284 0
-35 289 -284 0
-36 -284 289 0
-36 -282 289 0
-36 -289 284 282 0
-37 -289 284 0
-37 289 -284 0
-38 -284 289 0
-38 -283 289 0
-38 -289 284 283 0
-39 -289 284 0
-39 289 -284 0
-40 -289 284 0
-40 -289 285 0
-40 289 -284 -285 0
-54 -289 284 0
-54 289 -284 0
-31 -290 285 0
-31 290 -285 0
-32 -290 285 0
-32 290 -285 0
-33 -290 285 0
-33 290 -285 0
-34 -285 290 0
-34 -281 290 0
-34 -290 285 281 0
-35 -290 285 0
-35 290 -285 0
-36 -290 285 0
-36 290 -285 0
-37 -285 290 0
-37 -282 290 0
-37 -290 285 282 0
-38 -290 285 0
-38 290 -285 0
-39 -285 290 0
-39 -283 290 0
-39 -290 285 283 0
-40 -285 290 0
-40 -284 290 0
-40 -290 285 284 0
-54 -290 285 0
-54 290 -285 0
-41 -291 286 0
-41 -291 287 0
-41 291 -286 -287 0
-42 -291 286 0
-42 -291 288 0
-42 291 -286 -288 0
-43 -291 286 0
-43 -291 289 0
-43 291 -286 -289 0
-44 -291 286 0
-44 -291 290 0
-44 291 -286 -290 0
-45 -291 286 0
-45 291 -286 0
-46 -291 286 0
-46 291 -286 0
-47 -291 286 0
-47 291 -286 0
-48 -291 286 0
-48 291 -286 0
-49 -291 286 0
-49 291 -286 0
-50 -291 286 0
-50 291 -286 0
-55 -291 286 0
-55 291 -286 0
-41 -287 292 0
-41 -286 292 0
-41 -292 287 286 0
-42 -292 287 0
-42 292 -287 0
-43 -292 287 0
-43 292 -287 0
-44 -292 287 0
-44 292 -287 0
-45 -292 287 0
-45 -292 288 0
-45 292 -287 -288 0
-46 -292 287 0
-46 -292 289 0
-46 292 -287 -289 0
-47 -292 287 0
-47 -292 290 0
-47 292 -287 -290 0
-48 -292 287 0
-48 292 -287 0
-49 -292 287 0
-49 292 -287 0
-50 -292 287 0
-50 292 -287 0
-55 -292 287 0
-55 292 -287 0
-41 -293 288 0
-41 293 -288 0
-42 -288 293 0
-42 -286 293 0
-42 -293 288 286 0
-43 -293 288 0
-43 293 -288 0
-44 -293 288 0
-44 293 -288 0
-45 -288 293 0
-45 -287 293 0
-45 -293 288 287 0
-46 -293 288 0
-46 293 -288 0
-47 -293 288 0
-47 293 -288 0
-48 -293 288 0
-48 -293 289 0
-48 293 -288 -289 0
-49 -293 288 0
-49 -293 290 0
-49 293 -288 -290 0
-50 -293 288 0
-50 293 -288 0
-55 -293 288 0
-55 293 -288 0
-41 -294 289 0
-41 294 -289 0
-42 -294 289 0
-42 294 -289 0
-43 -289 294 0
-43 -286 294 0
-43 -294 289 286 0
-44 -294 289 0
-44 294 -289 0
-45 -294 289 0
-45 294 -289 0
-46 -289 294 0
-46 -287 294 0
-46 -294 289 287 0
-47 -294 289 0
-47 294 -289 0
-48 -289 294 0
-48 -288 294 0
-48 -294 289 288 0
-49 -294 289 0
-49 294 -289 0
-50 -294 289 0
-50 -294 290 0
-50 294 -289 -290 0
-55 -294 289 0
-55 294 -289 0
-41 -295 290 0
-41 295 -290 0
-42 -295 290 0
-42 295 -290 0
-43 -295 290 0
-43 295 -290 0
-44 -290 295 0
-44 -286 295 0
-44 -295 290 286 0
-45 -295 290 0
-45 295 -290 0
-46 -295 290 0
-46 295 -290 0
-47 -290 295 0
-47 -287 295 0
-47 -295 290 287 0
-48 -295 290 0
-48 295 -290 0
-49 -290 295 0
-49 -288 295 0
-49 -295 290 288 0
-50 -290 295 0
-50 -289 295 0
-50 -295 290 289 0
-55 -295 290 0
-55 295 -290 0
-296 0
-1 -301 296 0
-1 -301 297 0
-1 301 -296 -297 0
-2 -301 296 0
-2 -301 298 0
-2 301 -296 -298 0
-3 -301 296 0
-3 -301 299 0
-3 301 -296 -299 0
-4 -301 296 0
-4 -301 300 0
-4 301 -296 -300 0
-5 -301 296 0
-5 301 -296 0
-6 -301 296 0
-6 301 -296 0
-7 -301 296 0
-7 301 -296 0
-8 -301 296 0
-8 301 -296 0
-9 -301 296 0
-9 301 -296 0
-10 -301 296 0
-10 301 -296 0
-51 -301 296 0
-51 301 -296 0
297 0
-1 -297 302 0
-1 -296 302 0
-1 -302 297 296 0
-2 -302 297 0
-2 302 -297 0
-3 -302 297 0
-3 302 -297 0
-4 -302 297 0
-4 302 -297 0
-5 -302 297 0
-5 -302 298 0
-5 302 -297 -298 0
-6 -302 297 0
-6 -302 299 0
-6 302 -297 -299 0
-7 -302 297 0
-7 -302 300 0
-7 302 -297 -300 0
-8 -302 297 0
-8 302 -297 0
-9 -302 297 0
-9 302 -297 0
-10 -302 297 0
-10 302 -297 0
-51 -302 297 0
-51 302 -297 0
298 0
-1 -303 298 0
-1 303 -298 0
-2 -298 303 0
-2 -296 303 0
-2 -303 298 296 0
-3 -303 298 0
-3 303 -298 0
-4 -303 298 0
-4 303 -298 0
-5 -298 303 0
-5 -297 303 0
-5 -303 298 297 0
-6 -303 298 0
-6 303 -298 0
-7 -303 298 0
-7 303 -298 0
-8 -303 298 0
-8 -303 299 0
-8 303 -298 -299 0
-9 -303 298 0
-9 -303 300 0
-9 303 -298 -300 0
-10 -303 298 0
-10 303 -298 0
-51 -303 298 0
-51 303 -298 0
-299 0
-1 -304 299 0
-1 304 -299 0
-2 -304 299 0
-2 304 -299 0
-3 -299 304 0
-3 -296 304 0
-3 -304 299 296 0
-4 -304 299 0
-4 304 -299 0
-5 -304 299 0
-5 304 -299 0
-6 -299 304 0
-6 -297 304 0
-6 -304 299 297 0
-7 -304 299 0
-7 304 -299 0
-8 -299 304 0
-8 -298 304 0
-8 -304 299 298 0
-9 -304 299 0
-9 304 -299 0
-10 -304 299 0
-10 -304 300 0
-10 304 -299 -300 0
-51 -304 299 0
-51 304 -299 0
-300 0
-1 -305 300 0
-1 305 -300 0
-2 -305 300 0
-2 305 -300 0
-3 -305 300 0
-3 305 -300 0
-4 -300 305 0
-4 -296 305 0
-4 -305 300 296 0
-5 -305 300 0
-5 305 -300 0
-6 -305 300 0
-6 305 -300 0
-7 -300 305 0
-7 -297 305 0
-7 -305 300 297 0
-8 -305 300 0
-8 305 -300 0
-9 -300 305 0
-9 -298 305 0
-9 -305 300 298 0
-10 -300 305 0
-10 -299 305 0
-10 -305 300 299 0
-51 -305 300 0
-51 305 -300 0
-11 -306 301 0
-11 -306 302 0
-11 306 -301 -302 0
-12 -306 301 0
-12 -306 303 0
-12 306 -301 -303 0
-13 -306 301 0
-13 -306 304 0
-13 306 -301 -304 0
-14 -306 301 0
-14 -306 305 0
-14 306 -301 -305 0
-15 -306 301 0
-15 306 -301 0
-16 -306 301 0
-16 306 -301 0
-17 -306 301 0
-17 306 -301 0
-18 -306 301 0
-18 306 -301 0
-19 -306 301 0
-19 306 -301 0
-20 -306 301 0
-20 306 -301 0
-52 -306 301 0
-52 306 -301 0
-11 -302 307 0
-11 -301 307 0
-11 -307 302 301 0
-12 -307 302 0
-12 307 -302 0
-13 -307 302 0
-13 307 -302 0
-14 -307 302 0
-14 307 -302 0
-15 -307 302 0
-15 -307 303 0
-15 307 -302 -303 0
-16 -307 302 0
-16 -307 304 0
-16 307 -302 -304 0
-17 -307 302 0
-17 -307 305 0
-17 307 -302 -305 0
-18 -307 302 0
-18 307 -302 0
-19 -307 302 0
-19 307 -302 0
-20 -307 302 0
-20 307 -302 0
-52 -307 302 0
-52 307 -302 0
-11 -308 303 0
-11 308 -303 0
-12 -303 308 0
-12 -301 308 0
-12 -308 303 301 0
-13 -308 303 0
-13 308 -303 0
-14 -308 303 0
-14 308 -303 0
-15 -303 308 0
-15 -302 308 0
-15 -308 303 302 0
-16 -308 303 0
-16 308 -303 0
-17 -308 303 0
-17 308 -303 0
-18 -308 303 0
-18 -308 304 0
-18 308 -303 -304 0
-19 -308 303 0
-19 -308 305 0
-19 308 -303 -305 0
-20 -308 303 0
-20 308 -303 0
-52 -308 303 0
-52 308 -303 0
-11 -309 304 0
-11 309 -304 0
-12 -309 304 0
-12 309 -304 0
-13 -304 309 0
-13 -301 309 0
-13 -309 304 301 0
-14 -309 304 0
-14 309 -304 0
-15 -309 304 0
-15 309 -304 0
-16 -304 309 0
-16 -302 309 0
-16 -309 304 302 0
-17 -309 304 0
-17 309 -304 0
-18 -304 309 0
-18 -303 309 0
-18 -309 304 303 0
-19 -309 304 0
-19 309 -304 0
-20 -309 304 0
-20 -309 305 0
-20 309 -304 -305 0
-52 -309 304 0
-52 309 -304 0
-11 -310 305 0
-11 310 -305 0
-12 -310 305 0
-12 310 -305 0
-13 -310 305 0
-13 310 -305 0
-14 -305 310 0
-14 -301 310 0
-14 -310 305 301 0
-15 -310 305 0
-15 310 -305 0
-16 -310 305 0
-16 310 -305 0
-17 -305 310 0
-17 -302 310 0
-17 -310 305 302 0
-18 -310 305 0
-18 310 -305 0
-19 -305 310 0
-19 -303 310 0
-19 -310 305 303 0
-20 -305 310 0
-20 -304 310 0
-20 -310 305 304 0
-52 -310 305 0
-52 310 -305 0
-21 -311 306 0
-21 -311 307 0
-21 311 -306 -307 0
-22 -311 306 0
-22 -311 308 0
-22 311 -306 -308 0
-23 -311 306 0
-23 -311 309 0
-23 311 -306 -309 0
-24 -311 306 0
-24 -311 310 0
-24 311 -306 -310 0
-25 -311 306 0
-25 311 -306 0
-26 -311 306 0
-26 311 -306 0
-27 -311 306 0
-27 311 -306 0
-28 -311 306 0
-28 311 -306 0
-29 -311 306 0
-29 311 -306 0
-30 -311 306 0
-30 311 -306 0
-53 -311 306 0
-53 311 -306 0
-21 -307 312 0
-21 -306 312 0
-21 -312 307 306 0
-22 -312 307 0
-22 312 -307 0
-23 -312 307 0
-23 312 -307 0
-24 -312 307 0
-24 312 -307 0
-25 -312 307 0
-25 -312 308 0
-25 312 -307 -308 0
-26 -312 307 0
-26 -312 309 0
-26 312 -307 -309 0
-27 -312 307 0
-27 -312 310 0
-27 312 -307 -310 0
-28 -312 307 0
-28 312 -307 0
-29 -312 307 0
-29 312 -307 0
-30 -312 307 0
-30 312 -307 0
-53 -312 307 0
-53 312 -307 0
-21 -313 308 0
-21 313 -308 0
-22 -308 313 0
-22 -306 313 0
-22 -313 308 306 0
-23 -313 308 0
-23 313 -308 0
-24 -313 308 0
-24 313 -308 0
-25 -308 313 0
-25 -307 313 0
-25 -313 308 307 0
-26 -313 308 0
-26 313 -308 0
-27 -313 308 0
-27 313 -308 0
-28 -313 308 0
-28 -313 309 0
-28 313 -308 -309 0
-29 -313 308 0
-29 -313 310 0
-29 313 -308 -310 0
-30 -313 308 0
-30 313 -308 0
-53 -313 308 0
-53 313 -308 0
-21 -314 309 0
-21 314 -309 0
-22 -314 309 0
-22 314 -309 0
-23 -309 314 0
-23 -306 314 0
-23 -314 309 306 0
-24 -314 309 0
-24 314 -309 0
-25 -314 309 0
-25 314 -309 0
-26 -309 314 0
-26 -307 314 0
-26 -314 309 307 0
-27 -314 309 0
-27 314 -309 0
-28 -309 314 0
-28 -308 314 0
-28 -314 309 308 0
-29 -314 309 0
-29 314 -309 0
-30 -314 309 0
-30 -314 310 0
-30 314 -309 -310 0
-53 -314 309 0
-53 314 -309 0
-21 -315 310 0
-21 315 -310 0
-22 -315 310 0
-22 315 -310 0
-23 -315 310 0
-23 315 -310 0
-24 -310 315 0
-24 -306 315 0
-24 -315 310 306 0
-25 -315 310 0
-25 315 -310 0
-26 -315 310 0
-26 315 -310 0
-27 -310 315 0
-27 -307 315 0
-27 -315 310 307 0
-28 -315 310 0
-28 315 -310 0
-29 -310 315 0
-29 -308 315 0
-29 -315 310 308 0
-30 -310 315 0
-30 -309 315 0
-30 -315 310 309 0
-53 -315 310 0
-53 315 -310 0
-31 -316 311 0
-31 -316 312 0
-31 316 -311 -312 0
-32 -316 311 0
-32 -316 313 0
-32 316 -311 -313 0
-33 -316 311 0
-33 -316 314 0
-33 316 -311 -314 0
-34 -316 311 0
-34 -316 315 0
-34 316 -311 -315 0
-35 -316 311 0
-35 316 -311 0
-36 -316 311 0
-36 316 -311 0
-37 -316 311 0
-37 316 -311 0
-38 -316 311 0
-38 316 -311 0
-39 -316 311 0
-39 316 -311 0
-40 -316 311 0
-40 316 -311 0
-54 -316 311 0
-54 316 -311 0
-31 -312 317 0
-31 -311 317 0
-31 -317 312 311 0
-32 -317 312 0
-32 317 -312 0
-33 -317 312 0
-33 317 -312 0
-34 -317 312 0
-34 317 -312 0
-35 -317 312 0
-35 -317 313 0
-35 317 -312 -313 0
-36 -317 312 0
-36 -317 314 0
-36 317 -312 -314 0
-37 -317 312 0
-37 -317 315 0
-37 317 -312 -315 0
-38 -317 312 0
-38 317 -312 0
-39 -317 312 0
-39 317 -312 0
-40 -317 312 0
-40 317 -312 0
-54 -317 312 0
-54 317 -312 0
-31 -318 313 0
-31 318 -313 0
-32 -313 318 0
-32 -311 318 0
-32 -318 313 311 0
-33 -318 313 0
-33 318 -313 0
-34 -318 313 0
-34 318 -313 0
-35 -313 318 0
-35 -312 318 0
-35 -318 313 312 0
-36 -318 313 0
-36 318 -313 0
-37 -318 313 0
-37 318 -313 0
-38 -318 313 0
-38 -318 314 0
-38 318 -313 -314 0
-39 -318 313 0
-39 -318 315 0
-39 318 -313 -315 0
-40 -318 313 0
-40 318 -313 0
-54 -318 313 0
-54 318 -313 0
-31 -319 314 0
-31 319 -314 0
-32 -319 314 0
-32 319 -314 0
-33 -314 319 0
-33 -311 319 0
-33 -319 314 311 0
-34 -319 314 0
-34 319 -314 0
-35 -319 314 0
-35 319 -314 0
-36 -314 319 0
-36 -312 319 0
-36 -319 314 312 0
-37 -319 314 0
-37 319 -314 0
-38 -314 319 0
-38 -313 319 0
-38 -319 314 313 0
-39 -319 314 0
-39 319 -314 0
-40 -319 314 0
-40 -319 315 0
-40 319 -314 -315 0
-54 -319 314 0
-54 319 -314 0
-31 -320 315 0
-31 320 -315 0
-32 -320 315 0
-32 320 -315 0
-33 -320 315 0
-33 320 -315 0
-34 -315 320 0
-34 -311 320 0
-34 -320 315 311 0
-35 -320 315 0
-35 320 -315 0
-36 -320 315 0
-36 320 -315 0
-37 -315 320 0
-37 -312 320 0
-37 -320 315 312 0
-38 -320 315 0
-38 320 -315 0
-39 -315 320 0
-39 -313 320 0
-39 -320 315 313 0
-40 -315 320 0
-40 -314 320 0
-40 -320 315 314 0
-54 -320 315 0
-54 320 -315 0
-41 -321 316 0
-41 -321 317 0
-41 321 -316 -317 0
-42 -321 316 0
-42 -321 318 0
-42 321 -316 -318 0
-43 -321 316 0
-43 -321 319 0
-43 321 -316 -319 0
-44 -321 316 0
-44 -321 320 0
-44 321 -316 -320 0
-45 -321 316 0
-45 321 -316 0
-46 -321 316 0
-46 321 -316 0
-47 -321 316 0
-47 321 -316 0
-48 -321 316 0
-48 321 -316 0
-49 -321 316 0
-49 321 -316 0
-50 -321 316 0
-50 321 -316 0
-55 -321 316 0
-55 321 -316 0
-41 -317 322 0
-41 -316 322 0
-41 -322 317 316 0
-42 -322 317 0
-42 322 -317 0
-43 -322 317 0
-43 322 -317 0
-44 -322 317 0
-44 322 -317 0
-45 -322 317 0
-45 -322 318 0
-45 322 -317 -318 0
-46 -322 317 0
-46 -322 319 0
-46 322 -317 -319 0
-47 -322 317 0
-47 -322 320 0
-47 322 -317 -320 0
-48 -322 317 0
-48 322 -317 0
-49 -322 317 0
-49 322 -317 0
-50 -322 317 0
-50 322 -317 0
-55 -322 317 0
-55 322 -317 0
-41 -323 318 0
-41 323 -318 0
-42 -318 323 0
-42 -316 323 0
-42 -323 318 316 0
-43 -323 318 0
-43 323 -318 0
-44 -323 318 0
-44 323 -318 0
-45 -318 323 0
-45 -317 323 0
-45 -323 318 317 0
-46 -323 318 0
-46 323 -318 0
-47 -323 318 0
-47 323 -318 0
-48 -323 318 0
-48 -323 319 0
-48 323 -318 -319 0
-49 -323 318 0
-49 -323 320 0
-49 323 -318 -320 0
-50 -323 318 0
-50 323 -318 0
-55 -323 318 0
-55 323 -318 0
-41 -324 319 0
-41 324 -319 0
-42 -324 319 0
-42 324 -319 0
-43 -319 324 0
-43 -316 324 0
-43 -324 319 316 0
-44 -324 319 0
-44 324 -319 0
-45 -324 319 0
-45 324 -319 0
-46 -319 324 0
-46 -317 324 0
-46 -324 319 317 0
-47 -324 319 0
-47 324 -319 0
-48 -319 324 0
-48 -318 324 0
-48 -324 319 318 0
-49 -324 319 0
-49 324 -319 0
-50 -324 319 0
-50 -324 320 0
-50 324 -319 -320 0
-55 -324 319 0
-55 324 -319 0
-41 -325 320 0
-41 325 -320 0
-42 -325 320 0
-42 325 -320 0
-43 -325 320 0
-43 325 -320 0
-44 -320 325 0
-44 -316 325 0
-44 -325 320 316 0
-45 -325 320 0
-45 325 -320 0
-46 -325 320 0
-46 325 -320 0
-47 -320 325 0
-47 -317 325 0
-47 -325 320 317 0
-48 -325 320 0
-48 325 -320 0
-49 -320 325 0
-49 -318 325 0
-49 -325 320 318 0
-50 -320 325 0
-50 -319 325 0
-50 -325 320 319 0
-55 -325 320 0
-55 325 -320 0
-326 0
-1 -331 326 0
-1 -331 327 0
-1 331 -326 -327 0
-2 -331 326 0
-2 -331 328 0
-2 331 -326 -328 0
-3 -331 326 0
-3 -331 329 0
-3 331 -326 -329 0
-4 -331 326 0
-4 -331 330 0
-4 331 -326 -330 0
-5 -331 326 0
-5 331 -326 0
-6 -331 326 0
-6 331 -326 0
-7 -331 326 0
-7 331 -326 0
-8 -331 326 0
-8 331 -326 0
-9 -331 326 0
-9 331 -326 0
-10 -331 326 0
-10 331 -326 0
-51 -331 326 0
-51 331 -326 0
327 0
-1 -327 332 0
-1 -326 332 0
-1 -332 327 326 0
-2 -332 327 0
-2 332 -327 0
-3 -332 327 0
-3 332 -327 0
-4 -332 327 0
-4 332 -327 0
-5 -332 327 0
-5 -332 328 0
-5 332 -327 -328 0
-6 -332 327 0
-6 -332 329 0
-6 332 -327 -329 0
-7 -332 327 0
-7 -332 330 0
-7 332 -327 -330 0
-8 -332 327 0
-8 332 -327 0
-9 -332 327 0
-9 332 -327 0
-10 -332 327 0
-10 332 -327 0
-51 -332 327 0
-51 332 -327 0
328 0
-1 -333 328 0
-1 333 -328 0
-2 -328 333 0
-2 -326 333 0
-2 -333 328 326 0
-3 -333 328 0
-3 333 -328 0
-4 -333 328 0
-4 333 -328 0
-5 -328 333 0
-5 -327 333 0
-5 -333 328 327 0
-6 -333 328 0
-6 333 -328 0
-7 -333 328 0
-7 333 -328 0
-8 -333 328 0
-8 -333 329 0
-8 333 -328 -329 0
-9 -333 328 0
-9 -333 330 0
-9 333 -328 -330 0
-10 -333 328 0
-10 333 -328 0
-51 -333 328 0
-51 333 -328 0
-329 0
-1 -334 329 0
-1 334 -329 0
-2 -334 329 0
-2 334 -329 0
-3 -329 334 0
-3 -326 334 0
-3 -334 329 326 0
-4 -334 329 0
-4 334 -329 0
-5 -334 329 0
-5 334 -329 0
-6 -329 334 0
-6 -327 334 0
-6 -334 329 327 0
-7 -334 329 0
-7 334 -329 0
-8 -329 334 0
-8 -328 334 0
-8 -334 329 328 0
-9 -334 329 0
-9 334 -329 0
-10 -334 329 0
-10 -334 330 0
-10 334 -329 -330 0
-51 -334 329 0
-51 334 -329 0
330 0
-1 -335 330 0
-1 335 -330 0
-2 -335 330 0
-2 335 -330 0
-3 -335 330 0
-3 335 -330 0
-4 -330 335 0
-4 -326 335 0
-4 -335 330 326 0
-5 -335 330 0
-5 335 -330 0
-6 -335 330 0
-6 335 -330 0
-7 -330 335 0
-7 -327 335 0
-7 -335 330 327 0
-8 -335 330 0
-8 335 -330 0
-9 -330 335 0
-9 -328 335 0
-9 -335 330 328 0
-10 -330 335 0
-10 -329 335 0
-10 -335 330 329 0
-51 -335 330 0
-51 335 -330 0
-11 -336 331 0
-11 -336 332 0
-11 336 -331 -332 0
-12 -336 331 0
-12 -336 333 0
-12 336 -331 -333 0
-13 -336 331 0
-13 -336 334 0
-13 336 -331 -334 0
-14 -336 331 0
-14 -336 335 0
-14 336 -331 -335 0
-15 -336 331 0
-15 336 -331 0
-16 -336 331 0
-16 336 -331 0
-17 -336 331 0
-17 336 -331 0
-18 -336 331 0
-18 336 -331 0
-19 -336 331 0
-19 336 -331 0
-20 -336 331 0
-20 336 -331 0
-52 -336 331 0
-52 336 -331 0
-11 -332 337 0
-11 -331 337 0
-11 -337 332 331 0
-12 -337 332 0
-12 337 -332 0
-13 -337 332 0
-13 337 -332 0
-14 -337 332 0
-14 337 -332 0
-15 -337 332 0
-15 -337 333 0
-15 337 -332 -333 0
-16 -337 332 0
-16 -337 334 0
-16 337 -332 -334 0
-17 -337 332 0
-17 -337 335 0
-17 337 -332 -335 0
-18 -337 332 0
-18 337 -332 0
-19 -337 332 0
-19 337 -332 0
-20 -337 332 0
-20 337 -332 0
-52 -337 332 0
-52 337 -332 0
-11 -338 333 0
-11 338 -333 0
-12 -333 338 0
-12 -331 338 0
-12 -338 333 331 0
-13 -338 333 0
-13 338 -333 0
-14 -338 333 0
-14 338 -333 0
-15 -333 338 0
-15 -332 338 0
-15 -338 333 332 0
-16 -338 333 0
-16 338 -333 0
-17 -338 333 0
-17 338 -333 0
-18 -338 333 0
-18 -338 334 0
-18 338 -333 -334 0
-19 -338 333 0
-19 -338 335 0
-19 338 -333 -335 0
-20 -338 333 0
-20 338 -333 0
-52 -338 333 0
-52 338 -333 0
-11 -339 334 0
-11 339 -334 0
-12 -339 334 0
-12 339 -334 0
-13 -334 339 0
-13 -331 339 0
-13 -339 334 331 0
-14 -339 334 0
-14 339 -334 0
-15 -339 334 0
-15 339 -334 0
-16 -334 339 0
-16 -332 339 0
-16 -339 334 332 0
-17 -339 334 0
-17 339 -334 0
-18 -334 339 0
-18 -333 339 0
-18 -339 334 333 0
-19 -339 334 0
-19 339 -334 0
-20 -339 334 0
-20 -339 335 0
-20 339 -334 -335 0
-52 -339 334 0
-52 339 -334 0
-11 -340 335 0
-11 340 -335 0
-12 -340 335 0
-12 340 -335 0
-13 -340 335 0
-13 340 -335 0
-14 -335 340 0
-14 -331 340 0
-14 -340 335 331 0
-15 -340 335 0
-15 340 -335 0
-16 -340 335 0
-16 340 -335 0
-17 -335 340 0
-17 -332 340 0
-17 -340 335 332 0
-18 -340 335 0
-18 340 -335 0
-19 -335 340 0
-19 -333 340 0
-19 -340 335 333 0
-20 -335 340 0
-20 -334 340 0
-20 -340 335 334 0
-52 -340 335 0
-52 340 -335 0
-21 -341 336 0
-21 -341 337 0
-21 341 -336 -337 0
-22 -341 336 0
-22 -341 338 0
-22 341 -336 -338 0
-23 -341 336 0
-23 -341 339 0
-23 341 -336 -339 0
-24 -341 336 0
-24 -341 340 0
-24 341 -336 -340 0
-25 -341 336 0
-25 341 -336 0
-26 -341 336 0
-26 341 -336 0
-27 -341 336 0
-27 341 -336 0
-28 -341 336 0
-28 341 -336 0
-29 -341 336 0
-29 341 -336 0
-30 -341 336 0
-30 341 -336 0
-53 -341 336 0
-53 341 -336 0
-21 -337 342 0
-21 -336 342 0
-21 -342 337 336 0
-22 -342 337 0
-22 342 -337 0
-23 -342 337 0
-23 342 -337 0
-24 -342 337 0
-24 342 -337 0
-25 -342 337 0
-25 -342 338 0
-25 342 -337 -338 0
-26 -342 337 0
-26 -342 339 0
-26 342 -337 -339 0
-27 -342 337 0
-27 -342 340 0
-27 342 -337 -340 0
-28 -342 337 0
-28 342 -337 0
-29 -342 337 0
-29 342 -337 0
-30 -342 337 0
-30 342 -337 0
-53 -342 337 0
-53 342 -337 0
-21 -343 338 0
-21 343 -338 0
-22 -338 343 0
-22 -336 343 0
-22 -343 338 336 0
-23 -343 338 0
-23 343 -338 0
-24 -343 338 0
-24 343 -338 0
-25 -338 343 0
-25 -337 343 0
-25 -343 338 337 0
-26 -343 338 0
-26 343 -338 0
-27 -343 338 0
-27 343 -338 0
-28 -343 338 0
-28 -343 339 0
-28 343 -338 -339 0
-29 -343 338 0
-29 -343 340 0
-29 343 -338 -340 0
-30 -343 338 0
-30 343 -338 0
-53 -343 338 0
-53 343 -338 0
-21 -344 339 0
-21 344 -339 0
-22 -344 339 0
-22 344 -339 0
-23 -339 344 0
-23 -336 344 0
-23 -344 339 336 0
-24 -344 339 0
-24 344 -339 0
-25 -344 339 0
-25 344 -339 0
-26 -339 344 0
-26 -337 344 0
-26 -344 339 337 0
-27 -344 339 0
-27 344 -339 0
-28 -339 344 0
-28 -338 344 0
-28 -344 339 338 0
-29 -344 339 0
-29 344 -339 0
-30 -344 339 0
-30 -344 340 0
-30 344 -339 -340 0
-53 -344 339 0
-53 344 -339 0
-21 -345 340 0
-21 345 -340 0
-22 -345 340 0
-22 345 -340 0
-23 -345 340 0
-23 345 -340 0
-24 -340 345 0
-24 -336 345 0
-24 -345 340 336 0
-25 -345 340 0
-25 345 -340 0
-26 -345 340 0
-26 345 -340 0
-27 -340 345 0
-27 -337 345 0
-27 -345 340 337 0
-28 -345 340 0
-28 345 -340 0
-29 -340 345 0
-29 -338 345 0
-29 -345 340 338 0
-30 -340 345 0
-30 -339 345 0
-30 -345 340 339 0
-53 -345 340 0
-53 345 -340 0
-31 -346 341 0
-31 -346 342 0
-31 346 -341 -342 0
-32 -346 341 0
-32 -346 343 0
-32 346 -341 -343 0
-33 -346 341 0
-33 -346 344 0
-33 346 -341 -344 0
-34 -346 341 0
-34 -346 345 0
-34 346 -341 -345 0
-35 -346 341 0
-35 346 -341 0
-36 -346 341 0
-36 346 -341 0
-37 -346 341 0
-37 346 -341 0
-38 -346 341 0
-38 346 -341 0
-39 -346 341 0
-39 346 -341 0
-40 -346 341 0
-40 346 -341 0
-54 -346 341 0
-54 346 -341 0
-31 -342 347 0
-31 -341 347 0
-31 -347 342 341 0
-32 -347 342 0
-32 347 -342 0
-33 -347 342 0
-33 347 -342 0
-34 -347 342 0
-34 347 -342 0
-35 -347 342 0
-35 -347 343 0
-35 347 -342 -343 0
-36 -347 342 0
-36 -347 344 0
-36 347 -342 -344 0
-37 -347 342 0
-37 -347 345 0
-37 347 -342 -345 0
-38 -347 342 0
-38 347 -342 0
-39 -347 342 0
-39 347 -342 0
-40 -347 342 0
-40 347 -342 0
-54 -347 342 0
-54 347 -342 0
-31 -348 343 0
-31 348 -343 0
-32 -343 348 0
-32 -341 348 0
-32 -348 343 341 0
-33 -348 343 0
-33 348 -343 0
-34 -348 343 0
-34 348 -343 0
-35 -343 348 0
-35 -342 348 0
-35 -348 343 342 0
-36 -348 343 0
-36 348 -343 0
-37 -348 343 0
-37 348 -343 0
-38 -348 343 0
-38 -348 344 0
-38 348 -343 -344 0
-39 -348 343 0
-39 -348 345 0
-39 348 -343 -345 0
-40 -348 343 0
-40 348 -343 0
-54 -348 343 0
-54 348 -343 0
-31 -349 344 0
-31 349 -344 0
-32 -349 344 0
-32 349 -344 0
-33 -344 349 0
-33 -341 349 0
-33 -349 344 341 0
-34 -349 344 0
-34 349 -344 0
-35 -349 344 0
-35 349 -344 0
-36 -344 349 0
-36 -342 349 0
-36 -349 344 342 0
-37 -349 344 0
-37 349 -344 0
-38 -344 349 0
-38 -343 349 0
-38 -349 344 343 0
-39 -349 344 0
-39 349 -344 0
-40 -349 344 0
-40 -349 345 0
-40 349 -344 -345 0
-54 -349 344 0
-54 349 -344 0
-31 -350 345 0
-31 350 -345 0
-32 -350 345 0
-32 350 -345 0
-33 -350 345 0
-33 350 -345 0
-34 -345 350 0
-34 -341 350 0
-34 -350 345 341 0
-35 -350 345 0
-35 350 -345 0
-36 -350 345 0
-36 350 -345 0
-37 -345 350 0
-37 -342 350 0
-37 -350 345 342 0
-38 -350 345 0
-38 350 -345 0
-39 -345 350 0
-39 -343 350 0
-39 -350 345 343 0
-40 -345 350 0
-40 -344 350 0
-40 -350 345 344 0
-54 -350 345 0
-54 350 -345 0
-41 -351 346 0
-41 -351 347 0
-41 351 -346 -347 0
-42 -351 346 0
-42 -351 348 0
-42 351 -346 -348 0
-43 -351 346 0
-43 -351 349 0
-43 351 -346 -349 0
-44 -351 346 0
-44 -351 350 0
-44 351 -346 -350 0
-45 -351 346 0
-45 351 -346 0
-46 -351 346 0
-46 351 -346 0
-47 -351 346 0
-47 351 -346 0
-48 -351 346 0
-48 351 -346 0
-49 -351 346 0
-49 351 -346 0
-50 -351 346 0
-50 351 -346 0
-55 -351 346 0
-55 351 -346 0
-41 -347 352 0
-41 -346 352 0
-41 -352 347 346 0
-42 -352 347 0
-42 352 -347 0
-43 -352 347 0
-43 352 -347 0
-44 -352 347 0
-44 352 -347 0
-45 -352 347 0
-45 -352 348 0
-45 352 -347 -348 0
-46 -352 347 0
-46 -352 349 0
-46 352 -347 -349 0
-47 -352 347 0
-47 -352 350 0
-47 352 -347 -350 0
-48 -352 347 0
-48 352 -347 0
-49 -352 347 0
-49 352 -347 0
-50 -352 347 0
-50 352 -347 0
-55 -352 347 0
-55 352 -347 0
-41 -353 348 0
-41 353 -348 0
-42 -348 353 0
-42 -346 353 0
-42 -353 348 346 0
-43 -353 348 0
-43 353 -348 0
-44 -353 348 0
-44 353 -348 0
-45 -348 353 0
-45 -347 353 0
-45 -353 348 347 0
-46 -353 348 0
-46 353 -348 0
-47 -353 348 0
-47 353 -348 0
-48 -353 348 0
-48 -353 349 0
-48 353 -348 -349 0
-49 -353 348 0
-49 -353 350 0
-49 353 -348 -350 0
-50 -353 348 0
-50 353 -348 0
-55 -353 348 0
-55 353 -348 0
-41 -354 349 0
-41 354 -349 0
-42 -354 349 0
-42 354 -349 0
-43 -349 354 0
-43 -346 354 0
-43 -354 349 346 0
-44 -354 349 0
-44 354 -349 0
-45 -354 349 0
-45 354 -349 0
-46 -349 354 0
-46 -347 354 0
-46 -354 349 347 0
-47 -354 349 0
-47 354 -349 0
-48 -349 354 0
-48 -348 354 0
-48 -354 349 348 0
-49 -354 349 0
-49 354 -349 0
-50 -354 349 0
-50 -354 350 0
-50 354 -349 -350 0
-55 -354 349 0
-55 354 -349 0
-41 -355 350 0
-41 355 -350 0
-42 -355 350 0
-42 355 -350 0
-43 -355 350 0
-43 355 -350 0
-44 -350 355 0
-44 -346 355 0
-44 -355 350 346 0
-45 -355 350 0
-45 355 -350 0
-46 -355 350 0
-46 355 -350 0
-47 -350 355 0
-47 -347 355 0
-47 -355 350 347 0
-48 -355 350 0
-48 355 -350 0
-49 -350 355 0
-49 -348 355 0
-49 -355 350 348 0
-50 -350 355 0
-50 -349 355 0
-50 -355 350 349 0
-55 -355 350 0
-55 355 -350 0
-356 0
-1 -361 356 0
-1 -361 357 0
-1 361 -356 -357 0
-2 -361 356 0
-2 -361 358 0
-2 361 -356 -358 0
-3 -361 356 0
-3 -361 359 0
-3 361 -356 -359 0
-4 -361 356 0
-4 -361 360 0
-4 361 -356 -360 0
-5 -361 356 0
-5 361 -356 0
-6 -361 356 0
-6 361 -356 0
-7 -361 356 0
-7 361 -356 0
-8 -361 356 0
-8 361 -356 0
-9 -361 356 0
-9 361 -356 0
-10 -361 356 0
-10 361 -356 0
-51 -361 356 0
-51 361 -356 0
357 0
-1 -357 362 0
-1 -356 362 0
-1 -362 357 356 0
-2 -362 357 0
-2 362 -357 0
-3 -362 357 0
-3 362 -357 0
-4 -362 357 0
-4 362 -357 0
-5 -362 357 0
-5 -362 358 0
-5 362 -357 -358 0
-6 -362 357 0
-6 -362 359 0
-6 362 -357 -359 0
-7 -362 357 0
-7 -362 360 0
-7 362 -357 -360 0
-8 -362 357 0
-8 362 -357 0
-9 -362 357 0
-9 362 -357 0
-10 -362 357 0
-10 362 -357 0
-51 -362 357 0
-51 362 -357 0
358 0
-1 -363 358 0
-1 363 -358 0
-2 -358 363 0
-2 -356 363 0
-2 -363 358 356 0
-3 -363 358 0
-3 363 -358 0
-4 -363 358 0
-4 363 -358 0
-5 -358 363 0
-5 -357 363 0
-5 -363 358 357 0
-6 -363 358 0
-6 363 -358 0
-7 -363 358 0
-7 363 -358 0
-8 -363 358 0
-8 -363 359 0
-8 363 -358 -359 0
-9 -363 358 0
-9 -363 360 0
-9 363 -358 -360 0
-10 -363 358 0
-10 363 -358 0
-51 -363 358 0
-51 363 -358 0
359 0
-1 -364 359 0
-1 364 -359 0
-2 -364 359 0
-2 364 -359 0
-3 -359 364 0
-3 -356 364 0
-3 -364 359 356 0
-4 -364 359 0
-4 364 -359 0
-5 -364 359 0
-5 364 -359 0
-6 -359 364 0
-6 -357 364 0
-6 -364 359 357 0
-7 -364 359 0
-7 364 -359 0
-8 -359 364 0
-8 -358 364 0
-8 -364 359 358 0
-9 -364 359 0
-9 364 -359 0
-10 -364 359 0
-10 -364 360 0
-10 364 -359 -360 0
-51 -364 359 0
-51 364 -359 0
-360 0
-1 -365 360 0
-1 365 -360 0
-2 -365 360 0
-2 365 -360 0
-3 -365 360 0
-3 365 -360 0
-4 -360 365 0
-4 -356 365 0
-4 -365 360 356 0
-5 -365 360 0
-5 365 -360 0
-6 -365 360 0
-6 365 -360 0
-7 -360 365 0
-7 -357 365 0
-7 -365 360 357 0
-8 -365 360 0
-8 365 -360 0
-9 -360 365 0
-9 -358 365 0
-9 -365 360 358 0
-10 -360 365 0
-10 -359 365 0
-10 -365 360 359 0
-51 -365 360 0
-51 365 -360 0
-11 -366 361 0
-11 -366 362 0
-11 366 -361 -362 0
-12 -366 361 0
-12 -366 363 0
-12 366 -361 -363 0
-13 -366 361 0
-13 -366 364 0
-13 366 -361 -364 0
-14 -366 361 0
-14 -366 365 0
-14 366 -361 -365 0
-15 -366 361 0
-15 366 -361 0
-16 -366 361 0
-16 366 -361 0
-17 -366 361 0
-17 366 -361 0
-18 -366 361 0
-18 366 -361 0
-19 -366 361 0
-19 366 -361 0
-20 -366 361 0
-20 366 -361 0
-52 -366 361 0
-52 366 -361 0
-11 -362 367 0
-11 -361 367 0
-11 -367 362 361 0
-12 -367 362 0
-12 367 -362 0
-13 -367 362 0
-13 367 -362 0
-14 -367 362 0
-14 367 -362 0
-15 -367 362 0
-15 -367 363 0
-15 367 -362 -363 0
-16 -367 362 0
-16 -367 364 0
-16 367 -362 -364 0
-17 -367 362 0
-17 -367 365 0
-17 367 -362 -365 0
-18 -367 362 0
-18 367 -362 0
-19 -367 362 0
-19 367 -362 0
-20 -367 362 0
-20 367 -362 0
-52 -367 362 0
-52 367 -362 0
-11 -368 363 0
-11 368 -363 0
-12 -363 368 0
-12 -361 368 0
-12 -368 363 361 0
-13 -368 363 0
-13 368 -363 0
-14 -368 363 0
-14 368 -363 0
-15 -363 368 0
-15 -362 368 0
-15 -368 363 362 0
-16 -368 363 0
-16 368 -363 0
-17 -368 363 0
-17 368 -363 0
-18 -368 363 0
-18 -368 364 0
-18 368 -363 -364 0
-19 -368 363 0
-19 -368 365 0
-19 368 -363 -365 0
-20 -368 363 0
-20 368 -363 0
-52 -368 363 0
-52 368 -363 0
-11 -369 364 0
-11 369 -364 0
-12 -369 364 0
-12 369 -364 0
-13 -364 369 0
-13 -361 369 0
-13 -369 364 361 0
-14 -369 364 0
-14 369 -364 0
-15 -369 364 0
-15 369 -364 0
-16 -364 369 0
-16 -362 369 0
-16 -369 364 362 0
-17 -369 364 0
-17 369 -364 0
-18 -364 369 0
-18 -363 369 0
-18 -369 364 363 0
-19 -369 364 0
-19 369 -364 0
-20 -369 364 0
-20 -369 365 0
-20 369 -364 -365 0
-52 -369 364 0
-52 369 -364 0
-11 -370 365 0
-11 370 -365 0
-12 -370 365 0
-12 370 -365 0
-13 -370 365 0
-13 370 -365 0
-14 -365 370 0
-14 -361 370 0
-14 -370 365 361 0
-15 -370 365 0
-15 370 -365 0
-16 -370 365 0
-16 370 -365 0
-17 -365 370 0
-17 -362 370 0
-17 -370 365 362 0
-18 -370 365 0
-18 370 -365 0
-19 -365 370 0
-19 -363 370 0
-19 -370 365 363 0
-20 -365 370 0
-20 -364 370 0
-20 -370 365 364 0
-52 -370 365 0
-52 370 -365 0
-21 -371 366 0
-21 -371 367 0
-21 371 -366 -367 0
-22 -371 366 0
-22 -371 368 0
-22 371 -366 -368 0
-23 -371 366 0
-23 -371 369 0
-23 371 -366 -369 0
-24 -371 366 0
-24 -371 370 0
-24 371 -366 -370 0
-25 -371 366 0
-25 371 -366 0
-26 -371 366 0
-26 371 -366 0
-27 -371 366 0
-27 371 -366 0
-28 -371 366 0
-28 371 -366 0
-29 -371 366 0
-29 371 -366 0
-30 -371 366 0
-30 371 -366 0
-53 -371 366 0
-53 371 -366 0
-21 -367 372 0
-21 -366 372 0
-21 -372 367 366 0
-22 -372 367 0
-22 372 -367 0
-23 -372 367 0
-23 372 -367 0
-24 -372 367 0
-24 372 -367 0
-25 -372 367 0
-25 -372 368 0
-25 372 -367 -368 0
-26 -372 367 0
-26 -372 369 0
-26 372 -367 -369 0
-27 -372 367 0
-27 -372 370 0
-27 372 -367 -370 0
-28 -372 367 0
-28 372 -367 0
-29 -372 367 0
-29 372 -367 0
-30 -372 367 0
-30 372 -367 0
-53 -372 367 0
-53 372 -367 0
-21 -373 368 0
-21 373 -368 0
-22 -368 373 0
-22 -366 373 0
-22 -373 368 366 0
-23 -373 368 0
-23 373 -368 0
-24 -373 368 0
-24 373 -368 0
-25 -368 373 0
-25 -367 373 0
-25 -373 368 367 0
-26 -373 368 0
-26 373 -368 0
-27 -373 368 0
-27 373 -368 0
-28 -373 368 0
-28 -373 369 0
-28 373 -368 -369 0
-29 -373 368 0
-29 -373 370 0
-29 373 -368 -370 0
-30 -373 368 0
-30 373 -368 0
-53 -373 368 0
-53 373 -368 0
-21 -374 369 0
-21 374 -369 0
-22 -374 369 0
-22 374 -369 0
-23 -369 374 0
-23 -366 374 0
-23 -374 369 366 0
-24 -374 369 0
-24 374 -369 0
-25 -374 369 0
-25 374 -369 0
-26 -369 374 0
-26 -367 374 0
-26 -374 369 367 0
-27 -374 369 0
-27 374 -369 0
-28 -369 374 0
-28 -368 374 0
-28 -374 369 368 0
-29 -374 369 0
-29 374 -369 0
-30 -374 369 0
-30 -374 370 0
-30 374 -369 -370 0
-53 -374 369 0
-53 374 -369 0
-21 -375 370 0
-21 375 -370 0
-22 -375 370 0
-22 375 -370 0
-23 -375 370 0
-23 375 -370 0
-24 -370 375 0
-24 -366 375 0
-24 -375 370 366 0
-25 -375 370 0
-25 375 -370 0
-26 -375 370 0
-26 375 -370 0
-27 -370 375 0
-27 -367 375 0
-27 -375 370 367 0
-28 -375 370 0
-28 375 -370 0
-29 -370 375 0
-29 -368 375 0
-29 -375 370 368 0
-30 -370 375 0
-30 -369 375 0
-30 -375 370 369 0
-53 -375 370 0
-53 375 -370 0
-31 -376 371 0
-31 -376 372 0
-31 376 -371 -372 0
-32 -376 371 0
-32 -376 373 0
-32 376 -371 -373 0
-33 -376 371 0
-33 -376 374 0
-33 376 -371 -374 0
-34 -376 371 0
-34 -376 375 0
-34 376 -371 -375 0
-35 -376 371 0
-35 376 -371 0
-36 -376 371 0
-36 376 -371 0
-37 -376 371 0
-37 376 -371 0
-38 -376 371 0
-38 376 -371 0
-39 -376 371 0
-39 376 -371 0
-40 -376 371 0
-40 376 -371 0
-54 -376 371 0
-54 376 -371 0
-31 -372 377 0
-31 -371 377 0
-31 -377 372 371 0
-32 -377 372 0
-32 377 -372 0
-33 -377 372 0
-33 377 -372 0
-34 -377 372 0
-34 377 -372 0
-35 -377 372 0
-35 -377 373 0
-35 377 -372 -373 0
-36 -377 372 0
-36 -377 374 0
-36 377 -372 -374 0
-37 -377 372 0
-37 -377 375 0
-37 377 -372 -375 0
-38 -377 372 0
-38 377 -372 0
-39 -377 372 0
-39 377 -372 0
-40 -377 372 0
-40 377 -372 0
-54 -377 372 0
-54 377 -372 0
-31 -378 373 0
-31 378 -373 0
-32 -373 378 0
-32 -371 378 0
-32 -378 373 371 0
-33 -378 373 0
-33 378 -373 0
-34 -378 373 0
-34 378 -373 0
-35 -373 378 0
-35 -372 378 0
-35 -378 373 372 0
-36 -378 373 0
-36 378 -373 0
-37 -378 373 0
-37 378 -373 0
-38 -378 373 0
-38 -378 374 0
-38 378 -373 -374 0
-39 -378 373 0
-39 -378 375 0
-39 378 -373 -375 0
-40 -378 373 0
-40 378 -373 0
-54 -378 373 0
-54 378 -373 0
-31 -379 374 0
-31 379 -374 0
-32 -379 374 0
-32 379 -374 0
-33 -374 379 0
-33 -371 379 0
-33 -379 374 371 0
-34 -379 374 0
-34 379 -374 0
-35 -379 374 0
-35 379 -374 0
-36 -374 379 0
-36 -372 379 0
-36 -379 374 372 0
-37 -379 374 0
-37 379 -374 0
-38 -374 379 0
-38 -373 379 0
-38 -379 374 373 0
-39 -379 374 0
-39 379 -374 0
-40 -379 374 0
-40 -379 375 0
-40 379 -374 -375 0
-54 -379 374 0
-54 379 -374 0
-31 -380 375 0
-31 380 -375 0
-32 -380 375 0
-32 380 -375 0
-33 -380 375 0
-33 380 -375 0
-34 -375 380 0
-34 -371 380 0
-34 -380 375 371 0
-35 -380 375 0
-35 380 -375 0
-36 -380 375 0
-36 380 -375 0
-37 -375 380 0
-37 -372 380 0
-37 -380 375 372 0
-38 -380 375 0
-38 380 -375 0
-39 -375 380 0
-39 -373 380 0
-39 -380 375 373 0
-40 -375 380 0
-40 -374 380 0
-40 -380 375 374 0
-54 -380 375 0
-54 380 -375 0
-41 -381 376 0
-41 -381 377 0
-41 381 -376 -377 0
-42 -381 376 0
-42 -381 378 0
-42 381 -376 -378 0
-43 -381 376 0
-43 -381 379 0
-43 381 -376 -379 0
-44 -381 376 0
-44 -381 380 0
-44 381 -376 -380 0
-45 -381 376 0
-45 381 -376 0
-46 -381 376 0
-46 381 -376 0
-47 -381 376 0
-47 381 -376 0
-48 -381 376 0
-48 381 -376 0
-49 -381 376 0
-49 381 -376 0
-50 -381 376 0
-50 381 -376 0
-55 -381 376 0
-55 381 -376 0
-41 -377 382 0
-41 -376 382 0
-41 -382 377 376 0
-42 -382 377 0
-42 382 -377 0
-43 -382 377 0
-43 382 -377 0
-44 -382 377 0
-44 382 -377 0
-45 -382 377 0
-45 -382 378 0
-45 382 -377 -378 0
-46 -382 377 0
-46 -382 379 0
-46 382 -377 -379 0
-47 -382 377 0
-47 -382 380 0
-47 382 -377 -380 0
-48 -382 377 0
-48 382 -377 0
-49 -382 377 0
-49 382 -377 0
-50 -382 377 0
-50 382 -377 0
-55 -382 377 0
-55 382 -377 0
-41 -383 378 0
-41 383 -378 0
-42 -378 383 0
-42 -376 383 0
-42 -383 378 376 0
-43 -383 378 0
-43 383 -378 0
-44 -383 378 0
-44 383 -378 0
-45 -378 383 0
-45 -377 383 0
-45 -383 378 377 0
-46 -383 378 0
-46 383 -378 0
-47 -383 378 0
-47 383 -378 0
-48 -383 378 0
-48 -383 379 0
-48 383 -378 -379 0
-49 -383 378 0
-49 -383 380 0
-49 383 -378 -380 0
-50 -383 378 0
-50 383 -378 0
-55 -383 378 0
-55 383 -378 0
-41 -384 379 0
-41 384 -379 0
-42 -384 379 0
-42 384 -379 0
-43 -379 384 0
-43 -376 384 0
-43 -384 379 376 0
-44 -384 379 0
-44 384 -379 0
-45 -384 379 0
-45 384 -379 0
-46 -379 384 0
-46 -377 384 0
-46 -384 379 377 0
-47 -384 379 0
-47 384 -379 0
-48 -379 384 0
-48 -378 384 0
-48 -384 379 378 0
-49 -384 379 0
-49 384 -379 0
-50 -384 379 0
-50 -384 380 0
-50 384 -379 -380 0
-55 -384 379 0
-55 384 -379 0
-41 -385 380 0
-41 385 -380 0
-42 -385 380 0
-42 385 -380 0
-43 -385 380 0
-43 385 -380 0
-44 -380 385 0
-44 -376 385 0
-44 -385 380 376 0
-45 -385 380 0
-45 385 -380 0
-46 -385 380 0
-46 385 -380 0
-47 -380 385 0
-47 -377 385 0
-47 -385 380 377 0
-48 -385 380 0
-48 385 -380 0
-49 -380 385 0
-49 -378 385 0
-49 -385 380 378 0
-50 -380 385 0
-50 -379 385 0
-50 -385 380 379 0
-55 -385 380 0
-55 385 -380 0
386 0
-1 -391 386 0
-1 -391 387 0
-1 391 -386 -387 0
-2 -391 386 0
-2 -391 388 0
-2 391 -386 -388 0
-3 -391 386 0
-3 -391 389 0
-3 391 -386 -389 0
-4 -391 386 0
-4 -391 390 0
-4 391 -386 -390 0
-5 -391 386 0
-5 391 -386 0
-6 -391 386 0
-6 391 -386 0
-7 -391 386 0
-7 391 -386 0
-8 -391 386 0
-8 391 -386 0
-9 -391 386 0
-9 391 -386 0
-10 -391 386 0
-10 391 -386 0
-51 -391 386 0
-51 391 -386 0
-387 0
-1 -387 392 0
-1 -386 392 0
-1 -392 387 386 0
-2 -392 387 0
-2 392 -387 0
-3 -392 387 0
-3 392 -387 0
-4 -392 387 0
-4 392 -387 0
-5 -392 387 0
-5 -392 388 0
-5 392 -387 -388 0
-6 -392 387 0
-6 -392 389 0
-6 392 -387 -389 0
-7 -392 387 0
-7 -392 390 0
-7 392 -387 -390 0
-8 -392 387 0
-8 392 -387 0
-9 -392 387 0
-9 392 -387 0
-10 -392 387 0
-10 392 -387 0
-51 -392 387 0
-51 392 -387 0
-388 0
-1 -393 388 0
-1 393 -388 0
-2 -388 393 0
-2 -386 393 0
-2 -393 388 386 0
-3 -393 388 0
-3 393 -388 0
-4 -393 388 0
-4 393 -388 0
-5 -388 393 0
-5 -387 393 0
-5 -393 388 387 0
-6 -393 388 0
-6 393 -388 0
-7 -393 388 0
-7 393 -388 0
-8 -393 388 0
-8 -393 389 0
-8 393 -388 -389 0
-9 -393 388 0
-9 -393 390 0
-9 393 -388 -390 0
-10 -393 388 0
-10 393 -388 0
-51 -393 388 0
-51 393 -388 0
-389 0
-1 -394 389 0
-1 394 -389 0
-2 -394 389 0
-2 394 -389 0
-3 -389 394 0
-3 -386 394 0
-3 -394 389 386 0
-4 -394 389 0
-4 394 -389 0
-5 -394 389 0
-5 394 -389 0
-6 -389 394 0
-6 -387 394 0
-6 -394 389 387 0
-7 -394 389 0
-7 394 -389 0
-8 -389 394 0
-8 -388 394 0
-8 -394 389 388 0
-9 -394 389 0
-9 394 -389 0
-10 -394 389 0
-10 -394 390 0
-10 394 -389 -390 0
-51 -394 389 0
-51 394 -389 0
-390 0
-1 -395 390 0
-1 395 -390 0
-2 -395 390 0
-2 395 -390 0
-3 -395 390 0
-3 395 -390 0
-4 -390 395 0
-4 -386 395 0
-4 -395 390 386 0
-5 -395 390 0
-5 395 -390 0
-6 -395 390 0
-6 395 -390 0
-7 -390 395 0
-7 -387 395 0
-7 -395 390 387 0
-8 -395 390 0
-8 395 -390 0
-9 -390 395 0
-9 -388 395 0
-9 -395 390 388 0
-10 -390 395 0
-10 -389 395 0
-10 -395 390 389 0
-51 -395 390 0
-51 395 -390 0
-11 -396 391 0
-11 -396 392 0
-11 396 -391 -392 0
-12 -396 391 0
-12 -396 393 0
-12 396 -391 -393 0
-13 -396 391 0
-13 -396 394 0
-13 396 -391 -394 0
-14 -396 391 0
-14 -396 395 0
-14 396 -391 -395 0
-15 -396 391 0
-15 396 -391 0
-16 -396 391 0
-16 396 -391 0
-17 -396 391 0
-17 396 -391 0
-18 -396 391 0
-18 396 -391 0
-19 -396 391 0
-19 396 -391 0
-20 -396 391 0
-20 396 -391 0
-52 -396 391 0
-52 396 -391 0
-11 -392 397 0
-11 -391 397 0
-11 -397 392 391 0
-12 -397 392 0
-12 397 -392 0
-13 -397 392 0
-13 397 -392 0
-14 -397 392 0
-14 397 -392 0
-15 -397 392 0
-15 -397 393 0
-15 397 -392 -393 0
-16 -397 392 0
-16 -397 394 0
-16 397 -392 -394 0
-17 -397 392 0
-17 -397 395 0
-17 397 -392 -395 0
-18 -397 392 0
-18 397 -392 0
-19 -397 392 0
-19 397 -392 0
-20 -397 392 0
-20 397 -392 0
-52 -397 392 0
-52 397 -392 0
-11 -398 393 0
-11 398 -393 0
-12 -393 398 0
-12 -391 398 0
-12 -398 393 391 0
-13 -398 393 0
-13 398 -393 0
-14 -398 393 0
-14 398 -393 0
-15 -393 398 0
-15 -392 398 0
-15 -398 393 392 0
-16 -398 393 0
-16 398 -393 0
-17 -398 393 0
-17 398 -393 0
-18 -398 393 0
-18 -398 394 0
-18 398 -393 -394 0
-19 -398 393 0
-19 -398 395 0
-19 398 -393 -395 0
-20 -398 393 0
-20 398 -393 0
-52 -398 393 0
-52 398 -393 0
-11 -399 394 0
-11 399 -394 0
-12 -399 394 0
-12 399 -394 0
-13 -394 399 0
-13 -391 399 0
-13 -399 394 391 0
-14 -399 394 0
-14 399 -394 0
-15 -399 394 0
-15 399 -394 0
-16 -394 399 0
-16 -392 399 0
-16 -399 394 392 0
-17 -399 394 0
-17 399 -394 0
-18 -394 399 0
-18 -393 399 0
-18 -399 394 393 0
-19 -399 394 0
-19 399 -394 0
-20 -399 394 0
-20 -399 395 0
-20 399 -394 -395 0
-52 -399 394 0
-52 399 -394 0
-11 -400 395 0
-11 400 -395 0
-12 -400 395 0
-12 400 -395 0
-13 -400 395 0
-13 400 -395 0
-14 -395 400 0
-14 -391 400 0
-14 -400 395 391 0
-15 -400 395 0
-15 400 -395 0
-16 -400 395 0
-16 400 -395 0
-17 -395 400 0
-17 -392 400 0
-17 -400 395 392 0
-18 -400 395 0
-18 400 -395 0
-19 -395 400 0
-19 -393 400 0
-19 -400 395 393 0
-20 -395 400 0
-20 -394 400 0
-20 -400 395 394 0
-52 -400 395 0
-52 400 -395 0
-21 -401 396 0
-21 -401 397 0
-21 401 -396 -397 0
-22 -401 396 0
-22 -401 398 0
-22 401 -396 -398 0
-23 -401 396 0
-23 -401 399 0
-23 401 -396 -399 0
-24 -401 396 0
-24 -401 400 0
-24 401 -396 -400 0
-25 -401 396 0
-25 401 -396 0
-26 -401 396 0
-26 401 -396 0
-27 -401 396 0
-27 401 -396 0
-28 -401 396 0
-28 401 -396 0
-29 -401 396 0
-29 401 -396 0
-30 -401 396 0
-30 401 -396 0
-53 -401 396 0
-53 401 -396 0
-21 -397 402 0
-21 -396 402 0
-21 -402 397 396 0
-22 -402 397 0
-22 402 -397 0
-23 -402 397 0
-23 402 -397 0
-24 -402 397 0
-24 402 -397 0
-25 -402 397 0
-25 -402 398 0
-25 402 -397 -398 0
-26 -402 397 0
-26 -402 399 0
-26 402 -397 -399 0
-27 -402 397 0
-27 -402 400 0
-27 402 -397 -400 0
-28 -402 397 0
-28 402 -397 0
-29 -402 397 0
-29 402 -397 0
-30 -402 397 0
-30 402 -397 0
-53 -402 397 0
-53 402 -397 0
-21 -403 398 0
-21 403 -398 0
-22 -398 403 0
-22 -396 403 0
-22 -403 398 396 0
-23 -403 398 0
-23 403 -398 0
-24 -403 398 0
-24 403 -398 0
-25 -398 403 0
-25 -397 403 0
-25 -403 398 397 0
-26 -403 398 0
-26 403 -398 0
-27 -403 398 0
-27 403 -398 0
-28 -403 398 0
-28 -403 399 0
-28 403 -398 -399 0
-29 -403 398 0
-29 -403 400 0
-29 403 -398 -400 0
-30 -403 398 0
-30 403 -398 0
-53 -403 398 0
-53 403 -398 0
-21 -404 399 0
-21 404 -399 0
-22 -404 399 0
-22 404 -399 0
-23 -399 404 0
-23 -396 404 0
-23 -404 399 396 0
-24 -404 399 0
-24 404 -399 0
-25 -404 399 0
-25 404 -399 0
-26 -399 404 0
-26 -397 404 0
-26 -404 399 397 0
-27 -404 399 0
-27 404 -399 0
-28 -399 404 0
-28 -398 404 0
-28 -404 399 398 0
-29 -404 399 0
-29 404 -399 0
-30 -404 399 0
-30 -404 400 0
-30 404 -399 -400 0
-53 -404 399 0
-53 404 -399 0
-21 -405 400 0
-21 405 -400 0
-22 -405 400 0
-22 405 -400 0
-23 -405 400 0
-23 405 -400 0
-24 -400 405 0
-24 -396 405 0
-24 -405 400 396 0
-25 -405 400 0
-25 405 -400 0
-26 -405 400 0
-26 405 -400 0
-27 -400 405 0
-27 -397 405 0
-27 -405 400 397 0
-28 -405 400 0
-28 405 -400 0
-29 -400 405 0
-29 -398 405 0
-29 -405 400 398 0
-30 -400 405 0
-30 -399 405 0
-30 -405 400 399 0
-53 -405 400 0
-53 405 -400 0
-31 -406 401 0
-31 -406 402 0
-31 406 -401 -402 0
-32 -406 401 0
-32 -406 403 0
-32 406 -401 -403 0
-33 -406 401 0
-33 -406 404 0
-33 406 -401 -404 0
-34 -406 401 0
-34 -406 405 0
-34 406 -401 -405 0
-35 -406 401 0
-35 406 -401 0
-36 -406 401 0
-36 406 -401 0
-37 -406 401 0
-37 406 -401 0
-38 -406 401 0
-38 406 -401 0
-39 -406 401 0
-39 406 -401 0
-40 -406 401 0
-40 406 -401 0
-54 -406 401 0
-54 406 -401 0
-31 -402 407 0
-31 -401 407 0
-31 -407 402 401 0
-32 -407 402 0
-32 407 -402 0
-33 -407 402 0
-33 407 -402 0
-34 -407 402 0
-34 407 -402 0
-35 -407 402 0
-35 -407 403 0
-35 407 -402 -403 0
-36 -407 402 0
-36 -407 404 0
-36 407 -402 -404 0
-37 -407 402 0
-37 -407 405 0
-37 407 -402 -405 0
-38 -407 402 0
-38 407 -402 0
-39 -407 402 0
-39 407 -402 0
-40 -407 402 0
-40 407 -402 0
-54 -407 402 0
-54 407 -402 0
-31 -408 403 0
-31 408 -403 0
-32 -403 408 0
-32 -401 408 0
-32 -408 403 401 0
-33 -408 403 0
-33 408 -403 0
-34 -408 403 0
-34 408 -403 0
-35 -403 408 0
-35 -402 408 0
-35 -408 403 402 0
-36 -408 403 0
-36 408 -403 0
-37 -408 403 0
-37 408 -403 0
-38 -408 403 0
-38 -408 404 0
-38 408 -403 -404 0
-39 -408 403 0
-39 -408 405 0
-39 408 -403 -405 0
-40 -408 403 0
-40 408 -403 0
-54 -408 403 0
-54 408 -403 0
-31 -409 404 0
-31 409 -404 0
-32 -409 404 0
-32 409 -404 0
-33 -404 409 0
-33 -401 409 0
-33 -409 404 401 0
-34 -409 404 0
-34 409 -404 0
-35 -409 404 0
-35 409 -404 0
-36 -404 409 0
-36 -402 409 0
-36 -409 404 402 0
-37 -409 404 0
-37 409 -404 0
-38 -404 409 0
-38 -403 409 0
-38 -409 404 403 0
-39 -409 404 0
-39 409 -404 0
-40 -409 404 0
-40 -409 405 0
-40 409 -404 -405 0
-54 -409 404 0
-54 409 -404 0
-31 -410 405 0
-31 410 -405 0
-32 -410 405 0
-32 410 -405 0
-33 -410 405 0
-33 410 -405 0
-34 -405 410 0
-34 -401 410 0
-34 -410 405 401 0
-35 -410 405 0
-35 410 -405 0
-36 -410 405 0
-36 410 -405 0
-37 -405 410 0
-37 -402 410 0
-37 -410 405 402 0
-38 -410 405 0
-38 410 -405 0
-39 -405 410 0
-39 -403 410 0
-39 -410 405 403 0
-40 -405 410 0
-40 -404 410 0
-40 -410 405 404 0
-54 -410 405 0
-54 410 -405 0
-41 -411 406 0
-41 -411 407 0
-41 411 -406 -407 0
-42 -411 406 0
-42 -411 408 0
-42 411 -406 -408 0
-43 -411 406 0
-43 -411 409 0
-43 411 -406 -409 0
-44 -411 406 0
-44 -411 410 0
-44 411 -406 -410 0
-45 -411 406 0
-45 411 -406 0
-46 -411 406 0
-46 411 -406 0
-47 -411 406 0
-47 411 -406 0
-48 -411 406 0
-48 411 -406 0
-49 -411 406 0
-49 411 -406 0
-50 -411 406 0
-50 411 -406 0
-55 -411 406 0
-55 411 -406 0
-41 -407 412 0
-41 -406 412 0
-41 -412 407 406 0
-42 -412 407 0
-42 412 -407 0
-43 -412 407 0
-43 412 -407 0
-44 -412 407 0
-44 412 -407 0
-45 -412 407 0
-45 -412 408 0
-45 412 -407 -408 0
-46 -412 407 0
-46 -412 409 0
-46 412 -407 -409 0
-47 -412 407 0
-47 -412 410 0
-47 412 -407 -410 0
-48 -412 407 0
-48 412 -407 0
-49 -412 407 0
-49 412 -407 0
-50 -412 407 0
-50 412 -407 0
-55 -412 407 0
-55 412 -407 0
-41 -413 408 0
-41 413 -408 0
-42 -408 413 0
-42 -406 413 0
-42 -413 408 406 0
-43 -413 408 0
-43 413 -408 0
-44 -413 408 0
-44 413 -408 0
-45 -408 413 0
-45 -407 413 0
-45 -413 408 407 0
-46 -413 408 0
-46 413 -408 0
-47 -413 408 0
-47 413 -408 0
-48 -413 408 0
-48 -413 409 0
-48 413 -408 -409 0
-49 -413 408 0
-49 -413 410 0
-49 413 -408 -410 0
-50 -413 408 0
-50 413 -408 0
-55 -413 408 0
-55 413 -408 0
-41 -414 409 0
-41 414 -409 0
-42 -414 409 0
-42 414 -409 0
-43 -409 414 0
-43 -406 414 0
-43 -414 409 406 0
-44 -414 409 0
-44 414 -409 0
-45 -414 409 0
-45 414 -409 0
-46 -409 414 0
-46 -407 414 0
-46 -414 409 407 0
-47 -414 409 0
-47 414 -409 0
-48 -409 414 0
-48 -408 414 0
-48 -414 409 408 0
-49 -414 409 0
-49 414 -409 0
-50 -414 409 0
-50 -414 410 0
-50 414 -409 -410 0
-55 -414 409 0
-55 414 -409 0
-41 -415 410 0
-41 415 -410 0
-42 -415 410 0
-42 415 -410 0
-43 -415 410 0
-43 415 -410 0
-44 -410 415 0
-44 -406 415 0
-44 -415 410 406 0
-45 -415 410 0
-45 415 -410 0
-46 -415 410 0
-46 415 -410 0
-47 -410 415 0
-47 -407 415 0
-47 -415 410 407 0
-48 -415 410 0
-48 415 -410 0
-49 -410 415 0
-49 -408 415 0
-49 -415 410 408 0
-50 -410 415 0
-50 -409 415 0
-50 -415 410 409 0
-55 -415 410 0
-55 415 -410 0
416 0
-1 -421 416 0
-1 -421 417 0
-1 421 -416 -417 0
-2 -421 416 0
-2 -421 418 0
-2 421 -416 -418 0
-3 -421 416 0
-3 -421 419 0
-3 421 -416 -419 0
-4 -421 416 0
-4 -421 420 0
-4 421 -416 -420 0
-5 -421 416 0
-5 421 -416 0
-6 -421 416 0
-6 421 -416 0
-7 -421 416 0
-7 421 -416 0
-8 -421 416 0
-8 421 -416 0
-9 -421 416 0
-9 421 -416 0
-10 -421 416 0
-10 421 -416 0
-51 -421 416 0
-51 421 -416 0
-417 0
-1 -417 422 0
-1 -416 422 0
-1 -422 417 416 0
-2 -422 417 0
-2 422 -417 0
-3 -422 417 0
-3 422 -417 0
-4 -422 417 0
-4 422 -417 0
-5 -422 417 0
-5 -422 418 0
-5 422 -417 -418 0
-6 -422 417 0
-6 -422 419 0
-6 422 -417 -419 0
-7 -422 417 0
-7 -422 420 0
-7 422 -417 -420 0
-8 -422 417 0
-8 422 -417 0
-9 -422 417 0
-9 422 -417 0
-10 -422 417 0
-10 422 -417 0
-51 -422 417 0
-51 422 -417 0
-418 0
-1 -423 418 0
-1 423 -418 0
-2 -418 423 0
-2 -416 423 0
-2 -423 418 416 0
-3 -423 418 0
-3 423 -418 0
-4 -423 418 0
-4 423 -418 0
-5 -418 423 0
-5 -417 423 0
-5 -423 418 417 0
-6 -423 418 0
-6 423 -418 0
-7 -423 418 0
-7 423 -418 0
-8 -423 418 0
-8 -423 419 0
-8 423 -418 -419 0
-9 -423 418 0
-9 -423 420 0
-9 423 -418 -420 0
-10 -423 418 0
-10 423 -418 0
-51 -423 418 0
-51 423 -418 0
-419 0
-1 -424 419 0
-1 424 -419 0
-2 -424 419 0
-2 424 -419 0
-3 -419 424 0
-3 -416 424 0
-3 -424 419 416 0
-4 -424 419 0
-4 424 -419 0
-5 -424 419 0
-5 424 -419 0
-6 -419 424 0
-6 -417 424 0
-6 -424 419 417 0
-7 -424 419 0
-7 424 -419 0
-8 -419 424 0
-8 -418 424 0
-8 -424 419 418 0
-9 -424 419 0
-9 424 -419 0
-10 -424 419 0
-10 -424 420 0
-10 424 -419 -420 0
-51 -424 419 0
-51 424 -419 0
420 0
-1 -425 420 0
-1 425 -420 0
-2 -425 420 0
-2 425 -420 0
-3 -425 420 0
-3 425 -420 0
-4 -420 425 0
-4 -416 425 0
-4 -425 420 416 0
-5 -425 420 0
-5 425 -420 0
-6 -425 420 0
-6 425 -420 0
-7 -420 425 0
-7 -417 425 0
-7 -425 420 417 0
-8 -425 420 0
-8 425 -420 0
-9 -420 425 0
-9 -418 425 0
-9 -425 420 418 0
-10 -420 425 0
-10 -419 425 0
-10 -425 420 419 0
-51 -425 420 0
-51 425 -420 0
-11 -426 421 0
-11 -426 422 0
-11 426 -421 -422 0
-12 -426 421 0
-12 -426 423 0
-12 426 -421 -423 0
-13 -426 421 0
-13 -426 424 0
-13 426 -421 -424 0
-14 -426 421 0
-14 -426 425 0
-14 426 -421 -425 0
-15 -426 421 0
-15 426 -421 0
-16 -426 421 0
-16 426 -421 0
-17 -426 421 0
-17 426 -421 0
-18 -426 421 0
-18 426 -421 0
-19 -426 421 0
-19 426 -421 0
-20 -426 421 0
-20 426 -421 0
-52 -426 421 0
-52 426 -421 0
-11 -422 427 0
-11 -421 427 0
-11 -427 422 421 0
-12 -427 422 0
-12 427 -422 0
-13 -427 422 0
-13 427 -422 0
-14 -427 422 0
-14 427 -422 0
-15 -427 422 0
-15 -427 423 0
-15 427 -422 -423 0
-16 -427 422 0
-16 -427 424 0
-16 427 -422 -424 0
-17 -427 422 0
-17 -427 425 0
-17 427 -422 -425 0
-18 -427 422 0
-18 427 -422 0
-19 -427 422 0
-19 427 -422 0
-20 -427 422 0
-20 427 -422 0
-52 -427 422 0
-52 427 -422 0
-11 -428 423 0
-11 428 -423 0
-12 -423 428 0
-12 -421 428 0
-12 -428 423 421 0
-13 -428 423 0
-13 428 -423 0
-14 -428 423 0
-14 428 -423 0
-15 -423 428 0
-15 -422 428 0
-15 -428 423 422 0
-16 -428 423 0
-16 428 -423 0
-17 -428 423 0
-17 428 -423 0
-18 -428 423 0
-18 -428 424 0
-18 428 -423 -424 0
-19 -428 423 0
-19 -428 425 0
-19 428 -423 -425 0
-20 -428 423 0
-20 428 -423 0
-52 -428 423 0
-52 428 -423 0
-11 -429 424 0
-11 429 -424 0
-12 -429 424 0
-12 429 -424 0
-13 -424 429 0
-13 -421 429 0
-13 -429 424 421 0
-14 -429 424 0
-14 429 -424 0
-15 -429 424 0
-15 429 -424 0
-16 -424 429 0
-16 -422 429 0
-16 -429 424 422 0
-17 -429 424 0
-17 429 -424 0
-18 -424 429 0
-18 -423 429 0
-18 -429 424 423 0
-19 -429 424 0
-19 429 -424 0
-20 -429 424 0
-20 -429 425 0
-20 429 -424 -425 0
-52 -429 424 0
-52 429 -424 0
-11 -430 425 0
-11 430 -425 0
-12 -430 425 0
-12 430 -425 0
-13 -430 425 0
-13 430 -425 0
-14 -425 430 0
-14 -421 430 0
-14 -430 425 421 0
-15 -430 425 0
-15 430 -425 0
-16 -430 425 0
-16 430 -425 0
-17 -425 430 0
-17 -422 430 0
-17 -430 425 422 0
-18 -430 425 0
-18 430 -425 0
-19 -425 430 0
-19 -423 430 0
-19 -430 425 423 0
-20 -425 430 0
-20 -424 430 0
-20 -430 425 424 0
-52 -430 425 0
-52 430 -425 0
-21 -431 426 0
-21 -431 427 0
-21 431 -426 -427 0
-22 -431 426 0
-22 -431 428 0
-22 431 -426 -428 0
-23 -431 426 0
-23 -431 429 0
-23 431 -426 -429 0
-24 -431 426 0
-24 -431 430 0
-24 431 -426 -430 0
-25 -431 426 0
-25 431 -426 0
-26 -431 426 0
-26 431 -426 0
-27 -431 426 0
-27 431 -426 0
-28 -431 426 0
-28 431 -426 0
-29 -431 426 0
-29 431 -426 0
-30 -431 426 0
-30 431 -426 0
-53 -431 426 0
-53 431 -426 0
-21 -427 432 0
-21 -426 432 0
-21 -432 427 426 0
-22 -432 427 0
-22 432 -427 0
-23 -432 427 0
-23 432 -427 0
-24 -432 427 0
-24 432 -427 0
-25 -432 427 0
-25 -432 428 0
-25 432 -427 -428 0
-26 -432 427 0
-26 -432 429 0
-26 432 -427 -429 0
-27 -432 427 0
-27 -432 430 0
-27 432 -427 -430 0
-28 -432 427 0
-28 432 -427 0
-29 -432 427 0
-29 432 -427 0
-30 -432 427 0
-30 432 -427 0
-53 -432 427 0
-53 432 -427 0
-21 -433 428 0
-21 433 -428 0
-22 -428 433 0
-22 -426 433 0
-22 -433 428 426 0
-23 -433 428 0
-23 433 -428 0
-24 -433 428 0
-24 433 -428 0
-25 -428 433 0
-25 -427 433 0
-25 -433 428 427 0
-26 -433 428 0
-26 433 -428 0
-27 -433 428 0
-27 433 -428 0
-28 -433 428 0
-28 -433 429 0
-28 433 -428 -429 0
-29 -433 428 0
-29 -433 430 0
-29 433 -428 -430 0
-30 -433 428 0
-30 433 -428 0
-53 -433 428 0
-53 433 -428 0
-21 -434 429 0
-21 434 -429 0
-22 -434 429 0
-22 434 -429 0
-23 -429 434 0
-23 -426 434 0
-23 -434 429 426 0
-24 -434 429 0
-24 434 -429 0
-25 -434 429 0
-25 434 -429 0
-26 -429 434 0
-26 -427 434 0
-26 -434 429 427 0
-27 -434 429 0
-27 434 -429 0
-28 -429 434 0
-28 -428 434 0
-28 -434 429 428 0
-29 -434 429 0
-29 434 -429 0
-30 -434 429 0
-30 -434 430 0
-30 434 -429 -430 0
-53 -434 429 0
-53 434 -429 0
-21 -435 430 0
-21 435 -430 0
-22 -435 430 0
-22 435 -430 0
-23 -435 430 0
-23 435 -430 0
-24 -430 435 0
-24 -426 435 0
-24 -435 430 426 0
-25 -435 430 0
-25 435 -430 0
-26 -435 430 0
-26 435 -430 0
-27 -430 435 0
-27 -427 435 0
-27 -435 430 427 0
-28 -435 430 0
-28 435 -430 0
-29 -430 435 0
-29 -428 435 0
-29 -435 430 428 0
-30 -430 435 0
-30 -429 435 0
-30 -435 430 429 0
-53 -435 430 0
-53 435 -430 0
-31 -436 431 0
-31 -436 432 0
-31 436 -431 -432 0
-32 -436 431 0
-32 -436 433 0
-32 436 -431 -433 0
-33 -436 431 0
-33 -436 434 0
-33 436 -431 -434 0
-34 -436 431 0
-34 -436 435 0
-34 436 -431 -435 0
-35 -436 431 0
-35 436 -431 0
-36 -436 431 0
-36 436 -431 0
-37 -436 431 0
-37 436 -431 0
-38 -436 431 0
-38 436 -431 0
-39 -436 431 0
-39 436 -431 0
-40 -436 431 0
-40 436 -431 0
-54 -436 431 0
-54 436 -431 0
-31 -432 437 0
-31 -431 437 0
-31 -437 432 431 0
-32 -437 432 0
-32 437 -432 0
-33 -437 432 0
-33 437 -432 0
-34 -437 432 0
-34 437 -432 0
-35 -437 432 0
-35 -437 433 0
-35 437 -432 -433 0
-36 -437 432 0
-36 -437 434 0
-36 437 -432 -434 0
-37 -437 432 0
-37 -437 435 0
-37 437 -432 -435 0
-38 -437 432 0
-38 437 -432 0
-39 -437 432 0
-39 437 -432 0
-40 -437 432 0
-40 437 -432 0
-54 -437 432 0
-54 437 -432 0
-31 -438 433 0
-31 438 -433 0
-32 -433 438 0
-32 -431 438 0
-32 -438 433 431 0
-33 -438 433 0
-33 438 -433 0
-34 -438 433 0
-34 438 -433 0
-35 -433 438 0
-35 -432 438 0
-35 -438 433 432 0
-36 -438 433 0
-36 438 -433 0
-37 -438 433 0
-37 438 -433 0
-38 -438 433 0
-38 -438 434 0
-38 438 -433 -434 0
-39 -438 433 0
-39 -438 435 0
-39 438 -433 -435 0
-40 -438 433 0
-40 438 -433 0
-54 -438 433 0
-54 438 -433 0
-31 -439 434 0
-31 439 -434 0
-32 -439 434 0
-32 439 -434 0
-33 -434 439 0
-33 -431 439 0
-33 -439 434 431 0
-34 -439 434 0
-34 439 -434 0
-35 -439 434 0
-35 439 -434 0
-36 -434 439 0
-36 -432 439 0
-36 -439 434 432 0
-37 -439 434 0
-37 439 -434 0
-38 -434 439 0
-38 -433 439 0
-38 -439 434 433 0
-39 -439 434 0
-39 439 -434 0
-40 -439 434 0
-40 -439 435 0
-40 439 -434 -435 0
-54 -439 434 0
-54 439 -434 0
-31 -440 435 0
-31 440 -435 0
-32 -440 435 0
-32 440 -435 0
-33 -440 435 0
-33 440 -435 0
-34 -435 440 0
-34 -431 440 0
-34 -440 435 431 0
-35 -440 435 0
-35 440 -435 0
-36 -440 435 0
-36 440 -435 0
-37 -435 440 0
-37 -432 440 0
-37 -440 435 432 0
-38 -440 435 0
-38 440 -435 0
-39 -435 440 0
-39 -433 440 0
-39 -440 435 433 0
-40 -435 440 0
-40 -434 440 0
-40 -440 435 434 0
-54 -440 435 0
-54 440 -435 0
-41 -441 436 0
-41 -441 437 0
-41 441 -436 -437 0
-42 -441 436 0
-42 -441 438 0
-42 441 -436 -438 0
-43 -441 436 0
-43 -441 439 0
-43 441 -436 -439 0
-44 -441 436 0
-44 -441 440 0
-44 441 -436 -440 0
-45 -441 436 0
-45 441 -436 0
-46 -441 436 0
-46 441 -436 0
-47 -441 436 0
-47 441 -436 0
-48 -441 436 0
-48 441 -436 0
-49 -441 436 0
-49 441 -436 0
-50 -441 436 0
-50 441 -436 0
-55 -441 436 0
-55 441 -436 0
-41 -437 442 0
-41 -436 442 0
-41 -442 437 436 0
-42 -442 437 0
-42 442 -437 0
-43 -442 437 0
-43 442 -437 0
-44 -442 437 0
-44 442 -437 0
-45 -442 437 0
-45 -442 438 0
-45 442 -437 -438 0
-46 -442 437 0
-46 -442 439 0
-46 442 -437 -439 0
-47 -442 437 0
-47 -442 440 0
-47 442 -437 -440 0
-48 -442 437 0
-48 442 -437 0
-49 -442 437 0
-49 442 -437 0
-50 -442 437 0
-50 442 -437 0
-55 -442 437 0
-55 442 -437 0
-41 -443 438 0
-41 443 -438 0
-42 -438 443 0
-42 -436 443 0
-42 -443 438 436 0
-43 -443 438 0
-43 443 -438 0
-44 -443 438 0
-44 443 -438 0
-45 -438 443 0
-45 -437 443 0
-45 -443 438 437 0
-46 -443 438 0
-46 443 -438 0
-47 -443 438 0
-47 443 -438 0
-48 -443 438 0
-48 -443 439 0
-48 443 -438 -439 0
-49 -443 438 0
-49 -443 440 0
-49 443 -438 -440 0
-50 -443 438 0
-50 443 -438 0
-55 -443 438 0
-55 443 -438 0
-41 -444 439 0
-41 444 -439 0
-42 -444 439 0
-42 444 -439 0
-43 -439 444 0
-43 -436 444 0
-43 -444 439 436 0
-44 -444 439 0
-44 444 -439 0
-45 -444 439 0
-45 444 -439 0
-46 -439 444 0
-46 -437 444 0
-46 -444 439 437 0
-47 -444 439 0
-47 444 -439 0
-48 -439 444 0
-48 -438 444 0
-48 -444 439 438 0
-49 -444 439 0
-49 444 -439 0
-50 -444 439 0
-50 -444 440 0
-50 444 -439 -440 0
-55 -444 439 0
-55 444 -439 0
-41 -445 440 0
-41 445 -440 0
-42 -445 440 0
-42 445 -440 0
-43 -445 440 0
-43 445 -440 0
-44 -440 445 0
-44 -436 445 0
-44 -445 440 436 0
-45 -445 440 0
-45 445 -440 0
-46 -445 440 0
-46 445 -440 0
-47 -440 445 0
-47 -437 445 0
-47 -445 440 437 0
-48 -445 440 0
-48 445 -440 0
-49 -440 445 0
-49 -438 445 0
-49 -445 440 438 0
-50 -440 445 0
-50 -439 445 0
-50 -445 440 439 0
-55 -445 440 0
-55 445 -440 0
446 0
-1 -451 446 0
-1 -451 447 0
-1 451 -446 -447 0
-2 -451 446 0
-2 -451 448 0
-2 451 -446 -448 0
-3 -451 446 0
-3 -451 449 0
-3 451 -446 -449 0
-4 -451 446 0
-4 -451 450 0
-4 451 -446 -450 0
-5 -451 446 0
-5 451 -446 0
-6 -451 446 0
-6 451 -446 0
-7 -451 446 0
-7 451 -446 0
-8 -451 446 0
-8 451 -446 0
-9 -451 446 0
-9 451 -446 0
-10 -451 446 0
-10 451 -446 0
-51 -451 446 0
-51 451 -446 0
-447 0
-1 -447 452 0
-1 -446 452 0
-1 -452 447 446 0
-2 -452 447 0
-2 452 -447 0
-3 -452 447 0
-3 452 -447 0
-4 -452 447 0
-4 452 -447 0
-5 -452 447 0
-5 -452 448 0
-5 452 -447 -448 0
-6 -452 447 0
-6 -452 449 0
-6 452 -447 -449 0
-7 -452 447 0
-7 -452 450 0
-7 452 -447 -450 0
-8 -452 447 0
-8 452 -447 0
-9 -452 447 0
-9 452 -447 0
-10 -452 447 0
-10 452 -447 0
-51 -452 447 0
-51 452 -447 0
-448 0
-1 -453 448 0
-1 453 -448 0
-2 -448 453 0
-2 -446 453 0
-2 -453 448 446 0
-3 -453 448 0
-3 453 -448 0
-4 -453 448 0
-4 453 -448 0
-5 -448 453 0
-5 -447 453 0
-5 -453 448 447 0
-6 -453 448 0
-6 453 -448 0
-7 -453 448 0
-7 453 -448 0
-8 -453 448 0
-8 -453 449 0
-8 453 -448 -449 0
-9 -453 448 0
-9 -453 450 0
-9 453 -448 -450 0
-10 -453 448 0
-10 453 -448 0
-51 -453 448 0
-51 453 -448 0
449 0
-1 -454 449 0
-1 454 -449 0
-2 -454 449 0
-2 454 -449 0
-3 -449 454 0
-3 -446 454 0
-3 -454 449 446 0
-4 -454 449 0
-4 454 -449 0
-5 -454 449 0
-5 454 -449 0
-6 -449 454 0
-6 -447 454 0
-6 -454 449 447 0
-7 -454 449 0
-7 454 -449 0
-8 -449 454 0
-8 -448 454 0
-8 -454 449 448 0
-9 -454 449 0
-9 454 -449 0
-10 -454 449 0
-10 -454 450 0
-10 454 -449 -450 0
-51 -454 449 0
-51 454 -449 0
-450 0
-1 -455 450 0
-1 455 -450 0
-2 -455 450 0
-2 455 -450 0
-3 -455 450 0
-3 455 -450 0
-4 -450 455 0
-4 -446 455 0
-4 -455 450 446 0
-5 -455 450 0
-5 455 -450 0
-6 -455 450 0
-6 455 -450 0
-7 -450 455 0
-7 -447 455 0
-7 -455 450 447 0
-8 -455 450 0
-8 455 -450 0
-9 -450 455 0
-9 -448 455 0
-9 -455 450 448 0
-10 -450 455 0
-10 -449 455 0
-10 -455 450 449 0
-51 -455 450 0
-51 455 -450 0
-11 -456 451 0
-11 -456 452 0
-11 456 -451 -452 0
-12 -456 451 0
-12 -456 453 0
-12 456 -451 -453 0
-13 -456 451 0
-13 -456 454 0
-13 456 -451 -454 0
-14 -456 451 0
-14 -456 455 0
-14 456 -451 -455 0
-15 -456 451 0
-15 456 -451 0
-16 -456 451 0
-16 456 -451 0
-17 -456 451 0
-17 456 -451 0
-18 -456 451 0
-18 456 -451 0
-19 -456 451 0
-19 456 -451 0
-20 -456 451 0
-20 456 -451 0
-52 -456 451 0
-52 456 -451 0
-11 -452 457 0
-11 -451 457 0
-11 -457 452 451 0
-12 -457 452 0
-12 457 -452 0
-13 -457 452 0
-13 457 -452 0
-14 -457 452 0
-14 457 -452 0
-15 -457 452 0
-15 -457 453 0
-15 457 -452 -453 0
-16 -457 452 0
-16 -457 454 0
-16 457 -452 -454 0
-17 -457 452 0
-17 -457 455 0
-17 457 -452 -455 0
-18 -457 452 0
-18 457 -452 0
-19 -457 452 0
-19 457 -452 0
-20 -457 452 0
-20 457 -452 0
-52 -457 452 0
-52 457 -452 0
-11 -458 453 0
-11 458 -453 0
-12 -453 458 0
-12 -451 458 0
-12 -458 453 451 0
-13 -458 453 0
-13 458 -453 0
-14 -458 453 0
-14 458 -453 0
-15 -453 458 0
-15 -452 458 0
-15 -458 453 452 0
-16 -458 453 0
-16 458 -453 0
-17 -458 453 0
-17 458 -453 0
-18 -458 453 0
-18 -458 454 0
-18 458 -453 -454 0
-19 -458 453 0
-19 -458 455 0
-19 458 -453 -455 0
-20 -458 453 0
-20 458 -453 0
-52 -458 453 0
-52 458 -453 0
-11 -459 454 0
-11 459 -454 0
-12 -459 454 0
-12 459 -454 0
-13 -454 459 0
-13 -451 459 0
-13 -459 454 451 0
-14 -459 454 0
-14 459 -454 0
-15 -459 454 0
-15 459 -454 0
-16 -454 459 0
-16 -452 459 0
-16 -459 454 452 0
-17 -459 454 0
-17 459 -454 0
-18 -454 459 0
-18 -453 459 0
-18 -459 454 453 0
-19 -459 454 0
-19 459 -454 0
-20 -459 454 0
-20 -459 455 0
-20 459 -454 -455 0
-52 -459 454 0
-52 459 -454 0
-11 -460 455 0
-11 460 -455 0
-12 -460 455 0
-12 460 -455 0
-13 -460 455 0
-13 460 -455 0
-14 -455 460 0
-14 -451 460 0
-14 -460 455 451 0
-15 -460 455 0
-15 460 -455 0
-16 -460 455 0
-16 460 -455 0
-17 -455 460 0
-17 -452 460 0
-17 -460 455 452 0
-18 -460 455 0
-18 460 -455 0
-19 -455 460 0
-19 -453 460 0
-19 -460 455 453 0
-20 -455 460 0
-20 -454 460 0
-20 -460 455 454 0
-52 -460 455 0
-52 460 -455 0
-21 -461 456 0
-21 -461 457 0
-21 461 -456 -457 0
-22 -461 456 0
-22 -461 458 0
-22 461 -456 -458 0
-23 -461 456 0
-23 -461 459 0
-23 461 -456 -459 0
-24 -461 456 0
-24 -461 460 0
-24 461 -456 -460 0
-25 -461 456 0
-25 461 -456 0
-26 -461 456 0
-26 461 -456 0
-27 -461 456 0
-27 461 -456 0
-28 -461 456 0
-28 461 -456 0
-29 -461 456 0
-29 461 -456 0
-30 -461 456 0
-30 461 -456 0
-53 -461 456 0
-53 461 -456 0
-21 -457 462 0
-21 -456 462 0
-21 -462 457 456 0
-22 -462 457 0
-22 462 -457 0
-23 -462 457 0
-23 462 -457 0
-24 -462 457 0
-24 462 -457 0
-25 -462 457 0
-25 -462 458 0
-25 462 -457 -458 0
-26 -462 457 0
-26 -462 459 0
-26 462 -457 -459 0
-27 -462 457 0
-27 -462 460 0
-27 462 -457 -460 0
-28 -462 457 0
-28 462 -457 0
-29 -462 457 0
-29 462 -457 0
-30 -462 457 0
-30 462 -457 0
-53 -462 457 0
-53 462 -457 0
-21 -463 458 0
-21 463 -458 0
-22 -458 463 0
-22 -456 463 0
-22 -463 458 456 0
-23 -463 458 0
-23 463 -458 0
-24 -463 458 0
-24 463 -458 0
-25 -458 463 0
-25 -457 463 0
-25 -463 458 457 0
-26 -463 458 0
-26 463 -458 0
-27 -463 458 0
-27 463 -458 0
-28 -463 458 0
-28 -463 459 0
-28 463 -458 -459 0
-29 -463 458 0
-29 -463 460 0
-29 463 -458 -460 0
-30 -463 458 0
-30 463 -458 0
-53 -463 458 0
-53 463 -458 0
-21 -464 459 0
-21 464 -459 0
-22 -464 459 0
-22 464 -459 0
-23 -459 464 0
-23 -456 464 0
-23 -464 459 456 0
-24 -464 459 0
-24 464 -459 0
-25 -464 459 0
-25 464 -459 0
-26 -459 464 0
-26 -457 464 0
-26 -464 459 457 0
-27 -464 459 0
-27 464 -459 0
-28 -459 464 0
-28 -458 464 0
-28 -464 459 458 0
-29 -464 459 0
-29 464 -459 0
-30 -464 459 0
-30 -464 460 0
-30 464 -459 -460 0
-53 -464 459 0
-53 464 -459 0
-21 -465 460 0
-21 465 -460 0
-22 -465 460 0
-22 465 -460 0
-23 -465 460 0
-23 465 -460 0
-24 -460 465 0
-24 -456 465 0
-24 -465 460 456 0
-25 -465 460 0
-25 465 -460 0
-26 -465 460 0
-26 465 -460 0
-27 -460 465 0
-27 -457 465 0
-27 -465 460 457 0
-28 -465 460 0
-28 465 -460 0
-29 -460 465 0
-29 -458 465 0
-29 -465 460 458 0
-30 -460 465 0
-30 -459 465 0
-30 -465 460 459 0
-53 -465 460 0
-53 465 -460 0
-31 -466 461 0
-31 -466 462 0
-31 466 -461 -462 0
-32 -466 461 0
-32 -466 463 0
-32 466 -461 -463 0
-33 -466 461 0
-33 -466 464 0
-33 466 -461 -464 0
-34 -466 461 0
-34 -466 465 0
-34 466 -461 -465 0
-35 -466 461 0
-35 466 -461 0
-36 -466 461 0
-36 466 -461 0
-37 -466 461 0
-37 466 -461 0
-38 -466 461 0
-38 466 -461 0
-39 -466 461 0
-39 466 -461 0
-40 -466 461 0
-40 466 -461 0
-54 -466 461 0
-54 466 -461 0
-31 -462 467 0
-31 -461 467 0
-31 -467 462 461 0
-32 -467 462 0
-32 467 -462 0
-33 -467 462 0
-33 467 -462 0
-34 -467 462 0
-34 467 -462 0
-35 -467 462 0
-35 -467 463 0
-35 467 -462 -463 0
-36 -467 462 0
-36 -467 464 0
-36 467 -462 -464 0
-37 -467 462 0
-37 -467 465 0
-37 467 -462 -465 0
-38 -467 462 0
-38 467 -462 0
-39 -467 462 0
-39 467 -462 0
-40 -467 462 0
-40 467 -462 0
-54 -467 462 0
-54 467 -462 0
-31 -468 463 0
-31 468 -463 0
-32 -463 468 0
-32 -461 468 0
-32 -468 463 461 0
-33 -468 463 0
-33 468 -463 0
-34 -468 463 0
-34 468 -463 0
-35 -463 468 0
-35 -462 468 0
-35 -468 463 462 0
-36 -468 463 0
-36 468 -463 0
-37 -468 463 0
-37 468 -463 0
-38 -468 463 0
-38 -468 464 0
-38 468 -463 -464 0
-39 -468 463 0
-39 -468 465 0
-39 468 -463 -465 0
-40 -468 463 0
-40 468 -463 0
-54 -468 463 0
-54 468 -463 0
-31 -469 464 0
-31 469 -464 0
-32 -469 464 0
-32 469 -464 0
-33 -464 469 0
-33 -461 469 0
-33 -469 464 461 0
-34 -469 464 0
-34 469 -464 0
-35 -469 464 0
-35 469 -464 0
-36 -464 469 0
-36 -462 469 0
-36 -469 464 462 0
-37 -469 464 0
-37 469 -464 0
-38 -464 469 0
-38 -463 469 0
-38 -469 464 463 0
-39 -469 464 0
-39 469 -464 0
-40 -469 464 0
-40 -469 465 0
-40 469 -464 -465 0
-54 -469 464 0
-54 469 -464 0
-31 -470 465 0
-31 470 -465 0
-32 -470 465 0
-32 470 -465 0
-33 -470 465 0
-33 470 -465 0
-34 -465 470 0
-34 -461 470 0
-34 -470 465 461 0
-35 -470 465 0
-35 470 -465 0
-36 -470 465 0
-36 470 -465 0
-37 -465 470 0
-37 -462 470 0
-37 -470 465 462 0
-38 -470 465 0
-38 470 -465 0
-39 -465 470 0
-39 -463 470 0
-39 -470 465 463 0
-40 -465 470 0
-40 -464 470 0
-40 -470 465 464 0
-54 -470 465 0
-54 470 -465 0
-41 -471 466 0
-41 -471 467 0
-41 471 -466 -467 0
-42 -471 466 0
-42 -471 468 0
-42 471 -466 -468 0
-43 -471 466 0
-43 -471 469 0
-43 471 -466 -469 0
-44 -471 466 0
-44 -471 470 0
-44 471 -466 -470 0
-45 -471 466 0
-45 471 -466 0
-46 -471 466 0
-46 471 -466 0
-47 -471 466 0
-47 471 -466 0
-48 -471 466 0
-48 471 -466 0
-49 -471 466 0
-49 471 -466 0
-50 -471 466 0
-50 471 -466 0
-55 -471 466 0
-55 471 -466 0
-41 -467 472 0
-41 -466 472 0
-41 -472 467 466 0
-42 -472 467 0
-42 472 -467 0
-43 -472 467 0
-43 472 -467 0
-44 -472 467 0
-44 472 -467 0
-45 -472 467 0
-45 -472 468 0
-45 472 -467 -468 0
-46 -472 467 0
-46 -472 469 0
-46 472 -467 -469 0
-47 -472 467 0
-47 -472 470 0
-47 472 -467 -470 0
-48 -472 467 0
-48 472 -467 0
-49 -472 467 0
-49 472 -467 0
-50 -472 467 0
-50 472 -467 0
-55 -472 467 0
-55 472 -467 0
-41 -473 468 0
-41 473 -468 0
-42 -468 473 0
-42 -466 473 0
-42 -473 468 466 0
-43 -473 468 0
-43 473 -468 0
-44 -473 468 0
-44 473 -468 0
-45 -468 473 0
-45 -467 473 0
-45 -473 468 467 0
-46 -473 468 0
-46 473 -468 0
-47 -473 468 0
-47 473 -468 0
-48 -473 468 0
-48 -473 469 0
-48 473 -468 -469 0
-49 -473 468 0
-49 -473 470 0
-49 473 -468 -470 0
-50 -473 468 0
-50 473 -468 0
-55 -473 468 0
-55 473 -468 0
-41 -474 469 0
-41 474 -469 0
-42 -474 469 0
-42 474 -469 0
-43 -469 474 0
-43 -466 474 0
-43 -474 469 466 0
-44 -474 469 0
-44 474 -469 0
-45 -474 469 0
-45 474 -469 0
-46 -469 474 0
-46 -467 474 0
-46 -474 469 467 0
-47 -474 469 0
-47 474 -469 0
-48 -469 474 0
-48 -468 474 0
-48 -474 469 468 0
-49 -474 469 0
-49 474 -469 0
-50 -474 469 0
-50 -474 470 0
-50 474 -469 -470 0
-55 -474 469 0
-55 474 -469 0
-41 -475 470 0
-41 475 -470 0
-42 -475 470 0
-42 475 -470 0
-43 -475 470 0
-43 475 -470 0
-44 -470 475 0
-44 -466 475 0
-44 -475 470 466 0
-45 -475 470 0
-45 475 -470 0
-46 -475 470 0
-46 475 -470 0
-47 -470 475 0
-47 -467 475 0
-47 -475 470 467 0
-48 -475 470 0
-48 475 -470 0
-49 -470 475 0
-49 -468 475 0
-49 -475 470 468 0
-50 -470 475 0
-50 -469 475 0
-50 -475 470 469 0
-55 -475 470 0
-55 475 -470 0
476 0
-1 -481 476 0
-1 -481 477 0
-1 481 -476 -477 0
-2 -481 476 0
-2 -481 478 0
-2 481 -476 -478 0
-3 -481 476 0
-3 -481 479 0
-3 481 -476 -479 0
-4 -481 476 0
-4 -481 480 0
-4 481 -476 -480 0
-5 -481 476 0
-5 481 -476 0
-6 -481 476 0
-6 481 -476 0
-7 -481 476 0
-7 481 -476 0
-8 -481 476 0
-8 481 -476 0
-9 -481 476 0
-9 481 -476 0
-10 -481 476 0
-10 481 -476 0
-51 -481 476 0
-51 481 -476 0
-477 0
-1 -477 482 0
-1 -476 482 0
-1 -482 477 476 0
-2 -482 477 0
-2 482 -477 0
-3 -482 477 0
-3 482 -477 0
-4 -482 477 0
-4 482 -477 0
-5 -482 477 0
-5 -482 478 0
-5 482 -477 -478 0
-6 -482 477 0
-6 -482 479 0
-6 482 -477 -479 0
-7 -482 477 0
-7 -482 480 0
-7 482 -477 -480 0
-8 -482 477 0
-8 482 -477 0
-9 -482 477 0
-9 482 -477 0
-10 -482 477 0
-10 482 -477 0
-51 -482 477 0
-51 482 -477 0
-478 0
-1 -483 478 0
-1 483 -478 0
-2 -478 483 0
-2 -476 483 0
-2 -483 478 476 0
-3 -483 478 0
-3 483 -478 0
-4 -483 478 0
-4 483 -478 0
-5 -478 483 0
-5 -477 483 0
-5 -483 478 477 0
-6 -483 478 0
-6 483 -478 0
-7 -483 478 0
-7 483 -478 0
-8 -483 478 0
-8 -483 479 0
-8 483 -478 -479 0
-9 -483 478 0
-9 -483 480 0
-9 483 -478 -480 0
-10 -483 478 0
-10 483 -478 0
-51 -483 478 0
-51 483 -478 0
479 0
-1 -484 479 0
-1 484 -479 0
-2 -484 479 0
-2 484 -479 0
-3 -479 484 0
-3 -476 484 0
-3 -484 479 476 0
-4 -484 479 0
-4 484 -479 0
-5 -484 479 0
-5 484 -479 0
-6 -479 484 0
-6 -477 484 0
-6 -484 479 477 0
-7 -484 479 0
-7 484 -479 0
-8 -479 484 0
-8 -478 484 0
-8 -484 479 478 0
-9 -484 479 0
-9 484 -479 0
-10 -484 479 0
-10 -484 480 0
-10 484 -479 -480 0
-51 -484 479 0
-51 484 -479 0
480 0
-1 -485 480 0
-1 485 -480 0
-2 -485 480 0
-2 485 -480 0
-3 -485 480 0
-3 485 -480 0
-4 -480 485 0
-4 -476 485 0
-4 -485 480 476 0
-5 -485 480 0
-5 485 -480 0
-6 -485 480 0
-6 485 -480 0
-7 -480 485 0
-7 -477 485 0
-7 -485 480 477 0
-8 -485 480 0
-8 485 -480 0
-9 -480 485 0
-9 -478 485 0
-9 -485 480 478 0
-10 -480 485 0
-10 -479 485 0
-10 -485 480 479 0
-51 -485 480 0
-51 485 -480 0
-11 -486 481 0
-11 -486 482 0
-11 486 -481 -482 0
-12 -486 481 0
-12 -486 483 0
-12 486 -481 -483 0
-13 -486 481 0
-13 -486 484 0
-13 486 -481 -484 0
-14 -486 481 0
-14 -486 485 0
-14 486 -481 -485 0
-15 -486 481 0
-15 486 -481 0
-16 -486 481 0
-16 486 -481 0
-17 -486 481 0
-17 486 -481 0
-18 -486 481 0
-18 486 -481 0
-19 -486 481 0
-19 486 -481 0
-20 -486 481 0
-20 486 -481 0
-52 -486 481 0
-52 486 -481 0
-11 -482 487 0
-11 -481 487 0
-11 -487 482 481 0
-12 -487 482 0
-12 487 -482 0
-13 -487 482 0
-13 487 -482 0
-14 -487 482 0
-14 487 -482 0
-15 -487 482 0
-15 -487 483 0
-15 487 -482 -483 0
-16 -487 482 0
-16 -487 484 0
-16 487 -482 -484 0
-17 -487 482 0
-17 -487 485 0
-17 487 -482 -485 0
-18 -487 482 0
-18 487 -482 0
-19 -487 482 0
-19 487 -482 0
-20 -487 482 0
-20 487 -482 0
-52 -487 482 0
-52 487 -482 0
-11 -488 483 0
-11 488 -483 0
-12 -483 488 0
-12 -481 488 0
-12 -488 483 481 0
-13 -488 483 0
-13 488 -483 0
-14 -488 483 0
-14 488 -483 0
-15 -483 488 0
-15 -482 488 0
-15 -488 483 482 0
-16 -488 483 0
-16 488 -483 0
-17 -488 483 0
-17 488 -483 0
-18 -488 483 0
-18 -488 484 0
-18 488 -483 -484 0
-19 -488 483 0
-19 -488 485 0
-19 488 -483 -485 0
-20 -488 483 0
-20 488 -483 0
-52 -488 483 0
-52 488 -483 0
-11 -489 484 0
-11 489 -484 0
-12 -489 484 0
-12 489 -484 0
-13 -484 489 0
-13 -481 489 0
-13 -489 484 481 0
-14 -489 484 0
-14 489 -484 0
-15 -489 484 0
-15 489 -484 0
-16 -484 489 0
-16 -482 489 0
-16 -489 484 482 0
-17 -489 484 0
-17 489 -484 0
-18 -484 489 0
-18 -483 489 0
-18 -489 484 483 0
-19 -489 484 0
-19 489 -484 0
-20 -489 484 0
-20 -489 485 0
-20 489 -484 -485 0
-52 -489 484 0
-52 489 -484 0
-11 -490 485 0
-11 490 -485 0
-12 -490 485 0
-12 490 -485 0
-13 -490 485 0
-13 490 -485 0
-14 -485 490 0
-14 -481 490 0
-14 -490 485 481 0
-15 -490 485 0
-15 490 -485 0
-16 -490 485 0
-16 490 -485 0
-17 -485 490 0
-17 -482 490 0
-17 -490 485 482 0
-18 -490 485 0
-18 490 -485 0
-19 -485 490 0
-19 -483 490 0
-19 -490 485 483 0
-20 -485 490 0
-20 -484 490 0
-20 -490 485 484 0
-52 -490 485 0
-52 490 -485 0
-21 -491 486 0
-21 -491 487 0
-21 491 -486 -487 0
-22 -491 486 0
-22 -491 488 0
-22 491 -486 -488 0
-23 -491 486 0
-23 -491 489 0
-23 491 -486 -489 0
-24 -491 486 0
-24 -491 490 0
-24 491 -486 -490 0
-25 -491 486 0
-25 491 -486 0
-26 -491 486 0
-26 491 -486 0
-27 -491 486 0
-27 491 -486 0
-28 -491 486 0
-28 491 -486 0
-29 -491 486 0
-29 491 -486 0
-30 -491 486 0
-30 491 -486 0
-53 -491 486 0
-53 491 -486 0
-21 -487 492 0
-21 -486 492 0
-21 -492 487 486 0
-22 -492 487 0
-22 492 -487 0
-23 -492 487 0
-23 492 -487 0
-24 -492 487 0
-24 492 -487 0
-25 -492 487 0
-25 -492 488 0
-25 492 -487 -488 0
-26 -492 487 0
-26 -492 489 0
-26 492 -487 -489 0
-27 -492 487 0
-27 -492 490 0
-27 492 -487 -490 0
-28 -492 487 0
-28 492 -487 0
-29 -492 487 0
-29 492 -487 0
-30 -492 487 0
-30 492 -487 0
-53 -492 487 0
-53 492 -487 0
-21 -493 488 0
-21 493 -488 0
-22 -488 493 0
-22 -486 493 0
-22 -493 488 486 0
-23 -493 488 0
-23 493 -488 0
-24 -493 488 0
-24 493 -488 0
-25 -488 493 0
-25 -487 493 0
-25 -493 488 487 0
-26 -493 488 0
-26 493 -488 0
-27 -493 488 0
-27 493 -488 0
-28 -493 488 0
-28 -493 489 0
-28 493 -488 -489 0
-29 -493 488 0
-29 -493 490 0
-29 493 -488 -490 0
-30 -493 488 0
-30 493 -488 0
-53 -493 488 0
-53 493 -488 0
-21 -494 489 0
-21 494 -489 0
-22 -494 489 0
-22 494 -489 0
-23 -489 494 0
-23 -486 494 0
-23 -494 489 486 0
-24 -494 489 0
-24 494 -489 0
-25 -494 489 0
-25 494 -489 0
-26 -489 494 0
-26 -487 494 0
-26 -494 489 487 0
-27 -494 489 0
-27 494 -489 0
-28 -489 494 0
-28 -488 494 0
-28 -494 489 488 0
-29 -494 489 0
-29 494 -489 0
-30 -494 489 0
-30 -494 490 0
-30 494 -489 -490 0
-53 -494 489 0
-53 494 -489 0
-21 -495 490 0
-21 495 -490 0
-22 -495 490 0
-22 495 -490 0
-23 -495 490 0
-23 495 -490 0
-24 -490 495 0
-24 -486 495 0
-24 -495 490 486 0
-25 -495 490 0
-25 495 -490 0
-26 -495 490 0
-26 495 -490 0
-27 -490 495 0
-27 -487 495 0
-27 -495 490 487 0
-28 -495 490 0
-28 495 -490 0
-29 -490 495 0
-29 -488 495 0
-29 -495 490 488 0
-30 -490 495 0
-30 -489 495 0
-30 -495 490 489 0
-53 -495 490 0
-53 495 -490 0
-31 -496 491 0
-31 -496 492 0
-31 496 -491 -492 0
-32 -496 491 0
-32 -496 493 0
-32 496 -491 -493 0
-33 -496 491 0
-33 -496 494 0
-33 496 -491 -494 0
-34 -496 491 0
-34 -496 495 0
-34 496 -491 -495 0
-35 -496 491 0
-35 496 -491 0
-36 -496 491 0
-36 496 -491 0
-37 -496 491 0
-37 496 -491 0
-38 -496 491 0
-38 496 -491 0
-39 -496 491 0
-39 496 -491 0
-40 -496 491 0
-40 496 -491 0
-54 -496 491 0
-54 496 -491 0
-31 -492 497 0
-31 -491 497 0
-31 -497 492 491 0
-32 -497 492 0
-32 497 -492 0
-33 -497 492 0
-33 497 -492 0
-34 -497 492 0
-34 497 -492 0
-35 -497 492 0
-35 -497 493 0
-35 497 -492 -493 0
-36 -497 492 0
-36 -497 494 0
-36 497 -492 -494 0
-37 -497 492 0
-37 -497 495 0
-37 497 -492 -495 0
-38 -497 492 0
-38 497 -492 0
-39 -497 492 0
-39 497 -492 0
-40 -497 492 0
-40 497 -492 0
-54 -497 492 0
-54 497 -492 0
-31 -498 493 0
-31 498 -493 0
-32 -493 498 0
-32 -491 498 0
-32 -498 493 491 0
-33 -498 493 0
-33 498 -493 0
-34 -498 493 0
-34 498 -493 0
-35 -493 498 0
-35 -492 498 0
-35 -498 493 492 0
-36 -498 493 0
-36 498 -493 0
-37 -498 493 0
-37 498 -493 0
-38 -498 493 0
-38 -498 494 0
-38 498 -493 -494 0
-39 -498 493 0
-39 -498 495 0
-39 498 -493 -495 0
-40 -498 493 0
-40 498 -493 0
-54 -498 493 0
-54 498 -493 0
-31 -499 494 0
-31 499 -494 0
-32 -499 494 0
-32 499 -494 0
-33 -494 499 0
-33 -491 499 0
-33 -499 494 491 0
-34 -499 494 0
-34 499 -494 0
-35 -499 494 0
-35 499 -494 0
-36 -494 499 0
-36 -492 499 0
-36 -499 494 492 0
-37 -499 494 0
-37 499 -494 0
-38 -494 499 0
-38 -493 499 0
-38 -499 494 493 0
-39 -499 494 0
-39 499 -494 0
-40 -499 494 0
-40 -499 495 0
-40 499 -494 -495 0
-54 -499 494 0
-54 499 -494 0
-31 -500 495 0
-31 500 -495 0
-32 -500 495 0
-32 500 -495 0
-33 -500 495 0
-33 500 -495 0
-34 -495 500 0
-34 -491 500 0
-34 -500 495 491 0
-35 -500 495 0
-35 500 -495 0
-36 -500 495 0
-36 500 -495 0
-37 -495 500 0
-37 -492 500 0
-37 -500 495 492 0
-38 -500 495 0
-38 500 -495 0
-39 -495 500 0
-39 -493 500 0
-39 -500 495 493 0
-40 -495 500 0
-40 -494 500 0
-40 -500 495 494 0
-54 -500 495 0
-54 500 -495 0
-41 -501 496 0
-41 -501 497 0
-41 501 -496 -497 0
-42 -501 496 0
-42 -501 498 0
-42 501 -496 -498 0
-43 -501 496 0
-43 -501 499 0
-43 501 -496 -499 0
-44 -501 496 0
-44 -501 500 0
-44 501 -496 -500 0
-45 -501 496 0
-45 501 -496 0
-46 -501 496 0
-46 501 -496 0
-47 -501 496 0
-47 501 -496 0
-48 -501 496 0
-48 501 -496 0
-49 -501 496 0
-49 501 -496 0
-50 -501 496 0
-50 501 -496 0
-55 -501 496 0
-55 501 -496 0
-41 -497 502 0
-41 -496 502 0
-41 -502 497 496 0
-42 -502 497 0
-42 502 -497 0
-43 -502 497 0
-43 502 -497 0
-44 -502 497 0
-44 502 -497 0
-45 -502 497 0
-45 -502 498 0
-45 502 -497 -498 0
-46 -502 497 0
-46 -502 499 0
-46 502 -497 -499 0
-47 -502 497 0
-47 -502 500 0
-47 502 -497 -500 0
-48 -502 497 0
-48 502 -497 0
-49 -502 497 0
-49 502 -497 0
-50 -502 497 0
-50 502 -497 0
-55 -502 497 0
-55 502 -497 0
-41 -503 498 0
-41 503 -498 0
-42 -498 503 0
-42 -496 503 0
-42 -503 498 496 0
-43 -503 498 0
-43 503 -498 0
-44 -503 498 0
-44 503 -498 0
-45 -498 503 0
-45 -497 503 0
-45 -503 498 497 0
-46 -503 498 0
-46 503 -498 0
-47 -503 498 0
-47 503 -498 0
-48 -503 498 0
-48 -503 499 0
-48 503 -498 -499 0
-49 -503 498 0
-49 -503 500 0
-49 503 -498 -500 0
-50 -503 498 0
-50 503 -498 0
-55 -503 498 0
-55 503 -498 0
-41 -504 499 0
-41 504 -499 0
-42 -504 499 0
-42 504 -499 0
-43 -499 504 0
-43 -496 504 0
-43 -504 499 496 0
-44 -504 499 0
-44 504 -499 0
-45 -504 499 0
-45 504 -499 0
-46 -499 504 0
-46 -497 504 0
-46 -504 499 497 0
-47 -504 499 0
-47 504 -499 0
-48 -499 504 0
-48 -498 504 0
-48 -504 499 498 0
-49 -504 499 0
-49 504 -499 0
-50 -504 499 0
-50 -504 500 0
-50 504 -499 -500 0
-55 -504 499 0
-55 504 -499 0
-41 -505 500 0
-41 505 -500 0
-42 -505 500 0
-42 505 -500 0
-43 -505 500 0
-43 505 -500 0
-44 -500 505 0
-44 -496 505 0
-44 -505 500 496 0
-45 -505 500 0
-45 505 -500 0
-46 -505 500 0
-46 505 -500 0
-47 -500 505 0
-47 -497 505 0
-47 -505 500 497 0
-48 -505 500 0
-48 505 -500 0
-49 -500 505 0
-49 -498 505 0
-49 -505 500 498 0
-50 -500 505 0
-50 -499 505 0
-50 -505 500 499 0
-55 -505 500 0
-55 505 -500 0
506 0
-1 -511 506 0
-1 -511 507 0
-1 511 -506 -507 0
-2 -511 506 0
-2 -511 508 0
-2 511 -506 -508 0
-3 -511 506 0
-3 -511 509 0
-3 511 -506 -509 0
-4 -511 506 0
-4 -511 510 0
-4 511 -506 -510 0
-5 -511 506 0
-5 511 -506 0
-6 -511 506 0
-6 511 -506 0
-7 -511 506 0
-7 511 -506 0
-8 -511 506 0
-8 511 -506 0
-9 -511 506 0
-9 511 -506 0
-10 -511 506 0
-10 511 -506 0
-51 -511 506 0
-51 511 -506 0
-507 0
-1 -507 512 0
-1 -506 512 0
-1 -512 507 506 0
-2 -512 507 0
-2 512 -507 0
-3 -512 507 0
-3 512 -507 0
-4 -512 507 0
-4 512 -507 0
-5 -512 507 0
-5 -512 508 0
-5 512 -507 -508 0
-6 -512 507 0
-6 -512 509 0
-6 512 -507 -509 0
-7 -512 507 0
-7 -512 510 0
-7 512 -507 -510 0
-8 -512 507 0
-8 512 -507 0
-9 -512 507 0
-9 512 -507 0
-10 -512 507 0
-10 512 -507 0
-51 -512 507 0
-51 512 -507 0
508 0
-1 -513 508 0
-1 513 -508 0
-2 -508 513 0
-2 -506 513 0
-2 -513 508 506 0
-3 -513 508 0
-3 513 -508 0
-4 -513 508 0
-4 513 -508 0
-5 -508 513 0
-5 -507 513 0
-5 -513 508 507 0
-6 -513 508 0
-6 513 -508 0
-7 -513 508 0
-7 513 -508 0
-8 -513 508 0
-8 -513 509 0
-8 513 -508 -509 0
-9 -513 508 0
-9 -513 510 0
-9 513 -508 -510 0
-10 -513 508 0
-10 513 -508 0
-51 -513 508 0
-51 513 -508 0
-509 0
-1 -514 509 0
-1 514 -509 0
-2 -514 509 0
-2 514 -509 0
-3 -509 514 0
-3 -506 514 0
-3 -514 509 506 0
-4 -514 509 0
-4 514 -509 0
-5 -514 509 0
-5 514 -509 0
-6 -509 514 0
-6 -507 514 0
-6 -514 509 507 0
-7 -514 509 0
-7 514 -509 0
-8 -509 514 0
-8 -508 514 0
-8 -514 509 508 0
-9 -514 509 0
-9 514 -509 0
-10 -514 509 0
-10 -514 510 0
-10 514 -509 -510 0
-51 -514 509 0
-51 514 -509 0
-510 0
-1 -515 510 0
-1 515 -510 0
-2 -515 510 0
-2 515 -510 0
-3 -515 510 0
-3 515 -510 0
-4 -510 515 0
-4 -506 515 0
-4 -515 510 506 0
-5 -515 510 0
-5 515 -510 0
-6 -515 510 0
-6 515 -510 0
-7 -510 515 0
-7 -507 515 0
-7 -515 510 507 0
-8 -515 510 0
-8 515 -510 0
-9 -510 515 0
-9 -508 515 0
-9 -515 510 508 0
-10 -510 515 0
-10 -509 515 0
-10 -515 510 509 0
-51 -515 510 0
-51 515 -510 0
-11 -516 511 0
-11 -516 512 0
-11 516 -511 -512 0
-12 -516 511 0
-12 -516 513 0
-12 516 -511 -513 0
-13 -516 511 0
-13 -516 514 0
-13 516 -511 -514 0
-14 -516 511 0
-14 -516 515 0
-14 516 -511 -515 0
-15 -516 511 0
-15 516 -511 0
-16 -516 511 0
-16 516 -511 0
-17 -516 511 0
-17 516 -511 0
-18 -516 511 0
-18 516 -511 0
-19 -516 511 0
-19 516 -511 0
-20 -516 511 0
-20 516 -511 0
-52 -516 511 0
-52 516 -511 0
-11 -512 517 0
-11 -511 517 0
-11 -517 512 511 0
-12 -517 512 0
-12 517 -512 0
-13 -517 512 0
-13 517 -512 0
-14 -517 512 0
-14 517 -512 0
-15 -517 512 0
-15 -517 513 0
-15 517 -512 -513 0
-16 -517 512 0
-16 -517 514 0
-16 517 -512 -514 0
-17 -517 512 0
-17 -517 515 0
-17 517 -512 -515 0
-18 -517 512 0
-18 517 -512 0
-19 -517 512 0
-19 517 -512 0
-20 -517 512 0
-20 517 -512 0
-52 -517 512 0
-52 517 -512 0
-11 -518 513 0
-11 518 -513 0
-12 -513 518 0
-12 -511 518 0
-12 -518 513 511 0
-13 -518 513 0
-13 518 -513 0
-14 -518 513 0
-14 518 -513 0
-15 -513 518 0
-15 -512 518 0
-15 -518 513 512 0
-16 -518 513 0
-16 518 -513 0
-17 -518 513 0
-17 518 -513 0
-18 -518 513 0
-18 -518 514 0
-18 518 -513 -514 0
-19 -518 513 0
-19 -518 515 0
-19 518 -513 -515 0
-20 -518 513 0
-20 518 -513 0
-52 -518 513 0
-52 518 -513 0
-11 -519 514 0
-11 519 -514 0
-12 -519 514 0
-12 519 -514 0
-13 -514 519 0
-13 -511 519 0
-13 -519 514 511 0
-14 -519 514 0
-14 519 -514 0
-15 -519 514 0
-15 519 -514 0
-16 -514 519 0
-16 -512 519 0
-16 -519 514 512 0
-17 -519 514 0
-17 519 -514 0
-18 -514 519 0
-18 -513 519 0
-18 -519 514 513 0
-19 -519 514 0
-19 519 -514 0
-20 -519 514 0
-20 -519 515 0
-20 519 -514 -515 0
-52 -519 514 0
-52 519 -514 0
-11 -520 515 0
-11 520 -515 0
-12 -520 515 0
-12 520 -515 0
-13 -520 515 0
-13 520 -515 0
-14 -515 520 0
-14 -511 520 0
-14 -520 515 511 0
-15 -520 515 0
-15 520 -515 0
-16 -520 515 0
-16 520 -515 0
-17 -515 520 0
-17 -512 520 0
-17 -520 515 512 0
-18 -520 515 0
-18 520 -515 0
-19 -515 520 0
-19 -513 520 0
-19 -520 515 513 0
-20 -515 520 0
-20 -514 520 0
-20 -520 515 514 0
-52 -520 515 0
-52 520 -515 0
-21 -521 516 0
-21 -521 517 0
-21 521 -516 -517 0
-22 -521 516 0
-22 -521 518 0
-22 521 -516 -518 0
-23 -521 516 0
-23 -521 519 0
-23 521 -516 -519 0
-24 -521 516 0
-24 -521 520 0
-24 521 -516 -520 0
-25 -521 516 0
-25 521 -516 0
-26 -521 516 0
-26 521 -516 0
-27 -521 516 0
-27 521 -516 0
-28 -521 516 0
-28 521 -516 0
-29 -521 516 0
-29 521 -516 0
-30 -521 516 0
-30 521 -516 0
-53 -521 516 0
-53 521 -516 0
-21 -517 522 0
-21 -516 522 0
-21 -522 517 516 0
-22 -522 517 0
-22 522 -517 0
-23 -522 517 0
-23 522 -517 0
-24 -522 517 0
-24 522 -517 0
-25 -522 517 0
-25 -522 518 0
-25 522 -517 -518 0
-26 -522 517 0
-26 -522 519 0
-26 522 -517 -519 0
-27 -522 517 0
-27 -522 520 0
-27 522 -517 -520 0
-28 -522 517 0
-28 522 -517 0
-29 -522 517 0
-29 522 -517 0
-30 -522 517 0
-30 522 -517 0
-53 -522 517 0
-53 522 -517 0
-21 -523 518 0
-21 523 -518 0
-22 -518 523 0
-22 -516 523 0
-22 -523 518 516 0
-23 -523 518 0
-23 523 -518 0
-24 -523 518 0
-24 523 -518 0
-25 -518 523 0
-25 -517 523 0
-25 -523 518 517 0
-26 -523 518 0
-26 523 -518 0
-27 -523 518 0
-27 523 -518 0
-28 -523 518 0
-28 -523 519 0
-28 523 -518 -519 0
-29 -523 518 0
-29 -523 520 0
-29 523 -518 -520 0
-30 -523 518 0
-30 523 -518 0
-53 -523 518 0
-53 523 -518 0
-21 -524 519 0
-21 524 -519 0
-22 -524 519 0
-22 524 -519 0
-23 -519 524 0
-23 -516 524 0
-23 -524 519 516 0
-24 -524 519 0
-24 524 -519 0
-25 -524 519 0
-25 524 -519 0
-26 -519 524 0
-26 -517 524 0
-26 -524 519 517 0
-27 -524 519 0
-27 524 -519 0
-28 -519 524 0
-28 -518 524 0
-28 -524 519 518 0
-29 -524 519 0
-29 524 -519 0
-30 -524 519 0
-30 -524 520 0
-30 524 -519 -520 0
-53 -524 519 0
-53 524 -519 0
-21 -525 520 0
-21 525 -520 0
-22 -525 520 0
-22 525 -520 0
-23 -525 520 0
-23 525 -520 0
-24 -520 525 0
-24 -516 525 0
-24 -525 520 516 0
-25 -525 520 0
-25 525 -520 0
-26 -525 520 0
-26 525 -520 0
-27 -520 525 0
-27 -517 525 0
-27 -525 520 517 0
-28 -525 520 0
-28 525 -520 0
-29 -520 525 0
-29 -518 525 0
-29 -525 520 518 0
-30 -520 525 0
-30 -519 525 0
-30 -525 520 519 0
-53 -525 520 0
-53 525 -520 0
-31 -526 521 0
-31 -526 522 0
-31 526 -521 -522 0
-32 -526 521 0
-32 -526 523 0
-32 526 -521 -523 0
-33 -526 521 0
-33 -526 524 0
-33 526 -521 -524 0
-34 -526 521 0
-34 -526 525 0
-34 526 -521 -525 0
-35 -526 521 0
-35 526 -521 0
-36 -526 521 0
-36 526 -521 0
-37 -526 521 0
-37 526 -521 0
-38 -526 521 0
-38 526 -521 0
-39 -526 521 0
-39 526 -521 0
-40 -526 521 0
-40 526 -521 0
-54 -526 521 0
-54 526 -521 0
-31 -522 527 0
-31 -521 527 0
-31 -527 522 521 0
-32 -527 522 0
-32 527 -522 0
-33 -527 522 0
-33 527 -522 0
-34 -527 522 0
-34 527 -522 0
-35 -527 522 0
-35 -527 523 0
-35 527 -522 -523 0
-36 -527 522 0
-36 -527 524 0
-36 527 -522 -524 0
-37 -527 522 0
-37 -527 525 0
-37 527 -522 -525 0
-38 -527 522 0
-38 527 -522 0
-39 -527 522 0
-39 527 -522 0
-40 -527 522 0
-40 527 -522 0
-54 -527 522 0
-54 527 -522 0
-31 -528 523 0
-31 528 -523 0
-32 -523 528 0
-32 -521 528 0
-32 -528 523 521 0
-33 -528 523 0
-33 528 -523 0
-34 -528 523 0
-34 528 -523 0
-35 -523 528 0
-35 -522 528 0
-35 -528 523 522 0
-36 -528 523 0
-36 528 -523 0
-37 -528 523 0
-37 528 -523 0
-38 -528 523 0
-38 -528 524 0
-38 528 -523 -524 0
-39 -528 523 0
-39 -528 525 0
-39 528 -523 -525 0
-40 -528 523 0
-40 528 -523 0
-54 -528 523 0
-54 528 -523 0
-31 -529 524 0
-31 529 -524 0
-32 -529 524 0
-32 529 -524 0
-33 -524 529 0
-33 -521 529 0
-33 -529 524 521 0
-34 -529 524 0
-34 529 -524 0
-35 -529 524 0
-35 529 -524 0
-36 -524 529 0
-36 -522 529 0
-36 -529 524 522 0
-37 -529 524 0
-37 529 -524 0
-38 -524 529 0
-38 -523 529 0
-38 -529 524 523 0
-39 -529 524 0
-39 529 -524 0
-40 -529 524 0
-40 -529 525 0
-40 529 -524 -525 0
-54 -529 524 0
-54 529 -524 0
-31 -530 525 0
-31 530 -525 0
-32 -530 525 0
-32 530 -525 0
-33 -530 525 0
-33 530 -525 0
-34 -525 530 0
-34 -521 530 0
-34 -530 525 521 0
-35 -530 525 0
-35 530 -525 0
-36 -530 525 0
-36 530 -525 0
-37 -525 530 0
-37 -522 530 0
-37 -530 525 522 0
-38 -530 525 0
-38 530 -525 0
-39 -525 530 0
-39 -523 530 0
-39 -530 525 523 0
-40 -525 530 0
-40 -524 530 0
-40 -530 525 524 0
-54 -530 525 0
-54 530 -525 0
-41 -531 526 0
-41 -531 527 0
-41 531 -526 -527 0
-42 -531 526 0
-42 -531 528 0
-42 531 -526 -528 0
-43 -531 526 0
-43 -531 529 0
-43 531 -526 -529 0
-44 -531 526 0
-44 -531 530 0
-44 531 -526 -530 0
-45 -531 526 0
-45 531 -526 0
-46 -531 526 0
-46 531 -526 0
-47 -531 526 0
-47 531 -526 0
-48 -531 526 0
-48 531 -526 0
-49 -531 526 0
-49 531 -526 0
-50 -531 526 0
-50 531 -526 0
-55 -531 526 0
-55 531 -526 0
-41 -527 532 0
-41 -526 532 0
-41 -532 527 526 0
-42 -532 527 0
-42 532 -527 0
-43 -532 527 0
-43 532 -527 0
-44 -532 527 0
-44 532 -527 0
-45 -532 527 0
-45 -532 528 0
-45 532 -527 -528 0
-46 -532 527 0
-46 -532 529 0
-46 532 -527 -529 0
-47 -532 527 0
-47 -532 530 0
-47 532 -527 -530 0
-48 -532 527 0
-48 532 -527 0
-49 -532 527 0
-49 532 -527 0
-50 -532 527 0
-50 532 -527 0
-55 -532 527 0
-55 532 -527 0
-41 -533 528 0
-41 533 -528 0
-42 -528 533 0
-42 -526 533 0
-42 -533 528 526 0
-43 -533 528 0
-43 533 -528 0
-44 -533 528 0
-44 533 -528 0
-45 -528 533 0
-45 -527 533 0
-45 -533 528 527 0
-46 -533 528 0
-46 533 -528 0
-47 -533 528 0
-47 533 -528 0
-48 -533 528 0
-48 -533 529 0
-48 533 -528 -529 0
-49 -533 528 0
-49 -533 530 0
-49 533 -528 -530 0
-50 -533 528 0
-50 533 -528 0
-55 -533 528 0
-55 533 -528 0
-41 -534 529 0
-41 534 -529 0
-42 -534 529 0
-42 534 -529 0
-43 -529 534 0
-43 -526 534 0
-43 -534 529 526 0
-44 -534 529 0
-44 534 -529 0
-45 -534 529 0
-45 534 -529 0
-46 -529 534 0
-46 -527 534 0
-46 -534 529 527 0
-47 -534 529 0
-47 534 -529 0
-48 -529 534 0
-48 -528 534 0
-48 -534 529 528 0
-49 -534 529 0
-49 534 -529 0
-50 -534 529 0
-50 -534 530 0
-50 534 -529 -530 0
-55 -534 529 0
-55 534 -529 0
-41 -535 530 0
-41 535 -530 0
-42 -535 530 0
-42 535 -530 0
-43 -535 530 0
-43 535 -530 0
-44 -530 535 0
-44 -526 535 0
-44 -535 530 526 0
-45 -535 530 0
-45 535 -530 0
-46 -535 530 0
-46 535 -530 0
-47 -530 535 0
-47 -527 535 0
-47 -535 530 527 0
-48 -535 530 0
-48 535 -530 0
-49 -530 535 0
-49 -528 535 0
-49 -535 530 528 0
-50 -530 535 0
-50 -529 535 0
-50 -535 530 529 0
-55 -535 530 0
-55 535 -530 0
536 0
-1 -541 536 0
-1 -541 537 0
-1 541 -536 -537 0
-2 -541 536 0
-2 -541 538 0
-2 541 -536 -538 0
-3 -541 536 0
-3 -541 539 0
-3 541 -536 -539 0
-4 -541 536 0
-4 -541 540 0
-4 541 -536 -540 0
-5 -541 536 0
-5 541 -536 0
-6 -541 536 0
-6 541 -536 0
-7 -541 536 0
-7 541 -536 0
-8 -541 536 0
-8 541 -536 0
-9 -541 536 0
-9 541 -536 0
-10 -541 536 0
-10 541 -536 0
-51 -541 536 0
-51 541 -536 0
-537 0
-1 -537 542 0
-1 -536 542 0
-1 -542 537 536 0
-2 -542 537 0
-2 542 -537 0
-3 -542 537 0
-3 542 -537 0
-4 -542 537 0
-4 542 -537 0
-5 -542 537 0
-5 -542 538 0
-5 542 -537 -538 0
-6 -542 537 0
-6 -542 539 0
-6 542 -537 -539 0
-7 -542 537 0
-7 -542 540 0
-7 542 -537 -540 0
-8 -542 537 0
-8 542 -537 0
-9 -542 537 0
-9 542 -537 0
-10 -542 537 0
-10 542 -537 0
-51 -542 537 0
-51 542 -537 0
538 0
-1 -543 538 0
-1 543 -538 0
-2 -538 543 0
-2 -536 543 0
-2 -543 538 536 0
-3 -543 538 0
-3 543 -538 0
-4 -543 538 0
-4 543 -538 0
-5 -538 543 0
-5 -537 543 0
-5 -543 538 537 0
-6 -543 538 0
-6 543 -538 0
-7 -543 538 0
-7 543 -538 0
-8 -543 538 0
-8 -543 539 0
-8 543 -538 -539 0
-9 -543 538 0
-9 -543 540 0
-9 543 -538 -540 0
-10 -543 538 0
-10 543 -538 0
-51 -543 538 0
-51 543 -538 0
-539 0
-1 -544 539 0
-1 544 -539 0
-2 -544 539 0
-2 544 -539 0
-3 -539 544 0
-3 -536 544 0
-3 -544 539 536 0
-4 -544 539 0
-4 544 -539 0
-5 -544 539 0
-5 544 -539 0
-6 -539 544 0
-6 -537 544 0
-6 -544 539 537 0
-7 -544 539 0
-7 544 -539 0
-8 -539 544 0
-8 -538 544 0
-8 -544 539 538 0
-9 -544 539 0
-9 544 -539 0
-10 -544 539 0
-10 -544 540 0
-10 544 -539 -540 0
-51 -544 539 0
-51 544 -539 0
540 0
-1 -545 540 0
-1 545 -540 0
-2 -545 540 0
-2 545 -540 0
-3 -545 540 0
-3 545 -540 0
-4 -540 545 0
-4 -536 545 0
-4 -545 540 536 0
-5 -545 540 0
-5 545 -540 0
-6 -545 540 0
-6 545 -540 0
-7 -540 545 0
-7 -537 545 0
-7 -545 540 537 0
-8 -545 540 0
-8 545 -540 0
-9 -540 545 0
-9 -538 545 0
-9 -545 540 538 0
-10 -540 545 0
-10 -539 545 0
-10 -545 540 539 0
-51 -545 540 0
-51 545 -540 0
-11 -546 541 0
-11 -546 542 0
-11 546 -541 -542 0
-12 -546 541 0
-12 -546 543 0
-12 546 -541 -543 0
-13 -546 541 0
-13 -546 544 0
-13 546 -541 -544 0
-14 -546 541 0
-14 -546 545 0
-14 546 -541 -545 0
-15 -546 541 0
-15 546 -541 0
-16 -546 541 0
-16 546 -541 0
-17 -546 541 0
-17 546 -541 0
-18 -546 541 0
-18 546 -541 0
-19 -546 541 0
-19 546 -541 0
-20 -546 541 0
-20 546 -541 0
-52 -546 541 0
-52 546 -541 0
-11 -542 547 0
-11 -541 547 0
-11 -547 542 541 0
-12 -547 542 0
-12 547 -542 0
-13 -547 542 0
-13 547 -542 0
-14 -547 542 0
-14 547 -542 0
-15 -547 542 0
-15 -547 543 0
-15 547 -542 -543 0
-16 -547 542 0
-16 -547 544 0
-16 547 -542 -544 0
-17 -547 542 0
-17 -547 545 0
-17 547 -542 -545 0
-18 -547 542 0
-18 547 -542 0
-19 -547 542 0
-19 547 -542 0
-20 -547 542 0
-20 547 -542 0
-52 -547 542 0
-52 547 -542 0
-11 -548 543 0
-11 548 -543 0
-12 -543 548 0
-12 -541 548 0
-12 -548 543 541 0
-13 -548 543 0
-13 548 -543 0
-14 -548 543 0
-14 548 -543 0
-15 -543 548 0
-15 -542 548 0
-15 -548 543 542 0
-16 -548 543 0
-16 548 -543 0
-17 -548 543 0
-17 548 -543 0
-18 -548 543 0
-18 -548 544 0
-18 548 -543 -544 0
-19 -548 543 0
-19 -548 545 0
-19 548 -543 -545 0
-20 -548 543 0
-20 548 -543 0
-52 -548 543 0
-52 548 -543 0
-11 -549 544 0
-11 549 -544 0
-12 -549 544 0
-12 549 -544 0
-13 -544 549 0
-13 -541 549 0
-13 -549 544 541 0
-14 -549 544 0
-14 549 -544 0
-15 -549 544 0
-15 549 -544 0
-16 -544 549 0
-16 -542 549 0
-16 -549 544 542 0
-17 -549 544 0
-17 549 -544 0
-18 -544 549 0
-18 -543 549 0
-18 -549 544 543 0
-19 -549 544 0
-19 549 -544 0
-20 -549 544 0
-20 -549 545 0
-20 549 -544 -545 0
-52 -549 544 0
-52 549 -544 0
-11 -550 545 0
-11 550 -545 0
-12 -550 545 0
-12 550 -545 0
-13 -550 545 0
-13 550 -545 0
-14 -545 550 0
-14 -541 550 0
-14 -550 545 541 0
-15 -550 545 0
-15 550 -545 0
-16 -550 545 0
-16 550 -545 0
-17 -545 550 0
-17 -542 550 0
-17 -550 545 542 0
-18 -550 545 0
-18 550 -545 0
-19 -545 550 0
-19 -543 550 0
-19 -550 545 543 0
-20 -545 550 0
-20 -544 550 0
-20 -550 545 544 0
-52 -550 545 0
-52 550 -545 0
-21 -551 546 0
-21 -551 547 0
-21 551 -546 -547 0
-22 -551 546 0
-22 -551 548 0
-22 551 -546 -548 0
-23 -551 546 0
-23 -551 549 0
-23 551 -546 -549 0
-24 -551 546 0
-24 -551 550 0
-24 551 -546 -550 0
-25 -551 546 0
-25 551 -546 0
-26 -551 546 0
-26 551 -546 0
-27 -551 546 0
-27 551 -546 0
-28 -551 546 0
-28 551 -546 0
-29 -551 546 0
-29 551 -546 0
-30 -551 546 0
-30 551 -546 0
-53 -551 546 0
-53 551 -546 0
-21 -547 552 0
-21 -546 552 0
-21 -552 547 546 0
-22 -552 547 0
-22 552 -547 0
-23 -552 547 0
-23 552 -547 0
-24 -552 547 0
-24 552 -547 0
-25 -552 547 0
-25 -552 548 0
-25 552 -547 -548 0
-26 -552 547 0
-26 -552 549 0
-26 552 -547 -549 0
-27 -552 547 0
-27 -552 550 0
-27 552 -547 -550 0
-28 -552 547 0
-28 552 -547 0
-29 -552 547 0
-29 552 -547 0
-30 -552 547 0
-30 552 -547 0
-53 -552 547 0
-53 552 -547 0
-21 -553 548 0
-21 553 -548 0
-22 -548 553 0
-22 -546 553 0
-22 -553 548 546 0
-23 -553 548 0
-23 553 -548 0
-24 -553 548 0
-24 553 -548 0
-25 -548 553 0
-25 -547 553 0
-25 -553 548 547 0
-26 -553 548 0
-26 553 -548 0
-27 -553 548 0
-27 553 -548 0
-28 -553 548 0
-28 -553 549 0
-28 553 -548 -549 0
-29 -553 548 0
-29 -553 550 0
-29 553 -548 -550 0
-30 -553 548 0
-30 553 -548 0
-53 -553 548 0
-53 553 -548 0
-21 -554 549 0
-21 554 -549 0
-22 -554 549 0
-22 554 -549 0
-23 -549 554 0
-23 -546 554 0
-23 -554 549 546 0
-24 -554 549 0
-24 554 -549 0
-25 -554 549 0
-25 554 -549 0
-26 -549 554 0
-26 -547 554 0
-26 -554 549 547 0
-27 -554 549 0
-27 554 -549 0
-28 -549 554 0
-28 -548 554 0
-28 -554 549 548 0
-29 -554 549 0
-29 554 -549 0
-30 -554 549 0
-30 -554 550 0
-30 554 -549 -550 0
-53 -554 549 0
-53 554 -549 0
-21 -555 550 0
-21 555 -550 0
-22 -555 550 0
-22 555 -550 0
-23 -555 550 0
-23 555 -550 0
-24 -550 555 0
-24 -546 555 0
-24 -555 550 546 0
-25 -555 550 0
-25 555 -550 0
-26 -555 550 0
-26 555 -550 0
-27 -550 555 0
-27 -547 555 0
-27 -555 550 547 0
-28 -555 550 0
-28 555 -550 0
-29 -550 555 0
-29 -548 555 0
-29 -555 550 548 0
-30 -550 555 0
-30 -549 555 0
-30 -555 550 549 0
-53 -555 550 0
-53 555 -550 0
-31 -556 551 0
-31 -556 552 0
-31 556 -551 -552 0
-32 -556 551 0
-32 -556 553 0
-32 556 -551 -553 0
-33 -556 551 0
-33 -556 554 0
-33 556 -551 -554 0
-34 -556 551 0
-34 -556 555 0
-34 556 -551 -555 0
-35 -556 551 0
-35 556 -551 0
-36 -556 551 0
-36 556 -551 0
-37 -556 551 0
-37 556 -551 0
-38 -556 551 0
-38 556 -551 0
-39 -556 551 0
-39 556 -551 0
-40 -556 551 0
-40 556 -551 0
-54 -556 551 0
-54 556 -551 0
-31 -552 557 0
-31 -551 557 0
-31 -557 552 551 0
-32 -557 552 0
-32 557 -552 0
-33 -557 552 0
-33 557 -552 0
-34 -557 552 0
-34 557 -552 0
-35 -557 552 0
-35 -557 553 0
-35 557 -552 -553 0
-36 -557 552 0
-36 -557 554 0
-36 557 -552 -554 0
-37 -557 552 0
-37 -557 555 0
-37 557 -552 -555 0
-38 -557 552 0
-38 557 -552 0
-39 -557 552 0
-39 557 -552 0
-40 -557 552 0
-40 557 -552 0
-54 -557 552 0
-54 557 -552 0
-31 -558 553 0
-31 558 -553 0
-32 -553 558 0
-32 -551 558 0
-32 -558 553 551 0
-33 -558 553 0
-33 558 -553 0
-34 -558 553 0
-34 558 -553 0
-35 -553 558 0
-35 -552 558 0
-35 -558 553 552 0
-36 -558 553 0
-36 558 -553 0
-37 -558 553 0
-37 558 -553 0
-38 -558 553 0
-38 -558 554 0
-38 558 -553 -554 0
-39 -558 553 0
-39 -558 555 0
-39 558 -553 -555 0
-40 -558 553 0
-40 558 -553 0
-54 -558 553 0
-54 558 -553 0
-31 -559 554 0
-31 559 -554 0
-32 -559 554 0
-32 559 -554 0
-33 -554 559 0
-33 -551 559 0
-33 -559 554 551 0
-34 -559 554 0
-34 559 -554 0
-35 -559 554 0
-35 559 -554 0
-36 -554 559 0
-36 -552 559 0
-36 -559 554 552 0
-37 -559 554 0
-37 559 -554 0
-38 -554 559 0
-38 -553 559 0
-38 -559 554 553 0
-39 -559 554 0
-39 559 -554 0
-40 -559 554 0
-40 -559 555 0
-40 559 -554 -555 0
-54 -559 554 0
-54 559 -554 0
-31 -560 555 0
-31 560 -555 0
-32 -560 555 0
-32 560 -555 0
-33 -560 555 0
-33 560 -555 0
-34 -555 560 0
-34 -551 560 0
-34 -560 555 551 0
-35 -560 555 0
-35 560 -555 0
-36 -560 555 0
-36 560 -555 0
-37 -555 560 0
-37 -552 560 0
-37 -560 555 552 0
-38 -560 555 0
-38 560 -555 0
-39 -555 560 0
-39 -553 560 0
-39 -560 555 553 0
-40 -555 560 0
-40 -554 560 0
-40 -560 555 554 0
-54 -560 555 0
-54 560 -555 0
-41 -561 556 0
-41 -561 557 0
-41 561 -556 -557 0
-42 -561 556 0
-42 -561 558 0
-42 561 -556 -558 0
-43 -561 556 0
-43 -561 559 0
-43 561 -556 -559 0
-44 -561 556 0
-44 -561 560 0
-44 561 -556 -560 0
-45 -561 556 0
-45 561 -556 0
-46 -561 556 0
-46 561 -556 0
-47 -561 556 0
-47 561 -556 0
-48 -561 556 0
-48 561 -556 0
-49 -561 556 0
-49 561 -556 0
-50 -561 556 0
-50 561 -556 0
-55 -561 556 0
-55 561 -556 0
-41 -557 562 0
-41 -556 562 0
-41 -562 557 556 0
-42 -562 557 0
-42 562 -557 0
-43 -562 557 0
-43 562 -557 0
-44 -562 557 0
-44 562 -557 0
-45 -562 557 0
-45 -562 558 0
-45 562 -557 -558 0
-46 -562 557 0
-46 -562 559 0
-46 562 -557 -559 0
-47 -562 557 0
-47 -562 560 0
-47 562 -557 -560 0
-48 -562 557 0
-48 562 -557 0
-49 -562 557 0
-49 562 -557 0
-50 -562 557 0
-50 562 -557 0
-55 -562 557 0
-55 562 -557 0
-41 -563 558 0
-41 563 -558 0
-42 -558 563 0
-42 -556 563 0
-42 -563 558 556 0
-43 -563 558 0
-43 563 -558 0
-44 -563 558 0
-44 563 -558 0
-45 -558 563 0
-45 -557 563 0
-45 -563 558 557 0
-46 -563 558 0
-46 563 -558 0
-47 -563 558 0
-47 563 -558 0
-48 -563 558 0
-48 -563 559 0
-48 563 -558 -559 0
-49 -563 558 0
-49 -563 560 0
-49 563 -558 -560 0
-50 -563 558 0
-50 563 -558 0
-55 -563 558 0
-55 563 -558 0
-41 -564 559 0
-41 564 -559 0
-42 -564 559 0
-42 564 -559 0
-43 -559 564 0
-43 -556 564 0
-43 -564 559 556 0
-44 -564 559 0
-44 564 -559 0
-45 -564 559 0
-45 564 -559 0
-46 -559 564 0
-46 -557 564 0
-46 -564 559 557 0
-47 -564 559 0
-47 564 -559 0
-48 -559 564 0
-48 -558 564 0
-48 -564 559 558 0
-49 -564 559 0
-49 564 -559 0
-50 -564 559 0
-50 -564 560 0
-50 564 -559 -560 0
-55 -564 559 0
-55 564 -559 0
-41 -565 560 0
-41 565 -560 0
-42 -565 560 0
-42 565 -560 0
-43 -565 560 0
-43 565 -560 0
-44 -560 565 0
-44 -556 565 0
-44 -565 560 556 0
-45 -565 560 0
-45 565 -560 0
-46 -565 560 0
-46 565 -560 0
-47 -560 565 0
-47 -557 565 0
-47 -565 560 557 0
-48 -565 560 0
-48 565 -560 0
-49 -560 565 0
-49 -558 565 0
-49 -565 560 558 0
-50 -560 565 0
-50 -559 565 0
-50 -565 560 559 0
-55 -565 560 0
-55 565 -560 0
566 0
-1 -571 566 0
-1 -571 567 0
-1 571 -566 -567 0
-2 -571 566 0
-2 -571 568 0
-2 571 -566 -568 0
-3 -571 566 0
-3 -571 569 0
-3 571 -566 -569 0
-4 -571 566 0
-4 -571 570 0
-4 571 -566 -570 0
-5 -571 566 0
-5 571 -566 0
-6 -571 566 0
-6 571 -566 0
-7 -571 566 0
-7 571 -566 0
-8 -571 566 0
-8 571 -566 0
-9 -571 566 0
-9 571 -566 0
-10 -571 566 0
-10 571 -566 0
-51 -571 566 0
-51 571 -566 0
-567 0
-1 -567 572 0
-1 -566 572 0
-1 -572 567 566 0
-2 -572 567 0
-2 572 -567 0
-3 -572 567 0
-3 572 -567 0
-4 -572 567 0
-4 572 -567 0
-5 -572 567 0
-5 -572 568 0
-5 572 -567 -568 0
-6 -572 567 0
-6 -572 569 0
-6 572 -567 -569 0
-7 -572 567 0
-7 -572 570 0
-7 572 -567 -570 0
-8 -572 567 0
-8 572 -567 0
-9 -572 567 0
-9 572 -567 0
-10 -572 567 0
-10 572 -567 0
-51 -572 567 0
-51 572 -567 0
568 0
-1 -573 568 0
-1 573 -568 0
-2 -568 573 0
-2 -566 573 0
-2 -573 568 566 0
-3 -573 568 0
-3 573 -568 0
-4 -573 568 0
-4 573 -568 0
-5 -568 573 0
-5 -567 573 0
-5 -573 568 567 0
-6 -573 568 0
-6 573 -568 0
-7 -573 568 0
-7 573 -568 0
-8 -573 568 0
-8 -573 569 0
-8 573 -568 -569 0
-9 -573 568 0
-9 -573 570 0
-9 573 -568 -570 0
-10 -573 568 0
-10 573 -568 0
-51 -573 568 0
-51 573 -568 0
569 0
-1 -574 569 0
-1 574 -569 0
-2 -574 569 0
-2 574 -569 0
-3 -569 574 0
-3 -566 574 0
-3 -574 569 566 0
-4 -574 569 0
-4 574 -569 0
-5 -574 569 0
-5 574 -569 0
-6 -569 574 0
-6 -567 574 0
-6 -574 569 567 0
-7 -574 569 0
-7 574 -569 0
-8 -569 574 0
-8 -568 574 0
-8 -574 569 568 0
-9 -574 569 0
-9 574 -569 0
-10 -574 569 0
-10 -574 570 0
-10 574 -569 -570 0
-51 -574 569 0
-51 574 -569 0
-570 0
-1 -575 570 0
-1 575 -570 0
-2 -575 570 0
-2 575 -570 0
-3 -575 570 0
-3 575 -570 0
-4 -570 575 0
-4 -566 575 0
-4 -575 570 566 0
-5 -575 570 0
-5 575 -570 0
-6 -575 570 0
-6 575 -570 0
-7 -570 575 0
-7 -567 575 0
-7 -575 570 567 0
-8 -575 570 0
-8 575 -570 0
-9 -570 575 0
-9 -568 575 0
-9 -575 570 568 0
-10 -570 575 0
-10 -569 575 0
-10 -575 570 569 0
-51 -575 570 0
-51 575 -570 0
-11 -576 571 0
-11 -576 572 0
-11 576 -571 -572 0
-12 -576 571 0
-12 -576 573 0
-12 576 -571 -573 0
-13 -576 571 0
-13 -576 574 0
-13 576 -571 -574 0
-14 -576 571 0
-14 -576 575 0
-14 576 -571 -575 0
-15 -576 571 0
-15 576 -571 0
-16 -576 571 0
-16 576 -571 0
-17 -576 571 0
-17 576 -571 0
-18 -576 571 0
-18 576 -571 0
-19 -576 571 0
-19 576 -571 0
-20 -576 571 0
-20 576 -571 0
-52 -576 571 0
-52 576 -571 0
-11 -572 577 0
-11 -571 577 0
-11 -577 572 571 0
-12 -577 572 0
-12 577 -572 0
-13 -577 572 0
-13 577 -572 0
-14 -577 572 0
-14 577 -572 0
-15 -577 572 0
-15 -577 573 0
-15 577 -572 -573 0
-16 -577 572 0
-16 -577 574 0
-16 577 -572 -574 0
-17 -577 572 0
-17 -577 575 0
-17 577 -572 -575 0
-18 -577 572 0
-18 577 -572 0
-19 -577 572 0
-19 577 -572 0
-20 -577 572 0
-20 577 -572 0
-52 -577 572 0
-52 577 -572 0
-11 -578 573 0
-11 578 -573 0
-12 -573 578 0
-12 -571 578 0
-12 -578 573 571 0
-13 -578 573 0
-13 578 -573 0
-14 -578 573 0
-14 578 -573 0
-15 -573 578 0
-15 -572 578 0
-15 -578 573 572 0
-16 -578 573 0
-16 578 -573 0
-17 -578 573 0
-17 578 -573 0
-18 -578 573 0
-18 -578 574 0
-18 578 -573 -574 0
-19 -578 573 0
-19 -578 575 0
-19 578 -573 -575 0
-20 -578 573 0
-20 578 -573 0
-52 -578 573 0
-52 578 -573 0
-11 -579 574 0
-11 579 -574 0
-12 -579 574 0
-12 579 -574 0
-13 -574 579 0
-13 -571 579 0
-13 -579 574 571 0
-14 -579 574 0
-14 579 -574 0
-15 -579 574 0
-15 579 -574 0
-16 -574 579 0
-16 -572 579 0
-16 -579 574 572 0
-17 -579 574 0
-17 579 -574 0
-18 -574 579 0
-18 -573 579 0
-18 -579 574 573 0
-19 -579 574 0
-19 579 -574 0
-20 -579 574 0
-20 -579 575 0
-20 579 -574 -575 0
-52 -579 574 0
-52 579 -574 0
-11 -580 575 0
-11 580 -575 0
-12 -580 575 0
-12 580 -575 0
-13 -580 575 0
-13 580 -575 0
-14 -575 580 0
-14 -571 580 0
-14 -580 575 571 0
-15 -580 575 0
-15 580 -575 0
-16 -580 575 0
-16 580 -575 0
-17 -575 580 0
-17 -572 580 0
-17 -580 575 572 0
-18 -580 575 0
-18 580 -575 0
-19 -575 580 0
-19 -573 580 0
-19 -580 575 573 0
-20 -575 580 0
-20 -574 580 0
-20 -580 575 574 0
-52 -580 575 0
-52 580 -575 0
-21 -581 576 0
-21 -581 577 0
-21 581 -576 -577 0
-22 -581 576 0
-22 -581 578 0
-22 581 -576 -578 0
-23 -581 576 0
-23 -581 579 0
-23 581 -576 -579 0
-24 -581 576 0
-24 -581 580 0
-24 581 -576 -580 0
-25 -581 576 0
-25 581 -576 0
-26 -581 576 0
-26 581 -576 0
-27 -581 576 0
-27 581 -576 0
-28 -581 576 0
-28 581 -576 0
-29 -581 576 0
-29 581 -576 0
-30 -581 576 0
-30 581 -576 0
-53 -581 576 0
-53 581 -576 0
-21 -577 582 0
-21 -576 582 0
-21 -582 577 576 0
-22 -582 577 0
-22 582 -577 0
-23 -582 577 0
-23 582 -577 0
-24 -582 577 0
-24 582 -577 0
-25 -582 577 0
-25 -582 578 0
-25 582 -577 -578 0
-26 -582 577 0
-26 -582 579 0
-26 582 -577 -579 0
-27 -582 577 0
-27 -582 580 0
-27 582 -577 -580 0
-28 -582 577 0
-28 582 -577 0
-29 -582 577 0
-29 582 -577 0
-30 -582 577 0
-30 582 -577 0
-53 -582 577 0
-53 582 -577 0
-21 -583 578 0
-21 583 -578 0
-22 -578 583 0
-22 -576 583 0
-22 -583 578 576 0
-23 -583 578 0
-23 583 -578 0
-24 -583 578 0
-24 583 -578 0
-25 -578 583 0
-25 -577 583 0
-25 -583 578 577 0
-26 -583 578 0
-26 583 -578 0
-27 -583 578 0
-27 583 -578 0
-28 -583 578 0
-28 -583 579 0
-28 583 -578 -579 0
-29 -583 578 0
-29 -583 580 0
-29 583 -578 -580 0
-30 -583 578 0
-30 583 -578 0
-53 -583 578 0
-53 583 -578 0
-21 -584 579 0
-21 584 -579 0
-22 -584 579 0
-22 584 -579 0
-23 -579 584 0
-23 -576 584 0
-23 -584 579 576 0
-24 -584 579 0
-24 584 -579 0
-25 -584 579 0
-25 584 -579 0
-26 -579 584 0
-26 -577 584 0
-26 -584 579 577 0
-27 -584 579 0
-27 584 -579 0
-28 -579 584 0
-28 -578 584 0
-28 -584 579 578 0
-29 -584 579 0
-29 584 -579 0
-30 -584 579 0
-30 -584 580 0
-30 584 -579 -580 0
-53 -584 579 0
-53 584 -579 0
-21 -585 580 0
-21 585 -580 0
-22 -585 580 0
-22 585 -580 0
-23 -585 580 0
-23 585 -580 0
-24 -580 585 0
-24 -576 585 0
-24 -585 580 576 0
-25 -585 580 0
-25 585 -580 0
-26 -585 580 0
-26 585 -580 0
-27 -580 585 0
-27 -577 585 0
-27 -585 580 577 0
-28 -585 580 0
-28 585 -580 0
-29 -580 585 0
-29 -578 585 0
-29 -585 580 578 0
-30 -580 585 0
-30 -579 585 0
-30 -585 580 579 0
-53 -585 580 0
-53 585 -580 0
-31 -586 581 0
-31 -586 582 0
-31 586 -581 -582 0
-32 -586 581 0
-32 -586 583 0
-32 586 -581 -583 0
-33 -586 581 0
-33 -586 584 0
-33 586 -581 -584 0
-34 -586 581 0
-34 -586 585 0
-34 586 -581 -585 0
-35 -586 581 0
-35 586 -581 0
-36 -586 581 0
-36 586 -581 0
-37 -586 581 0
-37 586 -581 0
-38 -586 581 0
-38 586 -581 0
-39 -586 581 0
-39 586 -581 0
-40 -586 581 0
-40 586 -581 0
-54 -586 581 0
-54 586 -581 0
-31 -582 587 0
-31 -581 587 0
-31 -587 582 581 0
-32 -587 582 0
-32 587 -582 0
-33 -587 582 0
-33 587 -582 0
-34 -587 582 0
-34 587 -582 0
-35 -587 582 0
-35 -587 583 0
-35 587 -582 -583 0
-36 -587 582 0
-36 -587 584 0
-36 587 -582 -584 0
-37 -587 582 0
-37 -587 585 0
-37 587 -582 -585 0
-38 -587 582 0
-38 587 -582 0
-39 -587 582 0
-39 587 -582 0
-40 -587 582 0
-40 587 -582 0
-54 -587 582 0
-54 587 -582 0
-31 -588 583 0
-31 588 -583 0
-32 -583 588 0
-32 -581 588 0
-32 -588 583 581 0
-33 -588 583 0
-33 588 -583 0
-34 -588 583 0
-34 588 -583 0
-35 -583 588 0
-35 -582 588 0
-35 -588 583 582 0
-36 -588 583 0
-36 588 -583 0
-37 -588 583 0
-37 588 -583 0
-38 -588 583 0
-38 -588 584 0
-38 588 -583 -584 0
-39 -588 583 0
-39 -588 585 0
-39 588 -583 -585 0
-40 -588 583 0
-40 588 -583 0
-54 -588 583 0
-54 588 -583 0
-31 -589 584 0
-31 589 -584 0
-32 -589 584 0
-32 589 -584 0
-33 -584 589 0
-33 -581 589 0
-33 -589 584 581 0
-34 -589 584 0
-34 589 -584 0
-35 -589 584 0
-35 589 -584 0
-36 -584 589 0
-36 -582 589 0
-36 -589 584 582 0
-37 -589 584 0
-37 589 -584 0
-38 -584 589 0
-38 -583 589 0
-38 -589 584 583 0
-39 -589 584 0
-39 589 -584 0
-40 -589 584 0
-40 -589 585 0
-40 589 -584 -585 0
-54 -589 584 0
-54 589 -584 0
-31 -590 585 0
-31 590 -585 0
-32 -590 585 0
-32 590 -585 0
-33 -590 585 0
-33 590 -585 0
-34 -585 590 0
-34 -581 590 0
-34 -590 585 581 0
-35 -590 585 0
-35 590 -585 0
-36 -590 585 0
-36 590 -585 0
-37 -585 590 0
-37 -582 590 0
-37 -590 585 582 0
-38 -590 585 0
-38 590 -585 0
-39 -585 590 0
-39 -583 590 0
-39 -590 585 583 0
-40 -585 590 0
-40 -584 590 0
-40 -590 585 584 0
-54 -590 585 0
-54 590 -585 0
-41 -591 586 0
-41 -591 587 0
-41 591 -586 -587 0
-42 -591 586 0
-42 -591 588 0
-42 591 -586 -588 0
-43 -591 586 0
-43 -591 589 0
-43 591 -586 -589 0
-44 -591 586 0
-44 -591 590 0
-44 591 -586 -590 0
-45 -591 586 0
-45 591 -586 0
-46 -591 586 0
-46 591 -586 0
-47 -591 586 0
-47 591 -586 0
-48 -591 586 0
-48 591 -586 0
-49 -591 586 0
-49 591 -586 0
-50 -591 586 0
-50 591 -586 0
-55 -591 586 0
-55 591 -586 0
-41 -587 592 0
-41 -586 592 0
-41 -592 587 586 0
-42 -592 587 0
-42 592 -587 0
-43 -592 587 0
-43 592 -587 0
-44 -592 587 0
-44 592 -587 0
-45 -592 587 0
-45 -592 588 0
-45 592 -587 -588 0
-46 -592 587 0
-46 -592 589 0
-46 592 -587 -589 0
-47 -592 587 0
-47 -592 590 0
-47 592 -587 -590 0
-48 -592 587 0
-48 592 -587 0
-49 -592 587 0
-49 592 -587 0
-50 -592 587 0
-50 592 -587 0
-55 -592 587 0
-55 592 -587 0
-41 -593 588 0
-41 593 -588 0
-42 -588 593 0
-42 -586 593 0
-42 -593 588 586 0
-43 -593 588 0
-43 593 -588 0
-44 -593 588 0
-44 593 -588 0
-45 -588 593 0
-45 -587 593 0
-45 -593 588 587 0
-46 -593 588 0
-46 593 -588 0
-47 -593 588 0
-47 593 -588 0
-48 -593 588 0
-48 -593 589 0
-48 593 -588 -589 0
-49 -593 588 0
-49 -593 590 0
-49 593 -588 -590 0
-50 -593 588 0
-50 593 -588 0
-55 -593 588 0
-55 593 -588 0
-41 -594 589 0
-41 594 -589 0
-42 -594 589 0
-42 594 -589 0
-43 -589 594 0
-43 -586 594 0
-43 -594 589 586 0
-44 -594 589 0
-44 594 -589 0
-45 -594 589 0
-45 594 -589 0
-46 -589 594 0
-46 -587 594 0
-46 -594 589 587 0
-47 -594 589 0
-47 594 -589 0
-48 -589 594 0
-48 -588 594 0
-48 -594 589 588 0
-49 -594 589 0
-49 594 -589 0
-50 -594 589 0
-50 -594 590 0
-50 594 -589 -590 0
-55 -594 589 0
-55 594 -589 0
-41 -595 590 0
-41 595 -590 0
-42 -595 590 0
-42 595 -590 0
-43 -595 590 0
-43 595 -590 0
-44 -590 595 0
-44 -586 595 0
-44 -595 590 586 0
-45 -595 590 0
-45 595 -590 0
-46 -595 590 0
-46 595 -590 0
-47 -590 595 0
-47 -587 595 0
-47 -595 590 587 0
-48 -595 590 0
-48 595 -590 0
-49 -590 595 0
-49 -588 595 0
-49 -595 590 588 0
-50 -590 595 0
-50 -589 595 0
-50 -595 590 589 0
-55 -595 590 0
-55 595 -590 0
596 0
-1 -601 596 0
-1 -601 597 0
-1 601 -596 -597 0
-2 -601 596 0
-2 -601 598 0
-2 601 -596 -598 0
-3 -601 596 0
-3 -601 599 0
-3 601 -596 -599 0
-4 -601 596 0
-4 -601 600 0
-4 601 -596 -600 0
-5 -601 596 0
-5 601 -596 0
-6 -601 596 0
-6 601 -596 0
-7 -601 596 0
-7 601 -596 0
-8 -601 596 0
-8 601 -596 0
-9 -601 596 0
-9 601 -596 0
-10 -601 596 0
-10 601 -596 0
-51 -601 596 0
-51 601 -596 0
-597 0
-1 -597 602 0
-1 -596 602 0
-1 -602 597 596 0
-2 -602 597 0
-2 602 -597 0
-3 -602 597 0
-3 602 -597 0
-4 -602 597 0
-4 602 -597 0
-5 -602 597 0
-5 -602 598 0
-5 602 -597 -598 0
-6 -602 597 0
-6 -602 599 0
-6 602 -597 -599 0
-7 -602 597 0
-7 -602 600 0
-7 602 -597 -600 0
-8 -602 597 0
-8 602 -597 0
-9 -602 597 0
-9 602 -597 0
-10 -602 597 0
-10 602 -597 0
-51 -602 597 0
-51 602 -597 0
598 0
-1 -603 598 0
-1 603 -598 0
-2 -598 603 0
-2 -596 603 0
-2 -603 598 596 0
-3 -603 598 0
-3 603 -598 0
-4 -603 598 0
-4 603 -598 0
-5 -598 603 0
-5 -597 603 0
-5 -603 598 597 0
-6 -603 598 0
-6 603 -598 0
-7 -603 598 0
-7 603 -598 0
-8 -603 598 0
-8 -603 599 0
-8 603 -598 -599 0
-9 -603 598 0
-9 -603 600 0
-9 603 -598 -600 0
-10 -603 598 0
-10 603 -598 0
-51 -603 598 0
-51 603 -598 0
599 0
-1 -604 599 0
-1 604 -599 0
-2 -604 599 0
-2 604 -599 0
-3 -599 604 0
-3 -596 604 0
-3 -604 599 596 0
-4 -604 599 0
-4 604 -599 0
-5 -604 599 0
-5 604 -599 0
-6 -599 604 0
-6 -597 604 0
-6 -604 599 597 0
-7 -604 599 0
-7 604 -599 0
-8 -599 604 0
-8 -598 604 0
-8 -604 599 598 0
-9 -604 599 0
-9 604 -599 0
-10 -604 599 0
-10 -604 600 0
-10 604 -599 -600 0
-51 -604 599 0
-51 604 -599 0
600 0
-1 -605 600 0
-1 605 -600 0
-2 -605 600 0
-2 605 -600 0
-3 -605 600 0
-3 605 -600 0
-4 -600 605 0
-4 -596 605 0
-4 -605 600 596 0
-5 -605 600 0
-5 605 -600 0
-6 -605 600 0
-6 605 -600 0
-7 -600 605 0
-7 -597 605 0
-7 -605 600 597 0
-8 -605 600 0
-8 605 -600 0
-9 -600 605 0
-9 -598 605 0
-9 -605 600 598 0
-10 -600 605 0
-10 -599 605 0
-10 -605 600 599 0
-51 -605 600 0
-51 605 -600 0
-11 -606 601 0
-11 -606 602 0
-11 606 -601 -602 0
-12 -606 601 0
-12 -606 603 0
-12 606 -601 -603 0
-13 -606 601 0
-13 -606 604 0
-13 606 -601 -604 0
-14 -606 601 0
-14 -606 605 0
-14 606 -601 -605 0
-15 -606 601 0
-15 606 -601 0
-16 -606 601 0
-16 606 -601 0
-17 -606 601 0
-17 606 -601 0
-18 -606 601 0
-18 606 -601 0
-19 -606 601 0
-19 606 -601 0
-20 -606 601 0
-20 606 -601 0
-52 -606 601 0
-52 606 -601 0
-11 -602 607 0
-11 -601 607 0
-11 -607 602 601 0
-12 -607 602 0
-12 607 -602 0
-13 -607 602 0
-13 607 -602 0
-14 -607 602 0
-14 607 -602 0
-15 -607 602 0
-15 -607 603 0
-15 607 -602 -603 0
-16 -607 602 0
-16 -607 604 0
-16 607 -602 -604 0
-17 -607 602 0
-17 -607 605 0
-17 607 -602 -605 0
-18 -607 602 0
-18 607 -602 0
-19 -607 602 0
-19 607 -602 0
-20 -607 602 0
-20 607 -602 0
-52 -607 602 0
-52 607 -602 0
-11 -608 603 0
-11 608 -603 0
-12 -603 608 0
-12 -601 608 0
-12 -608 603 601 0
-13 -608 603 0
-13 608 -603 0
-14 -608 603 0
-14 608 -603 0
-15 -603 608 0
-15 -602 608 0
-15 -608 603 602 0
-16 -608 603 0
-16 608 -603 0
-17 -608 603 0
-17 608 -603 0
-18 -608 603 0
-18 -608 604 0
-18 608 -603 -604 0
-19 -608 603 0
-19 -608 605 0
-19 608 -603 -605 0
-20 -608 603 0
-20 608 -603 0
-52 -608 603 0
-52 608 -603 0
-11 -609 604 0
-11 609 -604 0
-12 -609 604 0
-12 609 -604 0
-13 -604 609 0
-13 -601 609 0
-13 -609 604 601 0
-14 -609 604 0
-14 609 -604 0
-15 -609 604 0
-15 609 -604 0
-16 -604 609 0
-16 -602 609 0
-16 -609 604 602 0
-17 -609 604 0
-17 609 -604 0
-18 -604 609 0
-18 -603 609 0
-18 -609 604 603 0
-19 -609 604 0
-19 609 -604 0
-20 -609 604 0
-20 -609 605 0
-20 609 -604 -605 0
-52 -609 604 0
-52 609 -604 0
-11 -610 605 0
-11 610 -605 0
-12 -610 605 0
-12 610 -605 0
-13 -610 605 0
-13 610 -605 0
-14 -605 610 0
-14 -601 610 0
-14 -610 605 601 0
-15 -610 605 0
-15 610 -605 0
-16 -610 605 0
-16 610 -605 0
-17 -605 610 0
-17 -602 610 0
-17 -610 605 602 0
-18 -610 605 0
-18 610 -605 0
-19 -605 610 0
-19 -603 610 0
-19 -610 605 603 0
-20 -605 610 0
-20 -604 610 0
-20 -610 605 604 0
-52 -610 605 0
-52 610 -605 0
-21 -611 606 0
-21 -611 607 0
-21 611 -606 -607 0
-22 -611 606 0
-22 -611 608 0
-22 611 -606 -608 0
-23 -611 606 0
-23 -611 609 0
-23 611 -606 -609 0
-24 -611 606 0
-24 -611 610 0
-24 611 -606 -610 0
-25 -611 606 0
-25 611 -606 0
-26 -611 606 0
-26 611 -606 0
-27 -611 606 0
-27 611 -606 0
-28 -611 606 0
-28 611 -606 0
-29 -611 606 0
-29 611 -606 0
-30 -611 606 0
-30 611 -606 0
-53 -611 606 0
-53 611 -606 0
-21 -607 612 0
-21 -606 612 0
-21 -612 607 606 0
-22 -612 607 0
-22 612 -607 0
-23 -612 607 0
-23 612 -607 0
-24 -612 607 0
-24 612 -607 0
-25 -612 607 0
-25 -612 608 0
-25 612 -607 -608 0
-26 -612 607 0
-26 -612 609 0
-26 612 -607 -609 0
-27 -612 607 0
-27 -612 610 0
-27 612 -607 -610 0
-28 -612 607 0
-28 612 -607 0
-29 -612 607 0
-29 612 -607 0
-30 -612 607 0
-30 612 -607 0
-53 -612 607 0
-53 612 -607 0
-21 -613 608 0
-21 613 -608 0
-22 -608 613 0
-22 -606 613 0
-22 -613 608 606 0
-23 -613 608 0
-23 613 -608 0
-24 -613 608 0
-24 613 -608 0
-25 -608 613 0
-25 -607 613 0
-25 -613 608 607 0
-26 -613 608 0
-26 613 -608 0
-27 -613 608 0
-27 613 -608 0
-28 -613 608 0
-28 -613 609 0
-28 613 -608 -609 0
-29 -613 608 0
-29 -613 610 0
-29 613 -608 -610 0
-30 -613 608 0
-30 613 -608 0
-53 -613 608 0
-53 613 -608 0
-21 -614 609 0
-21 614 -609 0
-22 -614 609 0
-22 614 -609 0
-23 -609 614 0
-23 -606 614 0
-23 -614 609 606 0
-24 -614 609 0
-24 614 -609 0
-25 -614 609 0
-25 614 -609 0
-26 -609 614 0
-26 -607 614 0
-26 -614 609 607 0
-27 -614 609 0
-27 614 -609 0
-28 -609 614 0
-28 -608 614 0
-28 -614 609 608 0
-29 -614 609 0
-29 614 -609 0
-30 -614 609 0
-30 -614 610 0
-30 614 -609 -610 0
-53 -614 609 0
-53 614 -609 0
-21 -615 610 0
-21 615 -610 0
-22 -615 610 0
-22 615 -610 0
-23 -615 610 0
-23 615 -610 0
-24 -610 615 0
-24 -606 615 0
-24 -615 610 606 0
-25 -615 610 0
-25 615 -610 0
-26 -615 610 0
-26 615 -610 0
-27 -610 615 0
-27 -607 615 0
-27 -615 610 607 0
-28 -615 610 0
-28 615 -610 0
-29 -610 615 0
-29 -608 615 0
-29 -615 610 608 0
-30 -610 615 0
-30 -609 615 0
-30 -615 610 609 0
-53 -615 610 0
-53 615 -610 0
-31 -616 611 0
-31 -616 612 0
-31 616 -611 -612 0
-32 -616 611 0
-32 -616 613 0
-32 616 -611 -613 0
-33 -616 611 0
-33 -616 614 0
-33 616 -611 -614 0
-34 -616 611 0
-34 -616 615 0
-34 616 -611 -615 0
-35 -616 611 0
-35 616 -611 0
-36 -616 611 0
-36 616 -611 0
-37 -616 611 0
-37 616 -611 0
-38 -616 611 0
-38 616 -611 0
-39 -616 611 0
-39 616 -611 0
-40 -616 611 0
-40 616 -611 0
-54 -616 611 0
-54 616 -611 0
-31 -612 617 0
-31 -611 617 0
-31 -617 612 611 0
-32 -617 612 0
-32 617 -612 0
-33 -617 612 0
-33 617 -612 0
-34 -617 612 0
-34 617 -612 0
-35 -617 612 0
-35 -617 613 0
-35 617 -612 -613 0
-36 -617 612 0
-36 -617 614 0
-36 617 -612 -614 0
-37 -617 612 0
-37 -617 615 0
-37 617 -612 -615 0
-38 -617 612 0
-38 617 -612 0
-39 -617 612 0
-39 617 -612 0
-40 -617 612 0
-40 617 -612 0
-54 -617 612 0
-54 617 -612 0
-31 -618 613 0
-31 618 -613 0
-32 -613 618 0
-32 -611 618 0
-32 -618 613 611 0
-33 -618 613 0
-33 618 -613 0
-34 -618 613 0
-34 618 -613 0
-35 -613 618 0
-35 -612 618 0
-35 -618 613 612 0
-36 -618 613 0
-36 618 -613 0
-37 -618 613 0
-37 618 -613 0
-38 -618 613 0
-38 -618 614 0
-38 618 -613 -614 0
-39 -618 613 0
-39 -618 615 0
-39 618 -613 -615 0
-40 -618 613 0
-40 618 -613 0
-54 -618 613 0
-54 618 -613 0
-31 -619 614 0
-31 619 -614 0
-32 -619 614 0
-32 619 -614 0
-33 -614 619 0
-33 -611 619 0
-33 -619 614 611 0
-34 -619 614 0
-34 619 -614 0
-35 -619 614 0
-35 619 -614 0
-36 -614 619 0
-36 -612 619 0
-36 -619 614 612 0
-37 -619 614 0
-37 619 -614 0
-38 -614 619 0
-38 -613 619 0
-38 -619 614 613 0
-39 -619 614 0
-39 619 -614 0
-40 -619 614 0
-40 -619 615 0
-40 619 -614 -615 0
-54 -619 614 0
-54 619 -614 0
-31 -620 615 0
-31 620 -615 0
-32 -620 615 0
-32 620 -615 0
-33 -620 615 0
-33 620 -615 0
-34 -615 620 0
-34 -611 620 0
-34 -620 615 611 0
-35 -620 615 0
-35 620 -615 0
-36 -620 615 0
-36 620 -615 0
-37 -615 620 0
-37 -612 620 0
-37 -620 615 612 0
-38 -620 615 0
-38 620 -615 0
-39 -615 620 0
-39 -613 620 0
-39 -620 615 613 0
-40 -615 620 0
-40 -614 620 0
-40 -620 615 614 0
-54 -620 615 0
-54 620 -615 0
-41 -621 616 0
-41 -621 617 0
-41 621 -616 -617 0
-42 -621 616 0
-42 -621 618 0
-42 621 -616 -618 0
-43 -621 616 0
-43 -621 619 0
-43 621 -616 -619 0
-44 -621 616 0
-44 -621 620 0
-44 621 -616 -620 0
-45 -621 616 0
-45 621 -616 0
-46 -621 616 0
-46 621 -616 0
-47 -621 616 0
-47 621 -616 0
-48 -621 616 0
-48 621 -616 0
-49 -621 616 0
-49 621 -616 0
-50 -621 616 0
-50 621 -616 0
-55 -621 616 0
-55 621 -616 0
-41 -617 622 0
-41 -616 622 0
-41 -622 617 616 0
-42 -622 617 0
-42 622 -617 0
-43 -622 617 0
-43 622 -617 0
-44 -622 617 0
-44 622 -617 0
-45 -622 617 0
-45 -622 618 0
-45 622 -617 -618 0
-46 -622 617 0
-46 -622 619 0
-46 622 -617 -619 0
-47 -622 617 0
-47 -622 620 0
-47 622 -617 -620 0
-48 -622 617 0
-48 622 -617 0
-49 -622 617 0
-49 622 -617 0
-50 -622 617 0
-50 622 -617 0
-55 -622 617 0
-55 622 -617 0
-41 -623 618 0
-41 623 -618 0
-42 -618 623 0
-42 -616 623 0
-42 -623 618 616 0
-43 -623 618 0
-43 623 -618 0
-44 -623 618 0
-44 623 -618 0
-45 -618 623 0
-45 -617 623 0
-45 -623 618 617 0
-46 -623 618 0
-46 623 -618 0
-47 -623 618 0
-47 623 -618 0
-48 -623 618 0
-48 -623 619 0
-48 623 -618 -619 0
-49 -623 618 0
-49 -623 620 0
-49 623 -618 -620 0
-50 -623 618 0
-50 623 -618 0
-55 -623 618 0
-55 623 -618 0
-41 -624 619 0
-41 624 -619 0
-42 -624 619 0
-42 624 -619 0
-43 -619 624 0
-43 -616 624 0
-43 -624 619 616 0
-44 -624 619 0
-44 624 -619 0
-45 -624 619 0
-45 624 -619 0
-46 -619 624 0
-46 -617 624 0
-46 -624 619 617 0
-47 -624 619 0
-47 624 -619 0
-48 -619 624 0
-48 -618 624 0
-48 -624 619 618 0
-49 -624 619 0
-49 624 -619 0
-50 -624 619 0
-50 -624 620 0
-50 624 -619 -620 0
-55 -624 619 0
-55 624 -619 0
-41 -625 620 0
-41 625 -620 0
-42 -625 620 0
-42 625 -620 0
-43 -625 620 0
-43 625 -620 0
-44 -620 625 0
-44 -616 625 0
-44 -625 620 616 0
-45 -625 620 0
-45 625 -620 0
-46 -625 620 0
-46 625 -620 0
-47 -620 625 0
-47 -617 625 0
-47 -625 620 617 0
-48 -625 620 0
-48 625 -620 0
-49 -620 625 0
-49 -618 625 0
-49 -625 620 618 0
-50 -620 625 0
-50 -619 625 0
-50 -625 620 619 0
-55 -625 620 0
-55 625 -620 0
626 0
-1 -631 626 0
-1 -631 627 0
-1 631 -626 -627 0
-2 -631 626 0
-2 -631 628 0
-2 631 -626 -628 0
-3 -631 626 0
-3 -631 629 0
-3 631 -626 -629 0
-4 -631 626 0
-4 -631 630 0
-4 631 -626 -630 0
-5 -631 626 0
-5 631 -626 0
-6 -631 626 0
-6 631 -626 0
-7 -631 626 0
-7 631 -626 0
-8 -631 626 0
-8 631 -626 0
-9 -631 626 0
-9 631 -626 0
-10 -631 626 0
-10 631 -626 0
-51 -631 626 0
-51 631 -626 0
627 0
-1 -627 632 0
-1 -626 632 0
-1 -632 627 626 0
-2 -632 627 0
-2 632 -627 0
-3 -632 627 0
-3 632 -627 0
-4 -632 627 0
-4 632 -627 0
-5 -632 627 0
-5 -632 628 0
-5 632 -627 -628 0
-6 -632 627 0
-6 -632 629 0
-6 632 -627 -629 0
-7 -632 627 0
-7 -632 630 0
-7 632 -627 -630 0
-8 -632 627 0
-8 632 -627 0
-9 -632 627 0
-9 632 -627 0
-10 -632 627 0
-10 632 -627 0
-51 -632 627 0
-51 632 -627 0
-628 0
-1 -633 628 0
-1 633 -628 0
-2 -628 633 0
-2 -626 633 0
-2 -633 628 626 0
-3 -633 628 0
-3 633 -628 0
-4 -633 628 0
-4 633 -628 0
-5 -628 633 0
-5 -627 633 0
-5 -633 628 627 0
-6 -633 628 0
-6 633 -628 0
-7 -633 628 0
-7 633 -628 0
-8 -633 628 0
-8 -633 629 0
-8 633 -628 -629 0
-9 -633 628 0
-9 -633 630 0
-9 633 -628 -630 0
-10 -633 628 0
-10 633 -628 0
-51 -633 628 0
-51 633 -628 0
-629 0
-1 -634 629 0
-1 634 -629 0
-2 -634 629 0
-2 634 -629 0
-3 -629 634 0
-3 -626 634 0
-3 -634 629 626 0
-4 -634 629 0
-4 634 -629 0
-5 -634 629 0
-5 634 -629 0
-6 -629 634 0
-6 -627 634 0
-6 -634 629 627 0
-7 -634 629 0
-7 634 -629 0
-8 -629 634 0
-8 -628 634 0
-8 -634 629 628 0
-9 -634 629 0
-9 634 -629 0
-10 -634 629 0
-10 -634 630 0
-10 634 -629 -630 0
-51 -634 629 0
-51 634 -629 0
-630 0
-1 -635 630 0
-1 635 -630 0
-2 -635 630 0
-2 635 -630 0
-3 -635 630 0
-3 635 -630 0
-4 -630 635 0
-4 -626 635 0
-4 -635 630 626 0
-5 -635 630 0
-5 635 -630 0
-6 -635 630 0
-6 635 -630 0
-7 -630 635 0
-7 -627 635 0
-7 -635 630 627 0
-8 -635 630 0
-8 635 -630 0
-9 -630 635 0
-9 -628 635 0
-9 -635 630 628 0
-10 -630 635 0
-10 -629 635 0
-10 -635 630 629 0
-51 -635 630 0
-51 635 -630 0
-11 -636 631 0
-11 -636 632 0
-11 636 -631 -632 0
-12 -636 631 0
-12 -636 633 0
-12 636 -631 -633 0
-13 -636 631 0
-13 -636 634 0
-13 636 -631 -634 0
-14 -636 631 0
-14 -636 635 0
-14 636 -631 -635 0
-15 -636 631 0
-15 636 -631 0
-16 -636 631 0
-16 636 -631 0
-17 -636 631 0
-17 636 -631 0
-18 -636 631 0
-18 636 -631 0
-19 -636 631 0
-19 636 -631 0
-20 -636 631 0
-20 636 -631 0
-52 -636 631 0
-52 636 -631 0
-11 -632 637 0
-11 -631 637 0
-11 -637 632 631 0
-12 -637 632 0
-12 637 -632 0
-13 -637 632 0
-13 637 -632 0
-14 -637 632 0
-14 637 -632 0
-15 -637 632 0
-15 -637 633 0
-15 637 -632 -633 0
-16 -637 632 0
-16 -637 634 0
-16 637 -632 -634 0
-17 -637 632 0
-17 -637 635 0
-17 637 -632 -635 0
-18 -637 632 0
-18 637 -632 0
-19 -637 632 0
-19 637 -632 0
-20 -637 632 0
-20 637 -632 0
-52 -637 632 0
-52 637 -632 0
-11 -638 633 0
-11 638 -633 0
-12 -633 638 0
-12 -631 638 0
-12 -638 633 631 0
-13 -638 633 0
-13 638 -633 0
-14 -638 633 0
-14 638 -633 0
-15 -633 638 0
-15 -632 638 0
-15 -638 633 632 0
-16 -638 633 0
-16 638 -633 0
-17 -638 633 0
-17 638 -633 0
-18 -638 633 0
-18 -638 634 0
-18 638 -633 -634 0
-19 -638 633 0
-19 -638 635 0
-19 638 -633 -635 0
-20 -638 633 0
-20 638 -633 0
-52 -638 633 0
-52 638 -633 0
-11 -639 634 0
-11 639 -634 0
-12 -639 634 0
-12 639 -634 0
-13 -634 639 0
-13 -631 639 0
-13 -639 634 631 0
-14 -639 634 0
-14 639 -634 0
-15 -639 634 0
-15 639 -634 0
-16 -634 639 0
-16 -632 639 0
-16 -639 634 632 0
-17 -639 634 0
-17 639 -634 0
-18 -634 639 0
-18 -633 639 0
-18 -639 634 633 0
-19 -639 634 0
-19 639 -634 0
-20 -639 634 0
-20 -639 635 0
-20 639 -634 -635 0
-52 -639 634 0
-52 639 -634 0
-11 -640 635 0
-11 640 -635 0
-12 -640 635 0
-12 640 -635 0
-13 -640 635 0
-13 640 -635 0
-14 -635 640 0
-14 -631 640 0
-14 -640 635 631 0
-15 -640 635 0
-15 640 -635 0
-16 -640 635 0
-16 640 -635 0
-17 -635 640 0
-17 -632 640 0
-17 -640 635 632 0
-18 -640 635 0
-18 640 -635 0
-19 -635 640 0
-19 -633 640 0
-19 -640 635 633 0
-20 -635 640 0
-20 -634 640 0
-20 -640 635 634 0
-52 -640 635 0
-52 640 -635 0
-21 -641 636 0
-21 -641 637 0
-21 641 -636 -637 0
-22 -641 636 0
-22 -641 638 0
-22 641 -636 -638 0
-23 -641 636 0
-23 -641 639 0
-23 641 -636 -639 0
-24 -641 636 0
-24 -641 640 0
-24 641 -636 -640 0
-25 -641 636 0
-25 641 -636 0
-26 -641 636 0
-26 641 -636 0
-27 -641 636 0
-27 641 -636 0
-28 -641 636 0
-28 641 -636 0
-29 -641 636 0
-29 641 -636 0
-30 -641 636 0
-30 641 -636 0
-53 -641 636 0
-53 641 -636 0
-21 -637 642 0
-21 -636 642 0
-21 -642 637 636 0
-22 -642 637 0
-22 642 -637 0
-23 -642 637 0
-23 642 -637 0
-24 -642 637 0
-24 642 -637 0
-25 -642 637 0
-25 -642 638 0
-25 642 -637 -638 0
-26 -642 637 0
-26 -642 639 0
-26 642 -637 -639 0
-27 -642 637 0
-27 -642 640 0
-27 642 -637 -640 0
-28 -642 637 0
-28 642 -637 0
-29 -642 637 0
-29 642 -637 0
-30 -642 637 0
-30 642 -637 0
-53 -642 637 0
-53 642 -637 0
-21 -643 638 0
-21 643 -638 0
-22 -638 643 0
-22 -636 643 0
-22 -643 638 636 0
-23 -643 638 0
-23 643 -638 0
-24 -643 638 0
-24 643 -638 0
-25 -638 643 0
-25 -637 643 0
-25 -643 638 637 0
-26 -643 638 0
-26 643 -638 0
-27 -643 638 0
-27 643 -638 0
-28 -643 638 0
-28 -643 639 0
-28 643 -638 -639 0
-29 -643 638 0
-29 -643 640 0
-29 643 -638 -640 0
-30 -643 638 0
-30 643 -638 0
-53 -643 638 0
-53 643 -638 0
-21 -644 639 0
-21 644 -639 0
-22 -644 639 0
-22 644 -639 0
-23 -639 644 0
-23 -636 644 0
-23 -644 639 636 0
-24 -644 639 0
-24 644 -639 0
-25 -644 639 0
-25 644 -639 0
-26 -639 644 0
-26 -637 644 0
-26 -644 639 637 0
-27 -644 639 0
-27 644 -639 0
-28 -639 644 0
-28 -638 644 0
-28 -644 639 638 0
-29 -644 639 0
-29 644 -639 0
-30 -644 639 0
-30 -644 640 0
-30 644 -639 -640 0
-53 -644 639 0
-53 644 -639 0
-21 -645 640 0
-21 645 -640 0
-22 -645 640 0
-22 645 -640 0
-23 -645 640 0
-23 645 -640 0
-24 -640 645 0
-24 -636 645 0
-24 -645 640 636 0
-25 -645 640 0
-25 645 -640 0
-26 -645 640 0
-26 645 -640 0
-27 -640 645 0
-27 -637 645 0
-27 -645 640 637 0
-28 -645 640 0
-28 645 -640 0
-29 -640 645 0
-29 -638 645 0
-29 -645 640 638 0
-30 -640 645 0
-30 -639 645 0
-30 -645 640 639 0
-53 -645 640 0
-53 645 -640 0
-31 -646 641 0
-31 -646 642 0
-31 646 -641 -642 0
-32 -646 641 0
-32 -646 643 0
-32 646 -641 -643 0
-33 -646 641 0
-33 -646 644 0
-33 646 -641 -644 0
-34 -646 641 0
-34 -646 645 0
-34 646 -641 -645 0
-35 -646 641 0
-35 646 -641 0
-36 -646 641 0
-36 646 -641 0
-37 -646 641 0
-37 646 -641 0
-38 -646 641 0
-38 646 -641 0
-39 -646 641 0
-39 646 -641 0
-40 -646 641 0
-40 646 -641 0
-54 -646 641 0
-54 646 -641 0
-31 -642 647 0
-31 -641 647 0
-31 -647 642 641 0
-32 -647 642 0
-32 647 -642 0
-33 -647 642 0
-33 647 -642 0
-34 -647 642 0
-34 647 -642 0
-35 -647 642 0
-35 -647 643 0
-35 647 -642 -643 0
-36 -647 642 0
-36 -647 644 0
-36 647 -642 -644 0
-37 -647 642 0
-37 -647 645 0
-37 647 -642 -645 0
-38 -647 642 0
-38 647 -642 0
-39 -647 642 0
-39 647 -642 0
-40 -647 642 0
-40 647 -642 0
-54 -647 642 0
-54 647 -642 0
-31 -648 643 0
-31 648 -643 0
-32 -643 648 0
-32 -641 648 0
-32 -648 643 641 0
-33 -648 643 0
-33 648 -643 0
-34 -648 643 0
-34 648 -643 0
-35 -643 648 0
-35 -642 648 0
-35 -648 643 642 0
-36 -648 643 0
-36 648 -643 0
-37 -648 643 0
-37 648 -643 0
-38 -648 643 0
-38 -648 644 0
-38 648 -643 -644 0
-39 -648 643 0
-39 -648 645 0
-39 648 -643 -645 0
-40 -648 643 0
-40 648 -643 0
-54 -648 643 0
-54 648 -643 0
-31 -649 644 0
-31 649 -644 0
-32 -649 644 0
-32 649 -644 0
-33 -644 649 0
-33 -641 649 0
-33 -649 644 641 0
-34 -649 644 0
-34 649 -644 0
-35 -649 644 0
-35 649 -644 0
-36 -644 649 0
-36 -642 649 0
-36 -649 644 642 0
-37 -649 644 0
-37 649 -644 0
-38 -644 649 0
-38 -643 649 0
-38 -649 644 643 0
-39 -649 644 0
-39 649 -644 0
-40 -649 644 0
-40 -649 645 0
-40 649 -644 -645 0
-54 -649 644 0
-54 649 -644 0
-31 -650 645 0
-31 650 -645 0
-32 -650 645 0
-32 650 -645 0
-33 -650 645 0
-33 650 -645 0
-34 -645 650 0
-34 -641 650 0
-34 -650 645 641 0
-35 -650 645 0
-35 650 -645 0
-36 -650 645 0
-36 650 -645 0
-37 -645 650 0
-37 -642 650 0
-37 -650 645 642 0
-38 -650 645 0
-38 650 -645 0
-39 -645 650 0
-39 -643 650 0
-39 -650 645 643 0
-40 -645 650 0
-40 -644 650 0
-40 -650 645 644 0
-54 -650 645 0
-54 650 -645 0
-41 -651 646 0
-41 -651 647 0
-41 651 -646 -647 0
-42 -651 646 0
-42 -651 648 0
-42 651 -646 -648 0
-43 -651 646 0
-43 -651 649 0
-43 651 -646 -649 0
-44 -651 646 0
-44 -651 650 0
-44 651 -646 -650 0
-45 -651 646 0
-45 651 -646 0
-46 -651 646 0
-46 651 -646 0
-47 -651 646 0
-47 651 -646 0
-48 -651 646 0
-48 651 -646 0
-49 -651 646 0
-49 651 -646 0
-50 -651 646 0
-50 651 -646 0
-55 -651 646 0
-55 651 -646 0
-41 -647 652 0
-41 -646 652 0
-41 -652 647 646 0
-42 -652 647 0
-42 652 -647 0
-43 -652 647 0
-43 652 -647 0
-44 -652 647 0
-44 652 -647 0
-45 -652 647 0
-45 -652 648 0
-45 652 -647 -648 0
-46 -652 647 0
-46 -652 649 0
-46 652 -647 -649 0
-47 -652 647 0
-47 -652 650 0
-47 652 -647 -650 0
-48 -652 647 0
-48 652 -647 0
-49 -652 647 0
-49 652 -647 0
-50 -652 647 0
-50 652 -647 0
-55 -652 647 0
-55 652 -647 0
-41 -653 648 0
-41 653 -648 0
-42 -648 653 0
-42 -646 653 0
-42 -653 648 646 0
-43 -653 648 0
-43 653 -648 0
-44 -653 648 0
-44 653 -648 0
-45 -648 653 0
-45 -647 653 0
-45 -653 648 647 0
-46 -653 648 0
-46 653 -648 0
-47 -653 648 0
-47 653 -648 0
-48 -653 648 0
-48 -653 649 0
-48 653 -648 -649 0
-49 -653 648 0
-49 -653 650 0
-49 653 -648 -650 0
-50 -653 648 0
-50 653 -648 0
-55 -653 648 0
-55 653 -648 0
-41 -654 649 0
-41 654 -649 0
-42 -654 649 0
-42 654 -649 0
-43 -649 654 0
-43 -646 654 0
-43 -654 649 646 0
-44 -654 649 0
-44 654 -649 0
-45 -654 649 0
-45 654 -649 0
-46 -649 654 0
-46 -647 654 0
-46 -654 649 647 0
-47 -654 649 0
-47 654 -649 0
-48 -649 654 0
-48 -648 654 0
-48 -654 649 648 0
-49 -654 649 0
-49 654 -649 0
-50 -654 649 0
-50 -654 650 0
-50 654 -649 -650 0
-55 -654 649 0
-55 654 -649 0
-41 -655 650 0
-41 655 -650 0
-42 -655 650 0
-42 655 -650 0
-43 -655 650 0
-43 655 -650 0
-44 -650 655 0
-44 -646 655 0
-44 -655 650 646 0
-45 -655 650 0
-45 655 -650 0
-46 -655 650 0
-46 655 -650 0
-47 -650 655 0
-47 -647 655 0
-47 -655 650 647 0
-48 -655 650 0
-48 655 -650 0
-49 -650 655 0
-49 -648 655 0
-49 -655 650 648 0
-50 -650 655 0
-50 -649 655 0
-50 -655 650 649 0
-55 -655 650 0
-55 655 -650 0
656 0
-1 -661 656 0
-1 -661 657 0
-1 661 -656 -657 0
-2 -661 656 0
-2 -661 658 0
-2 661 -656 -658 0
-3 -661 656 0
-3 -661 659 0
-3 661 -656 -659 0
-4 -661 656 0
-4 -661 660 0
-4 661 -656 -660 0
-5 -661 656 0
-5 661 -656 0
-6 -661 656 0
-6 661 -656 0
-7 -661 656 0
-7 661 -656 0
-8 -661 656 0
-8 661 -656 0
-9 -661 656 0
-9 661 -656 0
-10 -661 656 0
-10 661 -656 0
-51 -661 656 0
-51 661 -656 0
657 0
-1 -657 662 0
-1 -656 662 0
-1 -662 657 656 0
-2 -662 657 0
-2 662 -657 0
-3 -662 657 0
-3 662 -657 0
-4 -662 657 0
-4 662 -657 0
-5 -662 657 0
-5 -662 658 0
-5 662 -657 -658 0
-6 -662 657 0
-6 -662 659 0
-6 662 -657 -659 0
-7 -662 657 0
-7 -662 660 0
-7 662 -657 -660 0
-8 -662 657 0
-8 662 -657 0
-9 -662 657 0
-9 662 -657 0
-10 -662 657 0
-10 662 -657 0
-51 -662 657 0
-51 662 -657 0
-658 0
-1 -663 658 0
-1 663 -658 0
-2 -658 663 0
-2 -656 663 0
-2 -663 658 656 0
-3 -663 658 0
-3 663 -658 0
-4 -663 658 0
-4 663 -658 0
-5 -658 663 0
-5 -657 663 0
-5 -663 658 657 0
-6 -663 658 0
-6 663 -658 0
-7 -663 658 0
-7 663 -658 0
-8 -663 658 0
-8 -663 659 0
-8 663 -658 -659 0
-9 -663 658 0
-9 -663 660 0
-9 663 -658 -660 0
-10 -663 658 0
-10 663 -658 0
-51 -663 658 0
-51 663 -658 0
-659 0
-1 -664 659 0
-1 664 -659 0
-2 -664 659 0
-2 664 -659 0
-3 -659 664 0
-3 -656 664 0
-3 -664 659 656 0
-4 -664 659 0
-4 664 -659 0
-5 -664 659 0
-5 664 -659 0
-6 -659 664 0
-6 -657 664 0
-6 -664 659 657 0
-7 -664 659 0
-7 664 -659 0
-8 -659 664 0
-8 -658 664 0
-8 -664 659 658 0
-9 -664 659 0
-9 664 -659 0
-10 -664 659 0
-10 -664 660 0
-10 664 -659 -660 0
-51 -664 659 0
-51 664 -659 0
660 0
-1 -665 660 0
-1 665 -660 0
-2 -665 660 0
-2 665 -660 0
-3 -665 660 0
-3 665 -660 0
-4 -660 665 0
-4 -656 665 0
-4 -665 660 656 0
-5 -665 660 0
-5 665 -660 0
-6 -665 660 0
-6 665 -660 0
-7 -660 665 0
-7 -657 665 0
-7 -665 660 657 0
-8 -665 660 0
-8 665 -660 0
-9 -660 665 0
-9 -658 665 0
-9 -665 660 658 0
-10 -660 665 0
-10 -659 665 0
-10 -665 660 659 0
-51 -665 660 0
-51 665 -660 0
-11 -666 661 0
-11 -666 662 0
-11 666 -661 -662 0
-12 -666 661 0
-12 -666 663 0
-12 666 -661 -663 0
-13 -666 661 0
-13 -666 664 0
-13 666 -661 -664 0
-14 -666 661 0
-14 -666 665 0
-14 666 -661 -665 0
-15 -666 661 0
-15 666 -661 0
-16 -666 661 0
-16 666 -661 0
-17 -666 661 0
-17 666 -661 0
-18 -666 661 0
-18 666 -661 0
-19 -666 661 0
-19 666 -661 0
-20 -666 661 0
-20 666 -661 0
-52 -666 661 0
-52 666 -661 0
-11 -662 667 0
-11 -661 667 0
-11 -667 662 661 0
-12 -667 662 0
-12 667 -662 0
-13 -667 662 0
-13 667 -662 0
-14 -667 662 0
-14 667 -662 0
-15 -667 662 0
-15 -667 663 0
-15 667 -662 -663 0
-16 -667 662 0
-16 -667 664 0
-16 667 -662 -664 0
-17 -667 662 0
-17 -667 665 0
-17 667 -662 -665 0
-18 -667 662 0
-18 667 -662 0
-19 -667 662 0
-19 667 -662 0
-20 -667 662 0
-20 667 -662 0
-52 -667 662 0
-52 667 -662 0
-11 -668 663 0
-11 668 -663 0
-12 -663 668 0
-12 -661 668 0
-12 -668 663 661 0
-13 -668 663 0
-13 668 -663 0
-14 -668 663 0
-14 668 -663 0
-15 -663 668 0
-15 -662 668 0
-15 -668 663 662 0
-16 -668 663 0
-16 668 -663 0
-17 -668 663 0
-17 668 -663 0
-18 -668 663 0
-18 -668 664 0
-18 668 -663 -664 0
-19 -668 663 0
-19 -668 665 0
-19 668 -663 -665 0
-20 -668 663 0
-20 668 -663 0
-52 -668 663 0
-52 668 -663 0
-11 -669 664 0
-11 669 -664 0
-12 -669 664 0
-12 669 -664 0
-13 -664 669 0
-13 -661 669 0
-13 -669 664 661 0
-14 -669 664 0
-14 669 -664 0
-15 -669 664 0
-15 669 -664 0
-16 -664 669 0
-16 -662 669 0
-16 -669 664 662 0
-17 -669 664 0
-17 669 -664 0
-18 -664 669 0
-18 -663 669 0
-18 -669 664 663 0
-19 -669 664 0
-19 669 -664 0
-20 -669 664 0
-20 -669 665 0
-20 669 -664 -665 0
-52 -669 664 0
-52 669 -664 0
-11 -670 665 0
-11 670 -665 0
-12 -670 665 0
-12 670 -665 0
-13 -670 665 0
-13 670 -665 0
-14 -665 670 0
-14 -661 670 0
-14 -670 665 661 0
-15 -670 665 0
-15 670 -665 0
-16 -670 665 0
-16 670 -665 0
-17 -665 670 0
-17 -662 670 0
-17 -670 665 662 0
-18 -670 665 0
-18 670 -665 0
-19 -665 670 0
-19 -663 670 0
-19 -670 665 663 0
-20 -665 670 0
-20 -664 670 0
-20 -670 665 664 0
-52 -670 665 0
-52 670 -665 0
-21 -671 666 0
-21 -671 667 0
-21 671 -666 -667 0
-22 -671 666 0
-22 -671 668 0
-22 671 -666 -668 0
-23 -671 666 0
-23 -671 669 0
-23 671 -666 -669 0
-24 -671 666 0
-24 -671 670 0
-24 671 -666 -670 0
-25 -671 666 0
-25 671 -666 0
-26 -671 666 0
-26 671 -666 0
-27 -671 666 0
-27 671 -666 0
-28 -671 666 0
-28 671 -666 0
-29 -671 666 0
-29 671 -666 0
-30 -671 666 0
-30 671 -666 0
-53 -671 666 0
-53 671 -666 0
-21 -667 672 0
-21 -666 672 0
-21 -672 667 666 0
-22 -672 667 0
-22 672 -667 0
-23 -672 667 0
-23 672 -667 0
-24 -672 667 0
-24 672 -667 0
-25 -672 667 0
-25 -672 668 0
-25 672 -667 -668 0
-26 -672 667 0
-26 -672 669 0
-26 672 -667 -669 0
-27 -672 667 0
-27 -672 670 0
-27 672 -667 -670 0
-28 -672 667 0
-28 672 -667 0
-29 -672 667 0
-29 672 -667 0
-30 -672 667 0
-30 672 -667 0
-53 -672 667 0
-53 672 -667 0
-21 -673 668 0
-21 673 -668 0
-22 -668 673 0
-22 -666 673 0
-22 -673 668 666 0
-23 -673 668 0
-23 673 -668 0
-24 -673 668 0
-24 673 -668 0
-25 -668 673 0
-25 -667 673 0
-25 -673 668 667 0
-26 -673 668 0
-26 673 -668 0
-27 -673 668 0
-27 673 -668 0
-28 -673 668 0
-28 -673 669 0
-28 673 -668 -669 0
-29 -673 668 0
-29 -673 670 0
-29 673 -668 -670 0
-30 -673 668 0
-30 673 -668 0
-53 -673 668 0
-53 673 -668 0
-21 -674 669 0
-21 674 -669 0
-22 -674 669 0
-22 674 -669 0
-23 -669 674 0
-23 -666 674 0
-23 -674 669 666 0
-24 -674 669 0
-24 674 -669 0
-25 -674 669 0
-25 674 -669 0
-26 -669 674 0
-26 -667 674 0
-26 -674 669 667 0
-27 -674 669 0
-27 674 -669 0
-28 -669 674 0
-28 -668 674 0
-28 -674 669 668 0
-29 -674 669 0
-29 674 -669 0
-30 -674 669 0
-30 -674 670 0
-30 674 -669 -670 0
-53 -674 669 0
-53 674 -669 0
-21 -675 670 0
-21 675 -670 0
-22 -675 670 0
-22 675 -670 0
-23 -675 670 0
-23 675 -670 0
-24 -670 675 0
-24 -666 675 0
-24 -675 670 666 0
-25 -675 670 0
-25 675 -670 0
-26 -675 670 0
-26 675 -670 0
-27 -670 675 0
-27 -667 675 0
-27 -675 670 667 0
-28 -675 670 0
-28 675 -670 0
-29 -670 675 0
-29 -668 675 0
-29 -675 670 668 0
-30 -670 675 0
-30 -669 675 0
-30 -675 670 669 0
-53 -675 670 0
-53 675 -670 0
-31 -676 671 0
-31 -676 672 0
-31 676 -671 -672 0
-32 -676 671 0
-32 -676 673 0
-32 676 -671 -673 0
-33 -676 671 0
-33 -676 674 0
-33 676 -671 -674 0
-34 -676 671 0
-34 -676 675 0
-34 676 -671 -675 0
-35 -676 671 0
-35 676 -671 0
-36 -676 671 0
-36 676 -671 0
-37 -676 671 0
-37 676 -671 0
-38 -676 671 0
-38 676 -671 0
-39 -676 671 0
-39 676 -671 0
-40 -676 671 0
-40 676 -671 0
-54 -676 671 0
-54 676 -671 0
-31 -672 677 0
-31 -671 677 0
-31 -677 672 671 0
-32 -677 672 0
-32 677 -672 0
-33 -677 672 0
-33 677 -672 0
-34 -677 672 0
-34 677 -672 0
-35 -677 672 0
-35 -677 673 0
-35 677 -672 -673 0
-36 -677 672 0
-36 -677 674 0
-36 677 -672 -674 0
-37 -677 672 0
-37 -677 675 0
-37 677 -672 -675 0
-38 -677 672 0
-38 677 -672 0
-39 -677 672 0
-39 677 -672 0
-40 -677 672 0
-40 677 -672 0
-54 -677 672 0
-54 677 -672 0
-31 -678 673 0
-31 678 -673 0
-32 -673 678 0
-32 -671 678 0
-32 -678 673 671 0
-33 -678 673 0
-33 678 -673 0
-34 -678 673 0
-34 678 -673 0
-35 -673 678 0
-35 -672 678 0
-35 -678 673 672 0
-36 -678 673 0
-36 678 -673 0
-37 -678 673 0
-37 678 -673 0
-38 -678 673 0
-38 -678 674 0
-38 678 -673 -674 0
-39 -678 673 0
-39 -678 675 0
-39 678 -673 -675 0
-40 -678 673 0
-40 678 -673 0
-54 -678 673 0
-54 678 -673 0
-31 -679 674 0
-31 679 -674 0
-32 -679 674 0
-32 679 -674 0
-33 -674 679 0
-33 -671 679 0
-33 -679 674 671 0
-34 -679 674 0
-34 679 -674 0
-35 -679 674 0
-35 679 -674 0
-36 -674 679 0
-36 -672 679 0
-36 -679 674 672 0
-37 -679 674 0
-37 679 -674 0
-38 -674 679 0
-38 -673 679 0
-38 -679 674 673 0
-39 -679 674 0
-39 679 -674 0
-40 -679 674 0
-40 -679 675 0
-40 679 -674 -675 0
-54 -679 674 0
-54 679 -674 0
-31 -680 675 0
-31 680 -675 0
-32 -680 675 0
-32 680 -675 0
-33 -680 675 0
-33 680 -675 0
-34 -675 680 0
-34 -671 680 0
-34 -680 675 671 0
-35 -680 675 0
-35 680 -675 0
-36 -680 675 0
-36 680 -675 0
-37 -675 680 0
-37 -672 680 0
-37 -680 675 672 0
-38 -680 675 0
-38 680 -675 0
-39 -675 680 0
-39 -673 680 0
-39 -680 675 673 0
-40 -675 680 0
-40 -674 680 0
-40 -680 675 674 0
-54 -680 675 0
-54 680 -675 0
-41 -681 676 0
-41 -681 677 0
-41 681 -676 -677 0
-42 -681 676 0
-42 -681 678 0
-42 681 -676 -678 0
-43 -681 676 0
-43 -681 679 0
-43 681 -676 -679 0
-44 -681 676 0
-44 -681 680 0
-44 681 -676 -680 0
-45 -681 676 0
-45 681 -676 0
-46 -681 676 0
-46 681 -676 0
-47 -681 676 0
-47 681 -676 0
-48 -681 676 0
-48 681 -676 0
-49 -681 676 0
-49 681 -676 0
-50 -681 676 0
-50 681 -676 0
-55 -681 676 0
-55 681 -676 0
-41 -677 682 0
-41 -676 682 0
-41 -682 677 676 0
-42 -682 677 0
-42 682 -677 0
-43 -682 677 0
-43 682 -677 0
-44 -682 677 0
-44 682 -677 0
-45 -682 677 0
-45 -682 678 0
-45 682 -677 -678 0
-46 -682 677 0
-46 -682 679 0
-46 682 -677 -679 0
-47 -682 677 0
-47 -682 680 0
-47 682 -677 -680 0
-48 -682 677 0
-48 682 -677 0
-49 -682 677 0
-49 682 -677 0
-50 -682 677 0
-50 682 -677 0
-55 -682 677 0
-55 682 -677 0
-41 -683 678 0
-41 683 -678 0
-42 -678 683 0
-42 -676 683 0
-42 -683 678 676 0
-43 -683 678 0
-43 683 -678 0
-44 -683 678 0
-44 683 -678 0
-45 -678 683 0
-45 -677 683 0
-45 -683 678 677 0
-46 -683 678 0
-46 683 -678 0
-47 -683 678 0
-47 683 -678 0
-48 -683 678 0
-48 -683 679 0
-48 683 -678 -679 0
-49 -683 678 0
-49 -683 680 0
-49 683 -678 -680 0
-50 -683 678 0
-50 683 -678 0
-55 -683 678 0
-55 683 -678 0
-41 -684 679 0
-41 684 -679 0
-42 -684 679 0
-42 684 -679 0
-43 -679 684 0
-43 -676 684 0
-43 -684 679 676 0
-44 -684 679 0
-44 684 -679 0
-45 -684 679 0
-45 684 -679 0
-46 -679 684 0
-46 -677 684 0
-46 -684 679 677 0
-47 -684 679 0
-47 684 -679 0
-48 -679 684 0
-48 -678 684 0
-48 -684 679 678 0
-49 -684 679 0
-49 684 -679 0
-50 -684 679 0
-50 -684 680 0
-50 684 -679 -680 0
-55 -684 679 0
-55 684 -679 0
-41 -685 680 0
-41 685 -680 0
-42 -685 680 0
-42 685 -680 0
-43 -685 680 0
-43 685 -680 0
-44 -680 685 0
-44 -676 685 0
-44 -685 680 676 0
-45 -685 680 0
-45 685 -680 0
-46 -685 680 0
-46 685 -680 0
-47 -680 685 0
-47 -677 685 0
-47 -685 680 677 0
-48 -685 680 0
-48 685 -680 0
-49 -680 685 0
-49 -678 685 0
-49 -685 680 678 0
-50 -680 685 0
-50 -679 685 0
-50 -685 680 679 0
-55 -685 680 0
-55 685 -680 0
686 0
-1 -691 686 0
-1 -691 687 0
-1 691 -686 -687 0
-2 -691 686 0
-2 -691 688 0
-2 691 -686 -688 0
-3 -691 686 0
-3 -691 689 0
-3 691 -686 -689 0
-4 -691 686 0
-4 -691 690 0
-4 691 -686 -690 0
-5 -691 686 0
-5 691 -686 0
-6 -691 686 0
-6 691 -686 0
-7 -691 686 0
-7 691 -686 0
-8 -691 686 0
-8 691 -686 0
-9 -691 686 0
-9 691 -686 0
-10 -691 686 0
-10 691 -686 0
-51 -691 686 0
-51 691 -686 0
687 0
-1 -687 692 0
-1 -686 692 0
-1 -692 687 686 0
-2 -692 687 0
-2 692 -687 0
-3 -692 687 0
-3 692 -687 0
-4 -692 687 0
-4 692 -687 0
-5 -692 687 0
-5 -692 688 0
-5 692 -687 -688 0
-6 -692 687 0
-6 -692 689 0
-6 692 -687 -689 0
-7 -692 687 0
-7 -692 690 0
-7 692 -687 -690 0
-8 -692 687 0
-8 692 -687 0
-9 -692 687 0
-9 692 -687 0
-10 -692 687 0
-10 692 -687 0
-51 -692 687 0
-51 692 -687 0
-688 0
-1 -693 688 0
-1 693 -688 0
-2 -688 693 0
-2 -686 693 0
-2 -693 688 686 0
-3 -693 688 0
-3 693 -688 0
-4 -693 688 0
-4 693 -688 0
-5 -688 693 0
-5 -687 693 0
-5 -693 688 687 0
-6 -693 688 0
-6 693 -688 0
-7 -693 688 0
-7 693 -688 0
-8 -693 688 0
-8 -693 689 0
-8 693 -688 -689 0
-9 -693 688 0
-9 -693 690 0
-9 693 -688 -690 0
-10 -693 688 0
-10 693 -688 0
-51 -693 688 0
-51 693 -688 0
689 0
-1 -694 689 0
-1 694 -689 0
-2 -694 689 0
-2 694 -689 0
-3 -689 694 0
-3 -686 694 0
-3 -694 689 686 0
-4 -694 689 0
-4 694 -689 0
-5 -694 689 0
-5 694 -689 0
-6 -689 694 0
-6 -687 694 0
-6 -694 689 687 0
-7 -694 689 0
-7 694 -689 0
-8 -689 694 0
-8 -688 694 0
-8 -694 689 688 0
-9 -694 689 0
-9 694 -689 0
-10 -694 689 0
-10 -694 690 0
-10 694 -689 -690 0
-51 -694 689 0
-51 694 -689 0
-690 0
-1 -695 690 0
-1 695 -690 0
-2 -695 690 0
-2 695 -690 0
-3 -695 690 0
-3 695 -690 0
-4 -690 695 0
-4 -686 695 0
-4 -695 690 686 0
-5 -695 690 0
-5 695 -690 0
-6 -695 690 0
-6 695 -690 0
-7 -690 695 0
-7 -687 695 0
-7 -695 690 687 0
-8 -695 690 0
-8 695 -690 0
-9 -690 695 0
-9 -688 695 0
-9 -695 690 688 0
-10 -690 695 0
-10 -689 695 0
-10 -695 690 689 0
-51 -695 690 0
-51 695 -690 0
-11 -696 691 0
-11 -696 692 0
-11 696 -691 -692 0
-12 -696 691 0
-12 -696 693 0
-12 696 -691 -693 0
-13 -696 691 0
-13 -696 694 0
-13 696 -691 -694 0
-14 -696 691 0
-14 -696 695 0
-14 696 -691 -695 0
-15 -696 691 0
-15 696 -691 0
-16 -696 691 0
-16 696 -691 0
-17 -696 691 0
-17 696 -691 0
-18 -696 691 0
-18 696 -691 0
-19 -696 691 0
-19 696 -691 0
-20 -696 691 0
-20 696 -691 0
-52 -696 691 0
-52 696 -691 0
-11 -692 697 0
-11 -691 697 0
-11 -697 692 691 0
-12 -697 692 0
-12 697 -692 0
-13 -697 692 0
-13 697 -692 0
-14 -697 692 0
-14 697 -692 0
-15 -697 692 0
-15 -697 693 0
-15 697 -692 -693 0
-16 -697 692 0
-16 -697 694 0
-16 697 -692 -694 0
-17 -697 692 0
-17 -697 695 0
-17 697 -692 -695 0
-18 -697 692 0
-18 697 -692 0
-19 -697 692 0
-19 697 -692 0
-20 -697 692 0
-20 697 -692 0
-52 -697 692 0
-52 697 -692 0
-11 -698 693 0
-11 698 -693 0
-12 -693 698 0
-12 -691 698 0
-12 -698 693 691 0
-13 -698 693 0
-13 698 -693 0
-14 -698 693 0
-14 698 -693 0
-15 -693 698 0
-15 -692 698 0
-15 -698 693 692 0
-16 -698 693 0
-16 698 -693 0
-17 -698 693 0
-17 698 -693 0
-18 -698 693 0
-18 -698 694 0
-18 698 -693 -694 0
-19 -698 693 0
-19 -698 695 0
-19 698 -693 -695 0
-20 -698 693 0
-20 698 -693 0
-52 -698 693 0
-52 698 -693 0
-11 -699 694 0
-11 699 -694 0
-12 -699 694 0
-12 699 -694 0
-13 -694 699 0
-13 -691 699 0
-13 -699 694 691 0
-14 -699 694 0
-14 699 -694 0
-15 -699 694 0
-15 699 -694 0
-16 -694 699 0
-16 -692 699 0
-16 -699 694 692 0
-17 -699 694 0
-17 699 -694 0
-18 -694 699 0
-18 -693 699 0
-18 -699 694 693 0
-19 -699 694 0
-19 699 -694 0
-20 -699 694 0
-20 -699 695 0
-20 699 -694 -695 0
-52 -699 694 0
-52 699 -694 0
-11 -700 695 0
-11 700 -695 0
-12 -700 695 0
-12 700 -695 0
-13 -700 695 0
-13 700 -695 0
-14 -695 700 0
-14 -691 700 0
-14 -700 695 691 0
-15 -700 695 0
-15 700 -695 0
-16 -700 695 0
-16 700 -695 0
-17 -695 700 0
-17 -692 700 0
-17 -700 695 692 0
-18 -700 695 0
-18 700 -695 0
-19 -695 700 0
-19 -693 700 0
-19 -700 695 693 0
-20 -695 700 0
-20 -694 700 0
-20 -700 695 694 0
-52 -700 695 0
-52 700 -695 0
-21 -701 696 0
-21 -701 697 0
-21 701 -696 -697 0
-22 -701 696 0
-22 -701 698 0
-22 701 -696 -698 0
-23 -701 696 0
-23 -701 699 0
-23 701 -696 -699 0
-24 -701 696 0
-24 -701 700 0
-24 701 -696 -700 0
-25 -701 696 0
-25 701 -696 0
-26 -701 696 0
-26 701 -696 0
-27 -701 696 0
-27 701 -696 0
-28 -701 696 0
-28 701 -696 0
-29 -701 696 0
-29 701 -696 0
-30 -701 696 0
-30 701 -696 0
-53 -701 696 0
-53 701 -696 0
-21 -697 702 0
-21 -696 702 0
-21 -702 697 696 0
-22 -702 697 0
-22 702 -697 0
-23 -702 697 0
-23 702 -697 0
-24 -702 697 0
-24 702 -697 0
-25 -702 697 0
-25 -702 698 0
-25 702 -697 -698 0
-26 -702 697 0
-26 -702 699 0
-26 702 -697 -699 0
-27 -702 697 0
-27 -702 700 0
-27 702 -697 -700 0
-28 -702 697 0
-28 702 -697 0
-29 -702 697 0
-29 702 -697 0
-30 -702 697 0
-30 702 -697 0
-53 -702 697 0
-53 702 -697 0
-21 -703 698 0
-21 703 -698 0
-22 -698 703 0
-22 -696 703 0
-22 -703 698 696 0
-23 -703 698 0
-23 703 -698 0
-24 -703 698 0
-24 703 -698 0
-25 -698 703 0
-25 -697 703 0
-25 -703 698 697 0
-26 -703 698 0
-26 703 -698 0
-27 -703 698 0
-27 703 -698 0
-28 -703 698 0
-28 -703 699 0
-28 703 -698 -699 0
-29 -703 698 0
-29 -703 700 0
-29 703 -698 -700 0
-30 -703 698 0
-30 703 -698 0
-53 -703 698 0
-53 703 -698 0
-21 -704 699 0
-21 704 -699 0
-22 -704 699 0
-22 704 -699 0
-23 -699 704 0
-23 -696 704 0
-23 -704 699 696 0
-24 -704 699 0
-24 704 -699 0
-25 -704 699 0
-25 704 -699 0
-26 -699 704 0
-26 -697 704 0
-26 -704 699 697 0
-27 -704 699 0
-27 704 -699 0
-28 -699 704 0
-28 -698 704 0
-28 -704 699 698 0
-29 -704 699 0
-29 704 -699 0
-30 -704 699 0
-30 -704 700 0
-30 704 -699 -700 0
-53 -704 699 0
-53 704 -699 0
-21 -705 700 0
-21 705 -700 0
-22 -705 700 0
-22 705 -700 0
-23 -705 700 0
-23 705 -700 0
-24 -700 705 0
-24 -696 705 0
-24 -705 700 696 0
-25 -705 700 0
-25 705 -700 0
-26 -705 700 0
-26 705 -700 0
-27 -700 705 0
-27 -697 705 0
-27 -705 700 697 0
-28 -705 700 0
-28 705 -700 0
-29 -700 705 0
-29 -698 705 0
-29 -705 700 698 0
-30 -700 705 0
-30 -699 705 0
-30 -705 700 699 0
-53 -705 700 0
-53 705 -700 0
-31 -706 701 0
-31 -706 702 0
-31 706 -701 -702 0
-32 -706 701 0
-32 -706 703 0
-32 706 -701 -703 0
-33 -706 701 0
-33 -706 704 0
-33 706 -701 -704 0
-34 -706 701 0
-34 -706 705 0
-34 706 -701 -705 0
-35 -706 701 0
-35 706 -701 0
-36 -706 701 0
-36 706 -701 0
-37 -706 701 0
-37 706 -701 0
-38 -706 701 0
-38 706 -701 0
-39 -706 701 0
-39 706 -701 0
-40 -706 701 0
-40 706 -701 0
-54 -706 701 0
-54 706 -701 0
-31 -702 707 0
-31 -701 707 0
-31 -707 702 701 0
-32 -707 702 0
-32 707 -702 0
-33 -707 702 0
-33 707 -702 0
-34 -707 702 0
-34 707 -702 0
-35 -707 702 0
-35 -707 703 0
-35 707 -702 -703 0
-36 -707 702 0
-36 -707 704 0
-36 707 -702 -704 0
-37 -707 702 0
-37 -707 705 0
-37 707 -702 -705 0
-38 -707 702 0
-38 707 -702 0
-39 -707 702 0
-39 707 -702 0
-40 -707 702 0
-40 707 -702 0
-54 -707 702 0
-54 707 -702 0
-31 -708 703 0
-31 708 -703 0
-32 -703 708 0
-32 -701 708 0
-32 -708 703 701 0
-33 -708 703 0
-33 708 -703 0
-34 -708 703 0
-34 708 -703 0
-35 -703 708 0
-35 -702 708 0
-35 -708 703 702 0
-36 -708 703 0
-36 708 -703 0
-37 -708 703 0
-37 708 -703 0
-38 -708 703 0
-38 -708 704 0
-38 708 -703 -704 0
-39 -708 703 0
-39 -708 705 0
-39 708 -703 -705 0
-40 -708 703 0
-40 708 -703 0
-54 -708 703 0
-54 708 -703 0
-31 -709 704 0
-31 709 -704 0
-32 -709 704 0
-32 709 -704 0
-33 -704 709 0
-33 -701 709 0
-33 -709 704 701 0
-34 -709 704 0
-34 709 -704 0
-35 -709 704 0
-35 709 -704 0
-36 -704 709 0
-36 -702 709 0
-36 -709 704 702 0
-37 -709 704 0
-37 709 -704 0
-38 -704 709 0
-38 -703 709 0
-38 -709 704 703 0
-39 -709 704 0
-39 709 -704 0
-40 -709 704 0
-40 -709 705 0
-40 709 -704 -705 0
-54 -709 704 0
-54 709 -704 0
-31 -710 705 0
-31 710 -705 0
-32 -710 705 0
-32 710 -705 0
-33 -710 705 0
-33 710 -705 0
-34 -705 710 0
-34 -701 710 0
-34 -710 705 701 0
-35 -710 705 0
-35 710 -705 0
-36 -710 705 0
-36 710 -705 0
-37 -705 710 0
-37 -702 710 0
-37 -710 705 702 0
-38 -710 705 0
-38 710 -705 0
-39 -705 710 0
-39 -703 710 0
-39 -710 705 703 0
-40 -705 710 0
-40 -704 710 0
-40 -710 705 704 0
-54 -710 705 0
-54 710 -705 0
-41 -711 706 0
-41 -711 707 0
-41 711 -706 -707 0
-42 -711 706 0
-42 -711 708 0
-42 711 -706 -708 0
-43 -711 706 0
-43 -711 709 0
-43 711 -706 -709 0
-44 -711 706 0
-44 -711 710 0
-44 711 -706 -710 0
-45 -711 706 0
-45 711 -706 0
-46 -711 706 0
-46 711 -706 0
-47 -711 706 0
-47 711 -706 0
-48 -711 706 0
-48 711 -706 0
-49 -711 706 0
-49 711 -706 0
-50 -711 706 0
-50 711 -706 0
-55 -711 706 0
-55 711 -706 0
-41 -707 712 0
-41 -706 712 0
-41 -712 707 706 0
-42 -712 707 0
-42 712 -707 0
-43 -712 707 0
-43 712 -707 0
-44 -712 707 0
-44 712 -707 0
-45 -712 707 0
-45 -712 708 0
-45 712 -707 -708 0
-46 -712 707 0
-46 -712 709 0
-46 712 -707 -709 0
-47 -712 707 0
-47 -712 710 0
-47 712 -707 -710 0
-48 -712 707 0
-48 712 -707 0
-49 -712 707 0
-49 712 -707 0
-50 -712 707 0
-50 712 -707 0
-55 -712 707 0
-55 712 -707 0
-41 -713 708 0
-41 713 -708 0
-42 -708 713 0
-42 -706 713 0
-42 -713 708 706 0
-43 -713 708 0
-43 713 -708 0
-44 -713 708 0
-44 713 -708 0
-45 -708 713 0
-45 -707 713 0
-45 -713 708 707 0
-46 -713 708 0
-46 713 -708 0
-47 -713 708 0
-47 713 -708 0
-48 -713 708 0
-48 -713 709 0
-48 713 -708 -709 0
-49 -713 708 0
-49 -713 710 0
-49 713 -708 -710 0
-50 -713 708 0
-50 713 -708 0
-55 -713 708 0
-55 713 -708 0
-41 -714 709 0
-41 714 -709 0
-42 -714 709 0
-42 714 -709 0
-43 -709 714 0
-43 -706 714 0
-43 -714 709 706 0
-44 -714 709 0
-44 714 -709 0
-45 -714 709 0
-45 714 -709 0
-46 -709 714 0
-46 -707 714 0
-46 -714 709 707 0
-47 -714 709 0
-47 714 -709 0
-48 -709 714 0
-48 -708 714 0
-48 -714 709 708 0
-49 -714 709 0
-49 714 -709 0
-50 -714 709 0
-50 -714 710 0
-50 714 -709 -710 0
-55 -714 709 0
-55 714 -709 0
-41 -715 710 0
-41 715 -710 0
-42 -715 710 0
-42 715 -710 0
-43 -715 710 0
-43 715 -710 0
-44 -710 715 0
-44 -706 715 0
-44 -715 710 706 0
-45 -715 710 0
-45 715 -710 0
-46 -715 710 0
-46 715 -710 0
-47 -710 715 0
-47 -707 715 0
-47 -715 710 707 0
-48 -715 710 0
-48 715 -710 0
-49 -710 715 0
-49 -708 715 0
-49 -715 710 708 0
-50 -710 715 0
-50 -709 715 0
-50 -715 710 709 0
-55 -715 710 0
-55 715 -710 0
716 0
-1 -721 716 0
-1 -721 717 0
-1 721 -716 -717 0
-2 -721 716 0
-2 -721 718 0
-2 721 -716 -718 0
-3 -721 716 0
-3 -721 719 0
-3 721 -716 -719 0
-4 -721 716 0
-4 -721 720 0
-4 721 -716 -720 0
-5 -721 716 0
-5 721 -716 0
-6 -721 716 0
-6 721 -716 0
-7 -721 716 0
-7 721 -716 0
-8 -721 716 0
-8 721 -716 0
-9 -721 716 0
-9 721 -716 0
-10 -721 716 0
-10 721 -716 0
-51 -721 716 0
-51 721 -716 0
717 0
-1 -717 722 0
-1 -716 722 0
-1 -722 717 716 0
-2 -722 717 0
-2 722 -717 0
-3 -722 717 0
-3 722 -717 0
-4 -722 717 0
-4 722 -717 0
-5 -722 717 0
-5 -722 718 0
-5 722 -717 -718 0
-6 -722 717 0
-6 -722 719 0
-6 722 -717 -719 0
-7 -722 717 0
-7 -722 720 0
-7 722 -717 -720 0
-8 -722 717 0
-8 722 -717 0
-9 -722 717 0
-9 722 -717 0
-10 -722 717 0
-10 722 -717 0
-51 -722 717 0
-51 722 -717 0
-718 0
-1 -723 718 0
-1 723 -718 0
-2 -718 723 0
-2 -716 723 0
-2 -723 718 716 0
-3 -723 718 0
-3 723 -718 0
-4 -723 718 0
-4 723 -718 0
-5 -718 723 0
-5 -717 723 0
-5 -723 718 717 0
-6 -723 718 0
-6 723 -718 0
-7 -723 718 0
-7 723 -718 0
-8 -723 718 0
-8 -723 719 0
-8 723 -718 -719 0
-9 -723 718 0
-9 -723 720 0
-9 723 -718 -720 0
-10 -723 718 0
-10 723 -718 0
-51 -723 718 0
-51 723 -718 0
719 0
-1 -724 719 0
-1 724 -719 0
-2 -724 719 0
-2 724 -719 0
-3 -719 724 0
-3 -716 724 0
-3 -724 719 716 0
-4 -724 719 0
-4 724 -719 0
-5 -724 719 0
-5 724 -719 0
-6 -719 724 0
-6 -717 724 0
-6 -724 719 717 0
-7 -724 719 0
-7 724 -719 0
-8 -719 724 0
-8 -718 724 0
-8 -724 719 718 0
-9 -724 719 0
-9 724 -719 0
-10 -724 719 0
-10 -724 720 0
-10 724 -719 -720 0
-51 -724 719 0
-51 724 -719 0
720 0
-1 -725 720 0
-1 725 -720 0
-2 -725 720 0
-2 725 -720 0
-3 -725 720 0
-3 725 -720 0
-4 -720 725 0
-4 -716 725 0
-4 -725 720 716 0
-5 -725 720 0
-5 725 -720 0
-6 -725 720 0
-6 725 -720 0
-7 -720 725 0
-7 -717 725 0
-7 -725 720 717 0
-8 -725 720 0
-8 725 -720 0
-9 -720 725 0
-9 -718 725 0
-9 -725 720 718 0
-10 -720 725 0
-10 -719 725 0
-10 -725 720 719 0
-51 -725 720 0
-51 725 -720 0
-11 -726 721 0
-11 -726 722 0
-11 726 -721 -722 0
-12 -726 721 0
-12 -726 723 0
-12 726 -721 -723 0
-13 -726 721 0
-13 -726 724 0
-13 726 -721 -724 0
-14 -726 721 0
-14 -726 725 0
-14 726 -721 -725 0
-15 -726 721 0
-15 726 -721 0
-16 -726 721 0
-16 726 -721 0
-17 -726 721 0
-17 726 -721 0
-18 -726 721 0
-18 726 -721 0
-19 -726 721 0
-19 726 -721 0
-20 -726 721 0
-20 726 -721 0
-52 -726 721 0
-52 726 -721 0
-11 -722 727 0
-11 -721 727 0
-11 -727 722 721 0
-12 -727 722 0
-12 727 -722 0
-13 -727 722 0
-13 727 -722 0
-14 -727 722 0
-14 727 -722 0
-15 -727 722 0
-15 -727 723 0
-15 727 -722 -723 0
-16 -727 722 0
-16 -727 724 0
-16 727 -722 -724 0
-17 -727 722 0
-17 -727 725 0
-17 727 -722 -725 0
-18 -727 722 0
-18 727 -722 0
-19 -727 722 0
-19 727 -722 0
-20 -727 722 0
-20 727 -722 0
-52 -727 722 0
-52 727 -722 0
-11 -728 723 0
-11 728 -723 0
-12 -723 728 0
-12 -721 728 0
-12 -728 723 721 0
-13 -728 723 0
-13 728 -723 0
-14 -728 723 0
-14 728 -723 0
-15 -723 728 0
-15 -722 728 0
-15 -728 723 722 0
-16 -728 723 0
-16 728 -723 0
-17 -728 723 0
-17 728 -723 0
-18 -728 723 0
-18 -728 724 0
-18 728 -723 -724 0
-19 -728 723 0
-19 -728 725 0
-19 728 -723 -725 0
-20 -728 723 0
-20 728 -723 0
-52 -728 723 0
-52 728 -723 0
-11 -729 724 0
-11 729 -724 0
-12 -729 724 0
-12 729 -724 0
-13 -724 729 0
-13 -721 729 0
-13 -729 724 721 0
-14 -729 724 0
-14 729 -724 0
-15 -729 724 0
-15 729 -724 0
-16 -724 729 0
-16 -722 729 0
-16 -729 724 722 0
-17 -729 724 0
-17 729 -724 0
-18 -724 729 0
-18 -723 729 0
-18 -729 724 723 0
-19 -729 724 0
-19 729 -724 0
-20 -729 724 0
-20 -729 725 0
-20 729 -724 -725 0
-52 -729 724 0
-52 729 -724 0
-11 -730 725 0
-11 730 -725 0
-12 -730 725 0
-12 730 -725 0
-13 -730 725 0
-13 730 -725 0
-14 -725 730 0
-14 -721 730 0
-14 -730 725 721 0
-15 -730 725 0
-15 730 -725 0
-16 -730 725 0
-16 730 -725 0
-17 -725 730 0
-17 -722 730 0
-17 -730 725 722 0
-18 -730 725 0
-18 730 -725 0
-19 -725 730 0
-19 -723 730 0
-19 -730 725 723 0
-20 -725 730 0
-20 -724 730 0
-20 -730 725 724 0
-52 -730 725 0
-52 730 -725 0
-21 -731 726 0
-21 -731 727 0
-21 731 -726 -727 0
-22 -731 726 0
-22 -731 728 0
-22 731 -726 -728 0
-23 -731 726 0
-23 -731 729 0
-23 731 -726 -729 0
-24 -731 726 0
-24 -731 730 0
-24 731 -726 -730 0
-25 -731 726 0
-25 731 -726 0
-26 -731 726 0
-26 731 -726 0
-27 -731 726 0
-27 731 -726 0
-28 -731 726 0
-28 731 -726 0
-29 -731 726 0
-29 731 -726 0
-30 -731 726 0
-30 731 -726 0
-53 -731 726 0
-53 731 -726 0
-21 -727 732 0
-21 -726 732 0
-21 -732 727 726 0
-22 -732 727 0
-22 732 -727 0
-23 -732 727 0
-23 732 -727 0
-24 -732 727 0
-24 732 -727 0
-25 -732 727 0
-25 -732 728 0
-25 732 -727 -728 0
-26 -732 727 0
-26 -732 729 0
-26 732 -727 -729 0
-27 -732 727 0
-27 -732 730 0
-27 732 -727 -730 0
-28 -732 727 0
-28 732 -727 0
-29 -732 727 0
-29 732 -727 0
-30 -732 727 0
-30 732 -727 0
-53 -732 727 0
-53 732 -727 0
-21 -733 728 0
-21 733 -728 0
-22 -728 733 0
-22 -726 733 0
-22 -733 728 726 0
-23 -733 728 0
-23 733 -728 0
-24 -733 728 0
-24 733 -728 0
-25 -728 733 0
-25 -727 733 0
-25 -733 728 727 0
-26 -733 728 0
-26 733 -728 0
-27 -733 728 0
-27 733 -728 0
-28 -733 728 0
-28 -733 729 0
-28 733 -728 -729 0
-29 -733 728 0
-29 -733 730 0
-29 733 -728 -730 0
-30 -733 728 0
-30 733 -728 0
-53 -733 728 0
-53 733 -728 0
-21 -734 729 0
-21 734 -729 0
-22 -734 729 0
-22 734 -729 0
-23 -729 734 0
-23 -726 734 0
-23 -734 729 726 0
-24 -734 729 0
-24 734 -729 0
-25 -734 729 0
-25 734 -729 0
-26 -729 734 0
-26 -727 734 0
-26 -734 729 727 0
-27 -734 729 0
-27 734 -729 0
-28 -729 734 0
-28 -728 734 0
-28 -734 729 728 0
-29 -734 729 0
-29 734 -729 0
-30 -734 729 0
-30 -734 730 0
-30 734 -729 -730 0
-53 -734 729 0
-53 734 -729 0
-21 -735 730 0
-21 735 -730 0
-22 -735 730 0
-22 735 -730 0
-23 -735 730 0
-23 735 -730 0
-24 -730 735 0
-24 -726 735 0
-24 -735 730 726 0
-25 -735 730 0
-25 735 -730 0
-26 -735 730 0
-26 735 -730 0
-27 -730 735 0
-27 -727 735 0
-27 -735 730 727 0
-28 -735 730 0
-28 735 -730 0
-29 -730 735 0
-29 -728 735 0
-29 -735 730 728 0
-30 -730 735 0
-30 -729 735 0
-30 -735 730 729 0
-53 -735 730 0
-53 735 -730 0
-31 -736 731 0
-31 -736 732 0
-31 736 -731 -732 0
-32 -736 731 0
-32 -736 733 0
-32 736 -731 -733 0
-33 -736 731 0
-33 -736 734 0
-33 736 -731 -734 0
-34 -736 731 0
-34 -736 735 0
-34 736 -731 -735 0
-35 -736 731 0
-35 736 -731 0
-36 -736 731 0
-36 736 -731 0
-37 -736 731 0
-37 736 -731 0
-38 -736 731 0
-38 736 -731 0
-39 -736 731 0
-39 736 -731 0
-40 -736 731 0
-40 736 -731 0
-54 -736 731 0
-54 736 -731 0
-31 -732 737 0
-31 -731 737 0
-31 -737 732 731 0
-32 -737 732 0
-32 737 -732 0
-33 -737 732 0
-33 737 -732 0
-34 -737 732 0
-34 737 -732 0
-35 -737 732 0
-35 -737 733 0
-35 737 -732 -733 0
-36 -737 732 0
-36 -737 734 0
-36 737 -732 -734 0
-37 -737 732 0
-37 -737 735 0
-37 737 -732 -735 0
-38 -737 732 0
-38 737 -732 0
-39 -737 732 0
-39 737 -732 0
-40 -737 732 0
-40 737 -732 0
-54 -737 732 0
-54 737 -732 0
-31 -738 733 0
-31 738 -733 0
-32 -733 738 0
-32 -731 738 0
-32 -738 733 731 0
-33 -738 733 0
-33 738 -733 0
-34 -738 733 0
-34 738 -733 0
-35 -733 738 0
-35 -732 738 0
-35 -738 733 732 0
-36 -738 733 0
-36 738 -733 0
-37 -738 733 0
-37 738 -733 0
-38 -738 733 0
-38 -738 734 0
-38 738 -733 -734 0
-39 -738 733 0
-39 -738 735 0
-39 738 -733 -735 0
-40 -738 733 0
-40 738 -733 0
-54 -738 733 0
-54 738 -733 0
-31 -739 734 0
-31 739 -734 0
-32 -739 734 0
-32 739 -734 0
-33 -734 739 0
-33 -731 739 0
-33 -739 734 731 0
-34 -739 734 0
-34 739 -734 0
-35 -739 734 0
-35 739 -734 0
-36 -734 739 0
-36 -732 739 0
-36 -739 734 732 0
-37 -739 734 0
-37 739 -734 0
-38 -734 739 0
-38 -733 739 0
-38 -739 734 733 0
-39 -739 734 0
-39 739 -734 0
-40 -739 734 0
-40 -739 735 0
-40 739 -734 -735 0
-54 -739 734 0
-54 739 -734 0
-31 -740 735 0
-31 740 -735 0
-32 -740 735 0
-32 740 -735 0
-33 -740 735 0
-33 740 -735 0
-34 -735 740 0
-34 -731 740 0
-34 -740 735 731 0
-35 -740 735 0
-35 740 -735 0
-36 -740 735 0
-36 740 -735 0
-37 -735 740 0
-37 -732 740 0
-37 -740 735 732 0
-38 -740 735 0
-38 740 -735 0
-39 -735 740 0
-39 -733 740 0
-39 -740 735 733 0
-40 -735 740 0
-40 -734 740 0
-40 -740 735 734 0
-54 -740 735 0
-54 740 -735 0
-41 -741 736 0
-41 -741 737 0
-41 741 -736 -737 0
-42 -741 736 0
-42 -741 738 0
-42 741 -736 -738 0
-43 -741 736 0
-43 -741 739 0
-43 741 -736 -739 0
-44 -741 736 0
-44 -741 740 0
-44 741 -736 -740 0
-45 -741 736 0
-45 741 -736 0
-46 -741 736 0
-46 741 -736 0
-47 -741 736 0
-47 741 -736 0
-48 -741 736 0
-48 741 -736 0
-49 -741 736 0
-49 741 -736 0
-50 -741 736 0
-50 741 -736 0
-55 -741 736 0
-55 741 -736 0
-41 -737 742 0
-41 -736 742 0
-41 -742 737 736 0
-42 -742 737 0
-42 742 -737 0
-43 -742 737 0
-43 742 -737 0
-44 -742 737 0
-44 742 -737 0
-45 -742 737 0
-45 -742 738 0
-45 742 -737 -738 0
-46 -742 737 0
-46 -742 739 0
-46 742 -737 -739 0
-47 -742 737 0
-47 -742 740 0
-47 742 -737 -740 0
-48 -742 737 0
-48 742 -737 0
-49 -742 737 0
-49 742 -737 0
-50 -742 737 0
-50 742 -737 0
-55 -742 737 0
-55 742 -737 0
-41 -743 738 0
-41 743 -738 0
-42 -738 743 0
-42 -736 743 0
-42 -743 738 736 0
-43 -743 738 0
-43 743 -738 0
-44 -743 738 0
-44 743 -738 0
-45 -738 743 0
-45 -737 743 0
-45 -743 738 737 0
-46 -743 738 0
-46 743 -738 0
-47 -743 738 0
-47 743 -738 0
-48 -743 738 0
-48 -743 739 0
-48 743 -738 -739 0
-49 -743 738 0
-49 -743 740 0
-49 743 -738 -740 0
-50 -743 738 0
-50 743 -738 0
-55 -743 738 0
-55 743 -738 0
-41 -744 739 0
-41 744 -739 0
-42 -744 739 0
-42 744 -739 0
-43 -739 744 0
-43 -736 744 0
-43 -744 739 736 0
-44 -744 739 0
-44 744 -739 0
-45 -744 739 0
-45 744 -739 0
-46 -739 744 0
-46 -737 744 0
-46 -744 739 737 0
-47 -744 739 0
-47 744 -739 0
-48 -739 744 0
-48 -738 744 0
-48 -744 739 738 0
-49 -744 739 0
-49 744 -739 0
-50 -744 739 0
-50 -744 740 0
-50 744 -739 -740 0
-55 -744 739 0
-55 744 -739 0
-41 -745 740 0
-41 745 -740 0
-42 -745 740 0
-42 745 -740 0
-43 -745 740 0
-43 745 -740 0
-44 -740 745 0
-44 -736 745 0
-44 -745 740 736 0
-45 -745 740 0
-45 745 -740 0
-46 -745 740 0
-46 745 -740 0
-47 -740 745 0
-47 -737 745 0
-47 -745 740 737 0
-48 -745 740 0
-48 745 -740 0
-49 -740 745 0
-49 -738 745 0
-49 -745 740 738 0
-50 -740 745 0
-50 -739 745 0
-50 -745 740 739 0
-55 -745 740 0
-55 745 -740 0
746 0
-1 -751 746 0
-1 -751 747 0
-1 751 -746 -747 0
-2 -751 746 0
-2 -751 748 0
-2 751 -746 -748 0
-3 -751 746 0
-3 -751 749 0
-3 751 -746 -749 0
-4 -751 746 0
-4 -751 750 0
-4 751 -746 -750 0
-5 -751 746 0
-5 751 -746 0
-6 -751 746 0
-6 751 -746 0
-7 -751 746 0
-7 751 -746 0
-8 -751 746 0
-8 751 -746 0
-9 -751 746 0
-9 751 -746 0
-10 -751 746 0
-10 751 -746 0
-51 -751 746 0
-51 751 -746 0
747 0
-1 -747 752 0
-1 -746 752 0
-1 -752 747 746 0
-2 -752 747 0
-2 752 -747 0
-3 -752 747 0
-3 752 -747 0
-4 -752 747 0
-4 752 -747 0
-5 -752 747 0
-5 -752 748 0
-5 752 -747 -748 0
-6 -752 747 0
-6 -752 749 0
-6 752 -747 -749 0
-7 -752 747 0
-7 -752 750 0
-7 752 -747 -750 0
-8 -752 747 0
-8 752 -747 0
-9 -752 747 0
-9 752 -747 0
-10 -752 747 0
-10 752 -747 0
-51 -752 747 0
-51 752 -747 0
748 0
-1 -753 748 0
-1 753 -748 0
-2 -748 753 0
-2 -746 753 0
-2 -753 748 746 0
-3 -753 748 0
-3 753 -748 0
-4 -753 748 0
-4 753 -748 0
-5 -748 753 0
-5 -747 753 0
-5 -753 748 747 0
-6 -753 748 0
-6 753 -748 0
-7 -753 748 0
-7 753 -748 0
-8 -753 748 0
-8 -753 749 0
-8 753 -748 -749 0
-9 -753 748 0
-9 -753 750 0
-9 753 -748 -750 0
-10 -753 748 0
-10 753 -748 0
-51 -753 748 0
-51 753 -748 0
-749 0
-1 -754 749 0
-1 754 -749 0
-2 -754 749 0
-2 754 -749 0
-3 -749 754 0
-3 -746 754 0
-3 -754 749 746 0
-4 -754 749 0
-4 754 -749 0
-5 -754 749 0
-5 754 -749 0
-6 -749 754 0
-6 -747 754 0
-6 -754 749 747 0
-7 -754 749 0
-7 754 -749 0
-8 -749 754 0
-8 -748 754 0
-8 -754 749 748 0
-9 -754 749 0
-9 754 -749 0
-10 -754 749 0
-10 -754 750 0
-10 754 -749 -750 0
-51 -754 749 0
-51 754 -749 0
-750 0
-1 -755 750 0
-1 755 -750 0
-2 -755 750 0
-2 755 -750 0
-3 -755 750 0
-3 755 -750 0
-4 -750 755 0
-4 -746 755 0
-4 -755 750 746 0
-5 -755 750 0
-5 755 -750 0
-6 -755 750 0
-6 755 -750 0
-7 -750 755 0
-7 -747 755 0
-7 -755 750 747 0
-8 -755 750 0
-8 755 -750 0
-9 -750 755 0
-9 -748 755 0
-9 -755 750 748 0
-10 -750 755 0
-10 -749 755 0
-10 -755 750 749 0
-51 -755 750 0
-51 755 -750 0
-11 -756 751 0
-11 -756 752 0
-11 756 -751 -752 0
-12 -756 751 0
-12 -756 753 0
-12 756 -751 -753 0
-13 -756 751 0
-13 -756 754 0
-13 756 -751 -754 0
-14 -756 751 0
-14 -756 755 0
-14 756 -751 -755 0
-15 -756 751 0
-15 756 -751 0
-16 -756 751 0
-16 756 -751 0
-17 -756 751 0
-17 756 -751 0
-18 -756 751 0
-18 756 -751 0
-19 -756 751 0
-19 756 -751 0
-20 -756 751 0
-20 756 -751 0
-52 -756 751 0
-52 756 -751 0
-11 -752 757 0
-11 -751 757 0
-11 -757 752 751 0
-12 -757 752 0
-12 757 -752 0
-13 -757 752 0
-13 757 -752 0
-14 -757 752 0
-14 757 -752 0
-15 -757 752 0
-15 -757 753 0
-15 757 -752 -753 0
-16 -757 752 0
-16 -757 754 0
-16 757 -752 -754 0
-17 -757 752 0
-17 -757 755 0
-17 757 -752 -755 0
-18 -757 752 0
-18 757 -752 0
-19 -757 752 0
-19 757 -752 0
-20 -757 752 0
-20 757 -752 0
-52 -757 752 0
-52 757 -752 0
-11 -758 753 0
-11 758 -753 0
-12 -753 758 0
-12 -751 758 0
-12 -758 753 751 0
-13 -758 753 0
-13 758 -753 0
-14 -758 753 0
-14 758 -753 0
-15 -753 758 0
-15 -752 758 0
-15 -758 753 752 0
-16 -758 753 0
-16 758 -753 0
-17 -758 753 0
-17 758 -753 0
-18 -758 753 0
-18 -758 754 0
-18 758 -753 -754 0
-19 -758 753 0
-19 -758 755 0
-19 758 -753 -755 0
-20 -758 753 0
-20 758 -753 0
-52 -758 753 0
-52 758 -753 0
-11 -759 754 0
-11 759 -754 0
-12 -759 754 0
-12 759 -754 0
-13 -754 759 0
-13 -751 759 0
-13 -759 754 751 0
-14 -759 754 0
-14 759 -754 0
-15 -759 754 0
-15 759 -754 0
-16 -754 759 0
-16 -752 759 0
-16 -759 754 752 0
-17 -759 754 0
-17 759 -754 0
-18 -754 759 0
-18 -753 759 0
-18 -759 754 753 0
-19 -759 754 0
-19 759 -754 0
-20 -759 754 0
-20 -759 755 0
-20 759 -754 -755 0
-52 -759 754 0
-52 759 -754 0
-11 -760 755 0
-11 760 -755 0
-12 -760 755 0
-12 760 -755 0
-13 -760 755 0
-13 760 -755 0
-14 -755 760 0
-14 -751 760 0
-14 -760 755 751 0
-15 -760 755 0
-15 760 -755 0
-16 -760 755 0
-16 760 -755 0
-17 -755 760 0
-17 -752 760 0
-17 -760 755 752 0
-18 -760 755 0
-18 760 -755 0
-19 -755 760 0
-19 -753 760 0
-19 -760 755 753 0
-20 -755 760 0
-20 -754 760 0
-20 -760 755 754 0
-52 -760 755 0
-52 760 -755 0
-21 -761 756 0
-21 -761 757 0
-21 761 -756 -757 0
-22 -761 756 0
-22 -761 758 0
-22 761 -756 -758 0
-23 -761 756 0
-23 -761 759 0
-23 761 -756 -759 0
-24 -761 756 0
-24 -761 760 0
-24 761 -756 -760 0
-25 -761 756 0
-25 761 -756 0
-26 -761 756 0
-26 761 -756 0
-27 -761 756 0
-27 761 -756 0
-28 -761 756 0
-28 761 -756 0
-29 -761 756 0
-29 761 -756 0
-30 -761 756 0
-30 761 -756 0
-53 -761 756 0
-53 761 -756 0
-21 -757 762 0
-21 -756 762 0
-21 -762 757 756 0
-22 -762 757 0
-22 762 -757 0
-23 -762 757 0
-23 762 -757 0
-24 -762 757 0
-24 762 -757 0
-25 -762 757 0
-25 -762 758 0
-25 762 -757 -758 0
-26 -762 757 0
-26 -762 759 0
-26 762 -757 -759 0
-27 -762 757 0
-27 -762 760 0
-27 762 -757 -760 0
-28 -762 757 0
-28 762 -757 0
-29 -762 757 0
-29 762 -757 0
-30 -762 757 0
-30 762 -757 0
-53 -762 757 0
-53 762 -757 0
-21 -763 758 0
-21 763 -758 0
-22 -758 763 0
-22 -756 763 0
-22 -763 758 756 0
-23 -763 758 0
-23 763 -758 0
-24 -763 758 0
-24 763 -758 0
-25 -758 763 0
-25 -757 763 0
-25 -763 758 757 0
-26 -763 758 0
-26 763 -758 0
-27 -763 758 0
-27 763 -758 0
-28 -763 758 0
-28 -763 759 0
-28 763 -758 -759 0
-29 -763 758 0
-29 -763 760 0
-29 763 -758 -760 0
-30 -763 758 0
-30 763 -758 0
-53 -763 758 0
-53 763 -758 0
-21 -764 759 0
-21 764 -759 0
-22 -764 759 0
-22 764 -759 0
-23 -759 764 0
-23 -756 764 0
-23 -764 759 756 0
-24 -764 759 0
-24 764 -759 0
-25 -764 759 0
-25 764 -759 0
-26 -759 764 0
-26 -757 764 0
-26 -764 759 757 0
-27 -764 759 0
-27 764 -759 0
-28 -759 764 0
-28 -758 764 0
-28 -764 759 758 0
-29 -764 759 0
-29 764 -759 0
-30 -764 759 0
-30 -764 760 0
-30 764 -759 -760 0
-53 -764 759 0
-53 764 -759 0
-21 -765 760 0
-21 765 -760 0
-22 -765 760 0
-22 765 -760 0
-23 -765 760 0
-23 765 -760 0
-24 -760 765 0
-24 -756 765 0
-24 -765 760 756 0
-25 -765 760 0
-25 765 -760 0
-26 -765 760 0
-26 765 -760 0
-27 -760 765 0
-27 -757 765 0
-27 -765 760 757 0
-28 -765 760 0
-28 765 -760 0
-29 -760 765 0
-29 -758 765 0
-29 -765 760 758 0
-30 -760 765 0
-30 -759 765 0
-30 -765 760 759 0
-53 -765 760 0
-53 765 -760 0
-31 -766 761 0
-31 -766 762 0
-31 766 -761 -762 0
-32 -766 761 0
-32 -766 763 0
-32 766 -761 -763 0
-33 -766 761 0
-33 -766 764 0
-33 766 -761 -764 0
-34 -766 761 0
-34 -766 765 0
-34 766 -761 -765 0
-35 -766 761 0
-35 766 -761 0
-36 -766 761 0
-36 766 -761 0
-37 -766 761 0
-37 766 -761 0
-38 -766 761 0
-38 766 -761 0
-39 -766 761 0
-39 766 -761 0
-40 -766 761 0
-40 766 -761 0
-54 -766 761 0
-54 766 -761 0
-31 -762 767 0
-31 -761 767 0
-31 -767 762 761 0
-32 -767 762 0
-32 767 -762 0
-33 -767 762 0
-33 767 -762 0
-34 -767 762 0
-34 767 -762 0
-35 -767 762 0
-35 -767 763 0
-35 767 -762 -763 0
-36 -767 762 0
-36 -767 764 0
-36 767 -762 -764 0
-37 -767 762 0
-37 -767 765 0
-37 767 -762 -765 0
-38 -767 762 0
-38 767 -762 0
-39 -767 762 0
-39 767 -762 0
-40 -767 762 0
-40 767 -762 0
-54 -767 762 0
-54 767 -762 0
-31 -768 763 0
-31 768 -763 0
-32 -763 768 0
-32 -761 768 0
-32 -768 763 761 0
-33 -768 763 0
-33 768 -763 0
-34 -768 763 0
-34 768 -763 0
-35 -763 768 0
-35 -762 768 0
-35 -768 763 762 0
-36 -768 763 0
-36 768 -763 0
-37 -768 763 0
-37 768 -763 0
-38 -768 763 0
-38 -768 764 0
-38 768 -763 -764 0
-39 -768 763 0
-39 -768 765 0
-39 768 -763 -765 0
-40 -768 763 0
-40 768 -763 0
-54 -768 763 0
-54 768 -763 0
-31 -769 764 0
-31 769 -764 0
-32 -769 764 0
-32 769 -764 0
-33 -764 769 0
-33 -761 769 0
-33 -769 764 761 0
-34 -769 764 0
-34 769 -764 0
-35 -769 764 0
-35 769 -764 0
-36 -764 769 0
-36 -762 769 0
-36 -769 764 762 0
-37 -769 764 0
-37 769 -764 0
-38 -764 769 0
-38 -763 769 0
-38 -769 764 763 0
-39 -769 764 0
-39 769 -764 0
-40 -769 764 0
-40 -769 765 0
-40 769 -764 -765 0
-54 -769 764 0
-54 769 -764 0
-31 -770 765 0
-31 770 -765 0
-32 -770 765 0
-32 770 -765 0
-33 -770 765 0
-33 770 -765 0
-34 -765 770 0
-34 -761 770 0
-34 -770 765 761 0
-35 -770 765 0
-35 770 -765 0
-36 -770 765 0
-36 770 -765 0
-37 -765 770 0
-37 -762 770 0
-37 -770 765 762 0
-38 -770 765 0
-38 770 -765 0
-39 -765 770 0
-39 -763 770 0
-39 -770 765 763 0
-40 -765 770 0
-40 -764 770 0
-40 -770 765 764 0
-54 -770 765 0
-54 770 -765 0
-41 -771 766 0
-41 -771 767 0
-41 771 -766 -767 0
-42 -771 766 0
-42 -771 768 0
-42 771 -766 -768 0
-43 -771 766 0
-43 -771 769 0
-43 771 -766 -769 0
-44 -771 766 0
-44 -771 770 0
-44 771 -766 -770 0
-45 -771 766 0
-45 771 -766 0
-46 -771 766 0
-46 771 -766 0
-47 -771 766 0
-47 771 -766 0
-48 -771 766 0
-48 771 -766 0
-49 -771 766 0
-49 771 -766 0
-50 -771 766 0
-50 771 -766 0
-55 -771 766 0
-55 771 -766 0
-41 -767 772 0
-41 -766 772 0
-41 -772 767 766 0
-42 -772 767 0
-42 772 -767 0
-43 -772 767 0
-43 772 -767 0
-44 -772 767 0
-44 772 -767 0
-45 -772 767 0
-45 -772 768 0
-45 772 -767 -768 0
-46 -772 767 0
-46 -772 769 0
-46 772 -767 -769 0
-47 -772 767 0
-47 -772 770 0
-47 772 -767 -770 0
-48 -772 767 0
-48 772 -767 0
-49 -772 767 0
-49 772 -767 0
-50 -772 767 0
-50 772 -767 0
-55 -772 767 0
-55 772 -767 0
-41 -773 768 0
-41 773 -768 0
-42 -768 773 0
-42 -766 773 0
-42 -773 768 766 0
-43 -773 768 0
-43 773 -768 0
-44 -773 768 0
-44 773 -768 0
-45 -768 773 0
-45 -767 773 0
-45 -773 768 767 0
-46 -773 768 0
-46 773 -768 0
-47 -773 768 0
-47 773 -768 0
-48 -773 768 0
-48 -773 769 0
-48 773 -768 -769 0
-49 -773 768 0
-49 -773 770 0
-49 773 -768 -770 0
-50 -773 768 0
-50 773 -768 0
-55 -773 768 0
-55 773 -768 0
-41 -774 769 0
-41 774 -769 0
-42 -774 769 0
-42 774 -769 0
-43 -769 774 0
-43 -766 774 0
-43 -774 769 766 0
-44 -774 769 0
-44 774 -769 0
-45 -774 769 0
-45 774 -769 0
-46 -769 774 0
-46 -767 774 0
-46 -774 769 767 0
-47 -774 769 0
-47 774 -769 0
-48 -769 774 0
-48 -768 774 0
-48 -774 769 768 0
-49 -774 769 0
-49 774 -769 0
-50 -774 769 0
-50 -774 770 0
-50 774 -769 -770 0
-55 -774 769 0
-55 774 -769 0
-41 -775 770 0
-41 775 -770 0
-42 -775 770 0
-42 775 -770 0
-43 -775 770 0
-43 775 -770 0
-44 -770 775 0
-44 -766 775 0
-44 -775 770 766 0
-45 -775 770 0
-45 775 -770 0
-46 -775 770 0
-46 775 -770 0
-47 -770 775 0
-47 -767 775 0
-47 -775 770 767 0
-48 -775 770 0
-48 775 -770 0
-49 -770 775 0
-49 -768 775 0
-49 -775 770 768 0
-50 -770 775 0
-50 -769 775 0
-50 -775 770 769 0
-55 -775 770 0
-55 775 -770 0
776 0
-1 -781 776 0
-1 -781 777 0
-1 781 -776 -777 0
-2 -781 776 0
-2 -781 778 0
-2 781 -776 -778 0
-3 -781 776 0
-3 -781 779 0
-3 781 -776 -779 0
-4 -781 776 0
-4 -781 780 0
-4 781 -776 -780 0
-5 -781 776 0
-5 781 -776 0
-6 -781 776 0
-6 781 -776 0
-7 -781 776 0
-7 781 -776 0
-8 -781 776 0
-8 781 -776 0
-9 -781 776 0
-9 781 -776 0
-10 -781 776 0
-10 781 -776 0
-51 -781 776 0
-51 781 -776 0
777 0
-1 -777 782 0
-1 -776 782 0
-1 -782 777 776 0
-2 -782 777 0
-2 782 -777 0
-3 -782 777 0
-3 782 -777 0
-4 -782 777 0
-4 782 -777 0
-5 -782 777 0
-5 -782 778 0
-5 782 -777 -778 0
-6 -782 777 0
-6 -782 779 0
-6 782 -777 -779 0
-7 -782 777 0
-7 -782 780 0
-7 782 -777 -780 0
-8 -782 777 0
-8 782 -777 0
-9 -782 777 0
-9 782 -777 0
-10 -782 777 0
-10 782 -777 0
-51 -782 777 0
-51 782 -777 0
778 0
-1 -783 778 0
-1 783 -778 0
-2 -778 783 0
-2 -776 783 0
-2 -783 778 776 0
-3 -783 778 0
-3 783 -778 0
-4 -783 778 0
-4 783 -778 0
-5 -778 783 0
-5 -777 783 0
-5 -783 778 777 0
-6 -783 778 0
-6 783 -778 0
-7 -783 778 0
-7 783 -778 0
-8 -783 778 0
-8 -783 779 0
-8 783 -778 -779 0
-9 -783 778 0
-9 -783 780 0
-9 783 -778 -780 0
-10 -783 778 0
-10 783 -778 0
-51 -783 778 0
-51 783 -778 0
-779 0
-1 -784 779 0
-1 784 -779 0
-2 -784 779 0
-2 784 -779 0
-3 -779 784 0
-3 -776 784 0
-3 -784 779 776 0
-4 -784 779 0
-4 784 -779 0
-5 -784 779 0
-5 784 -779 0
-6 -779 784 0
-6 -777 784 0
-6 -784 779 777 0
-7 -784 779 0
-7 784 -779 0
-8 -779 784 0
-8 -778 784 0
-8 -784 779 778 0
-9 -784 779 0
-9 784 -779 0
-10 -784 779 0
-10 -784 780 0
-10 784 -779 -780 0
-51 -784 779 0
-51 784 -779 0
780 0
-1 -785 780 0
-1 785 -780 0
-2 -785 780 0
-2 785 -780 0
-3 -785 780 0
-3 785 -780 0
-4 -780 785 0
-4 -776 785 0
-4 -785 780 776 0
-5 -785 780 0
-5 785 -780 0
-6 -785 780 0
-6 785 -780 0
-7 -780 785 0
-7 -777 785 0
-7 -785 780 777 0
-8 -785 780 0
-8 785 -780 0
-9 -780 785 0
-9 -778 785 0
-9 -785 780 778 0
-10 -780 785 0
-10 -779 785 0
-10 -785 780 779 0
-51 -785 780 0
-51 785 -780 0
-11 -786 781 0
-11 -786 782 0
-11 786 -781 -782 0
-12 -786 781 0
-12 -786 783 0
-12 786 -781 -783 0
-13 -786 781 0
-13 -786 784 0
-13 786 -781 -784 0
-14 -786 781 0
-14 -786 785 0
-14 786 -781 -785 0
-15 -786 781 0
-15 786 -781 0
-16 -786 781 0
-16 786 -781 0
-17 -786 781 0
-17 786 -781 0
-18 -786 781 0
-18 786 -781 0
-19 -786 781 0
-19 786 -781 0
-20 -786 781 0
-20 786 -781 0
-52 -786 781 0
-52 786 -781 0
-11 -782 787 0
-11 -781 787 0
-11 -787 782 781 0
-12 -787 782 0
-12 787 -782 0
-13 -787 782 0
-13 787 -782 0
-14 -787 782 0
-14 787 -782 0
-15 -787 782 0
-15 -787 783 0
-15 787 -782 -783 0
-16 -787 782 0
-16 -787 784 0
-16 787 -782 -784 0
-17 -787 782 0
-17 -787 785 0
-17 787 -782 -785 0
-18 -787 782 0
-18 787 -782 0
-19 -787 782 0
-19 787 -782 0
-20 -787 782 0
-20 787 -782 0
-52 -787 782 0
-52 787 -782 0
-11 -788 783 0
-11 788 -783 0
-12 -783 788 0
-12 -781 788 0
-12 -788 783 781 0
-13 -788 783 0
-13 788 -783 0
-14 -788 783 0
-14 788 -783 0
-15 -783 788 0
-15 -782 788 0
-15 -788 783 782 0
-16 -788 783 0
-16 788 -783 0
-17 -788 783 0
-17 788 -783 0
-18 -788 783 0
-18 -788 784 0
-18 788 -783 -784 0
-19 -788 783 0
-19 -788 785 0
-19 788 -783 -785 0
-20 -788 783 0
-20 788 -783 0
-52 -788 783 0
-52 788 -783 0
-11 -789 784 0
-11 789 -784 0
-12 -789 784 0
-12 789 -784 0
-13 -784 789 0
-13 -781 789 0
-13 -789 784 781 0
-14 -789 784 0
-14 789 -784 0
-15 -789 784 0
-15 789 -784 0
-16 -784 789 0
-16 -782 789 0
-16 -789 784 782 0
-17 -789 784 0
-17 789 -784 0
-18 -784 789 0
-18 -783 789 0
-18 -789 784 783 0
-19 -789 784 0
-19 789 -784 0
-20 -789 784 0
-20 -789 785 0
-20 789 -784 -785 0
-52 -789 784 0
-52 789 -784 0
-11 -790 785 0
-11 790 -785 0
-12 -790 785 0
-12 790 -785 0
-13 -790 785 0
-13 790 -785 0
-14 -785 790 0
-14 -781 790 0
-14 -790 785 781 0
-15 -790 785 0
-15 790 -785 0
-16 -790 785 0
-16 790 -785 0
-17 -785 790 0
-17 -782 790 0
-17 -790 785 782 0
-18 -790 785 0
-18 790 -785 0
-19 -785 790 0
-19 -783 790 0
-19 -790 785 783 0
-20 -785 790 0
-20 -784 790 0
-20 -790 785 784 0
-52 -790 785 0
-52 790 -785 0
-21 -791 786 0
-21 -791 787 0
-21 791 -786 -787 0
-22 -791 786 0
-22 -791 788 0
-22 791 -786 -788 0
-23 -791 786 0
-23 -791 789 0
-23 791 -786 -789 0
-24 -791 786 0
-24 -791 790 0
-24 791 -786 -790 0
-25 -791 786 0
-25 791 -786 0
-26 -791 786 0
-26 791 -786 0
-27 -791 786 0
-27 791 -786 0
-28 -791 786 0
-28 791 -786 0
-29 -791 786 0
-29 791 -786 0
-30 -791 786 0
-30 791 -786 0
-53 -791 786 0
-53 791 -786 0
-21 -787 792 0
-21 -786 792 0
-21 -792 787 786 0
-22 -792 787 0
-22 792 -787 0
-23 -792 787 0
-23 792 -787 0
-24 -792 787 0
-24 792 -787 0
-25 -792 787 0
-25 -792 788 0
-25 792 -787 -788 0
-26 -792 787 0
-26 -792 789 0
-26 792 -787 -789 0
-27 -792 787 0
-27 -792 790 0
-27 792 -787 -790 0
-28 -792 787 0
-28 792 -787 0
-29 -792 787 0
-29 792 -787 0
-30 -792 787 0
-30 792 -787 0
-53 -792 787 0
-53 792 -787 0
-21 -793 788 0
-21 793 -788 0
-22 -788 793 0
-22 -786 793 0
-22 -793 788 786 0
-23 -793 788 0
-23 793 -788 0
-24 -793 788 0
-24 793 -788 0
-25 -788 793 0
-25 -787 793 0
-25 -793 788 787 0
-26 -793 788 0
-26 793 -788 0
-27 -793 788 0
-27 793 -788 0
-28 -793 788 0
-28 -793 789 0
-28 793 -788 -789 0
-29 -793 788 0
-29 -793 790 0
-29 793 -788 -790 0
-30 -793 788 0
-30 793 -788 0
-53 -793 788 0
-53 793 -788 0
-21 -794 789 0
-21 794 -789 0
-22 -794 789 0
-22 794 -789 0
-23 -789 794 0
-23 -786 794 0
-23 -794 789 786 0
-24 -794 789 0
-24 794 -789 0
-25 -794 789 0
-25 794 -789 0
-26 -789 794 0
-26 -787 794 0
-26 -794 789 787 0
-27 -794 789 0
-27 794 -789 0
-28 -789 794 0
-28 -788 794 0
-28 -794 789 788 0
-29 -794 789 0
-29 794 -789 0
-30 -794 789 0
-30 -794 790 0
-30 794 -789 -790 0
-53 -794 789 0
-53 794 -789 0
-21 -795 790 0
-21 795 -790 0
-22 -795 790 0
-22 795 -790 0
-23 -795 790 0
-23 795 -790 0
-24 -790 795 0
-24 -786 795 0
-24 -795 790 786 0
-25 -795 790 0
-25 795 -790 0
-26 -795 790 0
-26 795 -790 0
-27 -790 795 0
-27 -787 795 0
-27 -795 790 787 0
-28 -795 790 0
-28 795 -790 0
-29 -790 795 0
-29 -788 795 0
-29 -795 790 788 0
-30 -790 795 0
-30 -789 795 0
-30 -795 790 789 0
-53 -795 790 0
-53 795 -790 0
-31 -796 791 0
-31 -796 792 0
-31 796 -791 -792 0
-32 -796 791 0
-32 -796 793 0
-32 796 -791 -793 0
-33 -796 791 0
-33 -796 794 0
-33 796 -791 -794 0
-34 -796 791 0
-34 -796 795 0
-34 796 -791 -795 0
-35 -796 791 0
-35 796 -791 0
-36 -796 791 0
-36 796 -791 0
-37 -796 791 0
-37 796 -791 0
-38 -796 791 0
-38 796 -791 0
-39 -796 791 0
-39 796 -791 0
-40 -796 791 0
-40 796 -791 0
-54 -796 791 0
-54 796 -791 0
-31 -792 797 0
-31 -791 797 0
-31 -797 792 791 0
-32 -797 792 0
-32 797 -792 0
-33 -797 792 0
-33 797 -792 0
-34 -797 792 0
-34 797 -792 0
-35 -797 792 0
-35 -797 793 0
-35 797 -792 -793 0
-36 -797 792 0
-36 -797 794 0
-36 797 -792 -794 0
-37 -797 792 0
-37 -797 795 0
-37 797 -792 -795 0
-38 -797 792 0
-38 797 -792 0
-39 -797 792 0
-39 797 -792 0
-40 -797 792 0
-40 797 -792 0
-54 -797 792 0
-54 797 -792 0
-31 -798 793 0
-31 798 -793 0
-32 -793 798 0
-32 -791 798 0
-32 -798 793 791 0
-33 -798 793 0
-33 798 -793 0
-34 -798 793 0
-34 798 -793 0
-35 -793 798 0
-35 -792 798 0
-35 -798 793 792 0
-36 -798 793 0
-36 798 -793 0
-37 -798 793 0
-37 798 -793 0
-38 -798 793 0
-38 -798 794 0
-38 798 -793 -794 0
-39 -798 793 0
-39 -798 795 0
-39 798 -793 -795 0
-40 -798 793 0
-40 798 -793 0
-54 -798 793 0
-54 798 -793 0
-31 -799 794 0
-31 799 -794 0
-32 -799 794 0
-32 799 -794 0
-33 -794 799 0
-33 -791 799 0
-33 -799 794 791 0
-34 -799 794 0
-34 799 -794 0
-35 -799 794 0
-35 799 -794 0
-36 -794 799 0
-36 -792 799 0
-36 -799 794 792 0
-37 -799 794 0
-37 799 -794 0
-38 -794 799 0
-38 -793 799 0
-38 -799 794 793 0
-39 -799 794 0
-39 799 -794 0
-40 -799 794 0
-40 -799 795 0
-40 799 -794 -795 0
-54 -799 794 0
-54 799 -794 0
-31 -800 795 0
-31 800 -795 0
-32 -800 795 0
-32 800 -795 0
-33 -800 795 0
-33 800 -795 0
-34 -795 800 0
-34 -791 800 0
-34 -800 795 791 0
-35 -800 795 0
-35 800 -795 0
-36 -800 795 0
-36 800 -795 0
-37 -795 800 0
-37 -792 800 0
-37 -800 795 792 0
-38 -800 795 0
-38 800 -795 0
-39 -795 800 0
-39 -793 800 0
-39 -800 795 793 0
-40 -795 800 0
-40 -794 800 0
-40 -800 795 794 0
-54 -800 795 0
-54 800 -795 0
-41 -801 796 0
-41 -801 797 0
-41 801 -796 -797 0
-42 -801 796 0
-42 -801 798 0
-42 801 -796 -798 0
-43 -801 796 0
-43 -801 799 0
-43 801 -796 -799 0
-44 -801 796 0
-44 -801 800 0
-44 801 -796 -800 0
-45 -801 796 0
-45 801 -796 0
-46 -801 796 0
-46 801 -796 0
-47 -801 796 0
-47 801 -796 0
-48 -801 796 0
-48 801 -796 0
-49 -801 796 0
-49 801 -796 0
-50 -801 796 0
-50 801 -796 0
-55 -801 796 0
-55 801 -796 0
-41 -797 802 0
-41 -796 802 0
-41 -802 797 796 0
-42 -802 797 0
-42 802 -797 0
-43 -802 797 0
-43 802 -797 0
-44 -802 797 0
-44 802 -797 0
-45 -802 797 0
-45 -802 798 0
-45 802 -797 -798 0
-46 -802 797 0
-46 -802 799 0
-46 802 -797 -799 0
-47 -802 797 0
-47 -802 800 0
-47 802 -797 -800 0
-48 -802 797 0
-48 802 -797 0
-49 -802 797 0
-49 802 -797 0
-50 -802 797 0
-50 802 -797 0
-55 -802 797 0
-55 802 -797 0
-41 -803 798 0
-41 803 -798 0
-42 -798 803 0
-42 -796 803 0
-42 -803 798 796 0
-43 -803 798 0
-43 803 -798 0
-44 -803 798 0
-44 803 -798 0
-45 -798 803 0
-45 -797 803 0
-45 -803 798 797 0
-46 -803 798 0
-46 803 -798 0
-47 -803 798 0
-47 803 -798 0
-48 -803 798 0
-48 -803 799 0
-48 803 -798 -799 0
-49 -803 798 0
-49 -803 800 0
-49 803 -798 -800 0
-50 -803 798 0
-50 803 -798 0
-55 -803 798 0
-55 803 -798 0
-41 -804 799 0
-41 804 -799 0
-42 -804 799 0
-42 804 -799 0
-43 -799 804 0
-43 -796 804 0
-43 -804 799 796 0
-44 -804 799 0
-44 804 -799 0
-45 -804 799 0
-45 804 -799 0
-46 -799 804 0
-46 -797 804 0
-46 -804 799 797 0
-47 -804 799 0
-47 804 -799 0
-48 -799 804 0
-48 -798 804 0
-48 -804 799 798 0
-49 -804 799 0
-49 804 -799 0
-50 -804 799 0
-50 -804 800 0
-50 804 -799 -800 0
-55 -804 799 0
-55 804 -799 0
-41 -805 800 0
-41 805 -800 0
-42 -805 800 0
-42 805 -800 0
-43 -805 800 0
-43 805 -800 0
-44 -800 805 0
-44 -796 805 0
-44 -805 800 796 0
-45 -805 800 0
-45 805 -800 0
-46 -805 800 0
-46 805 -800 0
-47 -800 805 0
-47 -797 805 0
-47 -805 800 797 0
-48 -805 800 0
-48 805 -800 0
-49 -800 805 0
-49 -798 805 0
-49 -805 800 798 0
-50 -800 805 0
-50 -799 805 0
-50 -805 800 799 0
-55 -805 800 0
-55 805 -800 0
806 0
-1 -811 806 0
-1 -811 807 0
-1 811 -806 -807 0
-2 -811 806 0
-2 -811 808 0
-2 811 -806 -808 0
-3 -811 806 0
-3 -811 809 0
-3 811 -806 -809 0
-4 -811 806 0
-4 -811 810 0
-4 811 -806 -810 0
-5 -811 806 0
-5 811 -806 0
-6 -811 806 0
-6 811 -806 0
-7 -811 806 0
-7 811 -806 0
-8 -811 806 0
-8 811 -806 0
-9 -811 806 0
-9 811 -806 0
-10 -811 806 0
-10 811 -806 0
-51 -811 806 0
-51 811 -806 0
807 0
-1 -807 812 0
-1 -806 812 0
-1 -812 807 806 0
-2 -812 807 0
-2 812 -807 0
-3 -812 807 0
-3 812 -807 0
-4 -812 807 0
-4 812 -807 0
-5 -812 807 0
-5 -812 808 0
-5 812 -807 -808 0
-6 -812 807 0
-6 -812 809 0
-6 812 -807 -809 0
-7 -812 807 0
-7 -812 810 0
-7 812 -807 -810 0
-8 -812 807 0
-8 812 -807 0
-9 -812 807 0
-9 812 -807 0
-10 -812 807 0
-10 812 -807 0
-51 -812 807 0
-51 812 -807 0
808 0
-1 -813 808 0
-1 813 -808 0
-2 -808 813 0
-2 -806 813 0
-2 -813 808 806 0
-3 -813 808 0
-3 813 -808 0
-4 -813 808 0
-4 813 -808 0
-5 -808 813 0
-5 -807 813 0
-5 -813 808 807 0
-6 -813 808 0
-6 813 -808 0
-7 -813 808 0
-7 813 -808 0
-8 -813 808 0
-8 -813 809 0
-8 813 -808 -809 0
-9 -813 808 0
-9 -813 810 0
-9 813 -808 -810 0
-10 -813 808 0
-10 813 -808 0
-51 -813 808 0
-51 813 -808 0
809 0
-1 -814 809 0
-1 814 -809 0
-2 -814 809 0
-2 814 -809 0
-3 -809 814 0
-3 -806 814 0
-3 -814 809 806 0
-4 -814 809 0
-4 814 -809 0
-5 -814 809 0
-5 814 -809 0
-6 -809 814 0
-6 -807 814 0
-6 -814 809 807 0
-7 -814 809 0
-7 814 -809 0
-8 -809 814 0
-8 -808 814 0
-8 -814 809 808 0
-9 -814 809 0
-9 814 -809 0
-10 -814 809 0
-10 -814 810 0
-10 814 -809 -810 0
-51 -814 809 0
-51 814 -809 0
-810 0
-1 -815 810 0
-1 815 -810 0
-2 -815 810 0
-2 815 -810 0
-3 -815 810 0
-3 815 -810 0
-4 -810 815 0
-4 -806 815 0
-4 -815 810 806 0
-5 -815 810 0
-5 815 -810 0
-6 -815 810 0
-6 815 -810 0
-7 -810 815 0
-7 -807 815 0
-7 -815 810 807 0
-8 -815 810 0
-8 815 -810 0
-9 -810 815 0
-9 -808 815 0
-9 -815 810 808 0
-10 -810 815 0
-10 -809 815 0
-10 -815 810 809 0
-51 -815 810 0
-51 815 -810 0
-11 -816 811 0
-11 -816 812 0
-11 816 -811 -812 0
-12 -816 811 0
-12 -816 813 0
-12 816 -811 -813 0
-13 -816 811 0
-13 -816 814 0
-13 816 -811 -814 0
-14 -816 811 0
-14 -816 815 0
-14 816 -811 -815 0
-15 -816 811 0
-15 816 -811 0
-16 -816 811 0
-16 816 -811 0
-17 -816 811 0
-17 816 -811 0
-18 -816 811 0
-18 816 -811 0
-19 -816 811 0
-19 816 -811 0
-20 -816 811 0
-20 816 -811 0
-52 -816 811 0
-52 816 -811 0
-11 -812 817 0
-11 -811 817 0
-11 -817 812 811 0
-12 -817 812 0
-12 817 -812 0
-13 -817 812 0
-13 817 -812 0
-14 -817 812 0
-14 817 -812 0
-15 -817 812 0
-15 -817 813 0
-15 817 -812 -813 0
-16 -817 812 0
-16 -817 814 0
-16 817 -812 -814 0
-17 -817 812 0
-17 -817 815 0
-17 817 -812 -815 0
-18 -817 812 0
-18 817 -812 0
-19 -817 812 0
-19 817 -812 0
-20 -817 812 0
-20 817 -812 0
-52 -817 812 0
-52 817 -812 0
-11 -818 813 0
-11 818 -813 0
-12 -813 818 0
-12 -811 818 0
-12 -818 813 811 0
-13 -818 813 0
-13 818 -813 0
-14 -818 813 0
-14 818 -813 0
-15 -813 818 0
-15 -812 818 0
-15 -818 813 812 0
-16 -818 813 0
-16 818 -813 0
-17 -818 813 0
-17 818 -813 0
-18 -818 813 0
-18 -818 814 0
-18 818 -813 -814 0
-19 -818 813 0
-19 -818 815 0
-19 818 -813 -815 0
-20 -818 813 0
-20 818 -813 0
-52 -818 813 0
-52 818 -813 0
-11 -819 814 0
-11 819 -814 0
-12 -819 814 0
-12 819 -814 0
-13 -814 819 0
-13 -811 819 0
-13 -819 814 811 0
-14 -819 814 0
-14 819 -814 0
-15 -819 814 0
-15 819 -814 0
-16 -814 819 0
-16 -812 819 0
-16 -819 814 812 0
-17 -819 814 0
-17 819 -814 0
-18 -814 819 0
-18 -813 819 0
-18 -819 814 813 0
-19 -819 814 0
-19 819 -814 0
-20 -819 814 0
-20 -819 815 0
-20 819 -814 -815 0
-52 -819 814 0
-52 819 -814 0
-11 -820 815 0
-11 820 -815 0
-12 -820 815 0
-12 820 -815 0
-13 -820 815 0
-13 820 -815 0
-14 -815 820 0
-14 -811 820 0
-14 -820 815 811 0
-15 -820 815 0
-15 820 -815 0
-16 -820 815 0
-16 820 -815 0
-17 -815 820 0
-17 -812 820 0
-17 -820 815 812 0
-18 -820 815 0
-18 820 -815 0
-19 -815 820 0
-19 -813 820 0
-19 -820 815 813 0
-20 -815 820 0
-20 -814 820 0
-20 -820 815 814 0
-52 -820 815 0
-52 820 -815 0
-21 -821 816 0
-21 -821 817 0
-21 821 -816 -817 0
-22 -821 816 0
-22 -821 818 0
-22 821 -816 -818 0
-23 -821 816 0
-23 -821 819 0
-23 821 -816 -819 0
-24 -821 816 0
-24 -821 820 0
-24 821 -816 -820 0
-25 -821 816 0
-25 821 -816 0
-26 -821 816 0
-26 821 -816 0
-27 -821 816 0
-27 821 -816 0
-28 -821 816 0
-28 821 -816 0
-29 -821 816 0
-29 821 -816 0
-30 -821 816 0
-30 821 -816 0
-53 -821 816 0
-53 821 -816 0
-21 -817 822 0
-21 -816 822 0
-21 -822 817 816 0
-22 -822 817 0
-22 822 -817 0
-23 -822 817 0
-23 822 -817 0
-24 -822 817 0
-24 822 -817 0
-25 -822 817 0
-25 -822 818 0
-25 822 -817 -818 0
-26 -822 817 0
-26 -822 819 0
-26 822 -817 -819 0
-27 -822 817 0
-27 -822 820 0
-27 822 -817 -820 0
-28 -822 817 0
-28 822 -817 0
-29 -822 817 0
-29 822 -817 0
-30 -822 817 0
-30 822 -817 0
-53 -822 817 0
-53 822 -817 0
-21 -823 818 0
-21 823 -818 0
-22 -818 823 0
-22 -816 823 0
-22 -823 818 816 0
-23 -823 818 0
-23 823 -818 0
-24 -823 818 0
-24 823 -818 0
-25 -818 823 0
-25 -817 823 0
-25 -823 818 817 0
-26 -823 818 0
-26 823 -818 0
-27 -823 818 0
-27 823 -818 0
-28 -823 818 0
-28 -823 819 0
-28 823 -818 -819 0
-29 -823 818 0
-29 -823 820 0
-29 823 -818 -820 0
-30 -823 818 0
-30 823 -818 0
-53 -823 818 0
-53 823 -818 0
-21 -824 819 0
-21 824 -819 0
-22 -824 819 0
-22 824 -819 0
-23 -819 824 0
-23 -816 824 0
-23 -824 819 816 0
-24 -824 819 0
-24 824 -819 0
-25 -824 819 0
-25 824 -819 0
-26 -819 824 0
-26 -817 824 0
-26 -824 819 817 0
-27 -824 819 0
-27 824 -819 0
-28 -819 824 0
-28 -818 824 0
-28 -824 819 818 0
-29 -824 819 0
-29 824 -819 0
-30 -824 819 0
-30 -824 820 0
-30 824 -819 -820 0
-53 -824 819 0
-53 824 -819 0
-21 -825 820 0
-21 825 -820 0
-22 -825 820 0
-22 825 -820 0
-23 -825 820 0
-23 825 -820 0
-24 -820 825 0
-24 -816 825 0
-24 -825 820 816 0
-25 -825 820 0
-25 825 -820 0
-26 -825 820 0
-26 825 -820 0
-27 -820 825 0
-27 -817 825 0
-27 -825 820 817 0
-28 -825 820 0
-28 825 -820 0
-29 -820 825 0
-29 -818 825 0
-29 -825 820 818 0
-30 -820 825 0
-30 -819 825 0
-30 -825 820 819 0
-53 -825 820 0
-53 825 -820 0
-31 -826 821 0
-31 -826 822 0
-31 826 -821 -822 0
-32 -826 821 0
-32 -826 823 0
-32 826 -821 -823 0
-33 -826 821 0
-33 -826 824 0
-33 826 -821 -824 0
-34 -826 821 0
-34 -826 825 0
-34 826 -821 -825 0
-35 -826 821 0
-35 826 -821 0
-36 -826 821 0
-36 826 -821 0
-37 -826 821 0
-37 826 -821 0
-38 -826 821 0
-38 826 -821 0
-39 -826 821 0
-39 826 -821 0
-40 -826 821 0
-40 826 -821 0
-54 -826 821 0
-54 826 -821 0
-31 -822 827 0
-31 -821 827 0
-31 -827 822 821 0
-32 -827 822 0
-32 827 -822 0
-33 -827 822 0
-33 827 -822 0
-34 -827 822 0
-34 827 -822 0
-35 -827 822 0
-35 -827 823 0
-35 827 -822 -823 0
-36 -827 822 0
-36 -827 824 0
-36 827 -822 -824 0
-37 -827 822 0
-37 -827 825 0
-37 827 -822 -825 0
-38 -827 822 0
-38 827 -822 0
-39 -827 822 0
-39 827 -822 0
-40 -827 822 0
-40 827 -822 0
-54 -827 822 0
-54 827 -822 0
-31 -828 823 0
-31 828 -823 0
-32 -823 828 0
-32 -821 828 0
-32 -828 823 821 0
-33 -828 823 0
-33 828 -823 0
-34 -828 823 0
-34 828 -823 0
-35 -823 828 0
-35 -822 828 0
-35 -828 823 822 0
-36 -828 823 0
-36 828 -823 0
-37 -828 823 0
-37 828 -823 0
-38 -828 823 0
-38 -828 824 0
-38 828 -823 -824 0
-39 -828 823 0
-39 -828 825 0
-39 828 -823 -825 0
-40 -828 823 0
-40 828 -823 0
-54 -828 823 0
-54 828 -823 0
-31 -829 824 0
-31 829 -824 0
-32 -829 824 0
-32 829 -824 0
-33 -824 829 0
-33 -821 829 0
-33 -829 824 821 0
-34 -829 824 0
-34 829 -824 0
-35 -829 824 0
-35 829 -824 0
-36 -824 829 0
-36 -822 829 0
-36 -829 824 822 0
-37 -829 824 0
-37 829 -824 0
-38 -824 829 0
-38 -823 829 0
-38 -829 824 823 0
-39 -829 824 0
-39 829 -824 0
-40 -829 824 0
-40 -829 825 0
-40 829 -824 -825 0
-54 -829 824 0
-54 829 -824 0
-31 -830 825 0
-31 830 -825 0
-32 -830 825 0
-32 830 -825 0
-33 -830 825 0
-33 830 -825 0
-34 -825 830 0
-34 -821 830 0
-34 -830 825 821 0
-35 -830 825 0
-35 830 -825 0
-36 -830 825 0
-36 830 -825 0
-37 -825 830 0
-37 -822 830 0
-37 -830 825 822 0
-38 -830 825 0
-38 830 -825 0
-39 -825 830 0
-39 -823 830 0
-39 -830 825 823 0
-40 -825 830 0
-40 -824 830 0
-40 -830 825 824 0
-54 -830 825 0
-54 830 -825 0
-41 -831 826 0
-41 -831 827 0
-41 831 -826 -827 0
-42 -831 826 0
-42 -831 828 0
-42 831 -826 -828 0
-43 -831 826 0
-43 -831 829 0
-43 831 -826 -829 0
-44 -831 826 0
-44 -831 830 0
-44 831 -826 -830 0
-45 -831 826 0
-45 831 -826 0
-46 -831 826 0
-46 831 -826 0
-47 -831 826 0
-47 831 -826 0
-48 -831 826 0
-48 831 -826 0
-49 -831 826 0
-49 831 -826 0
-50 -831 826 0
-50 831 -826 0
-55 -831 826 0
-55 831 -826 0
-41 -827 832 0
-41 -826 832 0
-41 -832 827 826 0
-42 -832 827 0
-42 832 -827 0
-43 -832 827 0
-43 832 -827 0
-44 -832 827 0
-44 832 -827 0
-45 -832 827 0
-45 -832 828 0
-45 832 -827 -828 0
-46 -832 827 0
-46 -832 829 0
-46 832 -827 -829 0
-47 -832 827 0
-47 -832 830 0
-47 832 -827 -830 0
-48 -832 827 0
-48 832 -827 0
-49 -832 827 0
-49 832 -827 0
-50 -832 827 0
-50 832 -827 0
-55 -832 827 0
-55 832 -827 0
-41 -833 828 0
-41 833 -828 0
-42 -828 833 0
-42 -826 833 0
-42 -833 828 826 0
-43 -833 828 0
-43 833 -828 0
-44 -833 828 0
-44 833 -828 0
-45 -828 833 0
-45 -827 833 0
-45 -833 828 827 0
-46 -833 828 0
-46 833 -828 0
-47 -833 828 0
-47 833 -828 0
-48 -833 828 0
-48 -833 829 0
-48 833 -828 -829 0
-49 -833 828 0
-49 -833 830 0
-49 833 -828 -830 0
-50 -833 828 0
-50 833 -828 0
-55 -833 828 0
-55 833 -828 0
-41 -834 829 0
-41 834 -829 0
-42 -834 829 0
-42 834 -829 0
-43 -829 834 0
-43 -826 834 0
-43 -834 829 826 0
-44 -834 829 0
-44 834 -829 0
-45 -834 829 0
-45 834 -829 0
-46 -829 834 0
-46 -827 834 0
-46 -834 829 827 0
-47 -834 829 0
-47 834 -829 0
-48 -829 834 0
-48 -828 834 0
-48 -834 829 828 0
-49 -834 829 0
-49 834 -829 0
-50 -834 829 0
-50 -834 830 0
-50 834 -829 -830 0
-55 -834 829 0
-55 834 -829 0
-41 -835 830 0
-41 835 -830 0
-42 -835 830 0
-42 835 -830 0
-43 -835 830 0
-43 835 -830 0
-44 -830 835 0
-44 -826 835 0
-44 -835 830 826 0
-45 -835 830 0
-45 835 -830 0
-46 -835 830 0
-46 835 -830 0
-47 -830 835 0
-47 -827 835 0
-47 -835 830 827 0
-48 -835 830 0
-48 835 -830 0
-49 -830 835 0
-49 -828 835 0
-49 -835 830 828 0
-50 -830 835 0
-50 -829 835 0
-50 -835 830 829 0
-55 -835 830 0
-55 835 -830 0
-83 0
-113 0
-143 0
-173 0
-203 0
-233 0
-263 0
293 0
-323 0
353 0
383 0
-413 0
-443 0
-473 0
503 0
-533 0
563 0
593 0
623 0
-653 0
683 0
713 0
743 0
773 0
803 0
833 0
