p cnf 514 14149
1 2 3 4 5 6 7 8 9 10 11 12 13 14 15 61 0
-1 -2 0
-1 -3 0
-1 -4 0
-1 -5 0
-1 -6 0
-1 -7 0
-1 -8 0
-1 -9 0
-1 -10 0
-1 -11 0
-1 -12 0
-1 -13 0
-1 -14 0
-1 -15 0
-1 -61 0
-2 -3 0
-2 -4 0
-2 -5 0
-2 -6 0
-2 -7 0
-2 -8 0
-2 -9 0
-2 -10 0
-2 -11 0
-2 -12 0
-2 -13 0
-2 -14 0
-2 -15 0
-2 -61 0
-3 -4 0
-3 -5 0
-3 -6 0
-3 -7 0
-3 -8 0
-3 -9 0
-3 -10 0
-3 -11 0
-3 -12 0
-3 -13 0
-3 -14 0
-3 -15 0
-3 -61 0
-4 -5 0
-4 -6 0
-4 -7 0
-4 -8 0
-4 -9 0
-4 -10 0
-4 -11 0
-4 -12 0
-4 -13 0
-4 -14 0
-4 -15 0
-4 -61 0
-5 -6 0
-5 -7 0
-5 -8 0
-5 -9 0
-5 -10 0
-5 -11 0
-5 -12 0
-5 -13 0
-5 -14 0
-5 -15 0
-5 -61 0
-6 -7 0
-6 -8 0
-6 -9 0
-6 -10 0
-6 -11 0
-6 -12 0
-6 -13 0
-6 -14 0
-6 -15 0
-6 -61 0
-7 -8 0
-7 -9 0
-7 -10 0
-7 -11 0
-7 -12 0
-7 -13 0
-7 -14 0
-7 -15 0
-7 -61 0
-8 -9 0
-8 -10 0
-8 -11 0
-8 -12 0
-8 -13 0
-8 -14 0
-8 -15 0
-8 -61 0
-9 -10 0
-9 -11 0
-9 -12 0
-9 -13 0
-9 -14 0
-9 -15 0
-9 -61 0
-10 -11 0
-10 -12 0
-10 -13 0
-10 -14 0
-10 -15 0
-10 -61 0
-11 -12 0
-11 -13 0
-11 -14 0
-11 -15 0
-11 -61 0
-12 -13 0
-12 -14 0
-12 -15 0
-12 -61 0
-13 -14 0
-13 -15 0
-13 -61 0
-14 -15 0
-14 -61 0
-15 -61 0
16 17 18 19 20 21 22 23 24 25 26 27 28 29 30 62 0
-16 -17 0
-16 -18 0
-16 -19 0
-16 -20 0
-16 -21 0
-16 -22 0
-16 -23 0
-16 -24 0
-16 -25 0
-16 -26 0
-16 -27 0
-16 -28 0
-16 -29 0
-16 -30 0
-16 -62 0
-17 -18 0
-17 -19 0
-17 -20 0
-17 -21 0
-17 -22 0
-17 -23 0
-17 -24 0
-17 -25 0
-17 -26 0
-17 -27 0
-17 -28 0
-17 -29 0
-17 -30 0
-17 -62 0
-18 -19 0
-18 -20 0
-18 -21 0
-18 -22 0
-18 -23 0
-18 -24 0
-18 -25 0
-18 -26 0
-18 -27 0
-18 -28 0
-18 -29 0
-18 -30 0
-18 -62 0
-19 -20 0
-19 -21 0
-19 -22 0
-19 -23 0
-19 -24 0
-19 -25 0
-19 -26 0
-19 -27 0
-19 -28 0
-19 -29 0
-19 -30 0
-19 -62 0
-20 -21 0
-20 -22 0
-20 -23 0
-20 -24 0
-20 -25 0
-20 -26 0
-20 -27 0
-20 -28 0
-20 -29 0
-20 -30 0
-20 -62 0
-21 -22 0
-21 -23 0
-21 -24 0
-21 -25 0
-21 -26 0
-21 -27 0
-21 -28 0
-21 -29 0
-21 -30 0
-21 -62 0
-22 -23 0
-22 -24 0
-22 -25 0
-22 -26 0
-22 -27 0
-22 -28 0
-22 -29 0
-22 -30 0
-22 -62 0
-23 -24 0
-23 -25 0
-23 -26 0
-23 -27 0
-23 -28 0
-23 -29 0
-23 -30 0
-23 -62 0
-24 -25 0
-24 -26 0
-24 -27 0
-24 -28 0
-24 -29 0
-24 -30 0
-24 -62 0
-25 -26 0
-25 -27 0
-25 -28 0
-25 -29 0
-25 -30 0
-25 -62 0
-26 -27 0
-26 -28 0
-26 -29 0
-26 -30 0
-26 -62 0
-27 -28 0
-27 -29 0
-27 -30 0
-27 -62 0
-28 -29 0
-28 -30 0
-28 -62 0
-29 -30 0
-29 -62 0
-30 -62 0
31 32 33 34 35 36 37 38 39 40 41 42 43 44 45 63 0
-31 -32 0
-31 -33 0
-31 -34 0
-31 -35 0
-31 -36 0
-31 -37 0
-31 -38 0
-31 -39 0
-31 -40 0
-31 -41 0
-31 -42 0
-31 -43 0
-31 -44 0
-31 -45 0
-31 -63 0
-32 -33 0
-32 -34 0
-32 -35 0
-32 -36 0
-32 -37 0
-32 -38 0
-32 -39 0
-32 -40 0
-32 -41 0
-32 -42 0
-32 -43 0
-32 -44 0
-32 -45 0
-32 -63 0
-33 -34 0
-33 -35 0
-33 -36 0
-33 -37 0
-33 -38 0
-33 -39 0
-33 -40 0
-33 -41 0
-33 -42 0
-33 -43 0
-33 -44 0
-33 -45 0
-33 -63 0
-34 -35 0
-34 -36 0
-34 -37 0
-34 -38 0
-34 -39 0
-34 -40 0
-34 -41 0
-34 -42 0
-34 -43 0
-34 -44 0
-34 -45 0
-34 -63 0
-35 -36 0
-35 -37 0
-35 -38 0
-35 -39 0
-35 -40 0
-35 -41 0
-35 -42 0
-35 -43 0
-35 -44 0
-35 -45 0
-35 -63 0
-36 -37 0
-36 -38 0
-36 -39 0
-36 -40 0
-36 -41 0
-36 -42 0
-36 -43 0
-36 -44 0
-36 -45 0
-36 -63 0
-37 -38 0
-37 -39 0
-37 -40 0
-37 -41 0
-37 -42 0
-37 -43 0
-37 -44 0
-37 -45 0
-37 -63 0
-38 -39 0
-38 -40 0
-38 -41 0
-38 -42 0
-38 -43 0
-38 -44 0
-38 -45 0
-38 -63 0
-39 -40 0
-39 -41 0
-39 -42 0
-39 -43 0
-39 -44 0
-39 -45 0
-39 -63 0
-40 -41 0
-40 -42 0
-40 -43 0
-40 -44 0
-40 -45 0
-40 -63 0
-41 -42 0
-41 -43 0
-41 -44 0
-41 -45 0
-41 -63 0
-42 -43 0
-42 -44 0
-42 -45 0
-42 -63 0
-43 -44 0
-43 -45 0
-43 -63 0
-44 -45 0
-44 -63 0
-45 -63 0
46 47 48 49 50 51 52 53 54 55 56 57 58 59 60 64 0
-46 -47 0
-46 -48 0
-46 -49 0
-46 -50 0
-46 -51 0
-46 -52 0
-46 -53 0
-46 -54 0
-46 -55 0
-46 -56 0
-46 -57 0
-46 -58 0
-46 -59 0
-46 -60 0
-46 -64 0
-47 -48 0
-47 -49 0
-47 -50 0
-47 -51 0
-47 -52 0
-47 -53 0
-47 -54 0
-47 -55 0
-47 -56 0
-47 -57 0
-47 -58 0
-47 -59 0
-47 -60 0
-47 -64 0
-48 -49 0
-48 -50 0
-48 -51 0
-48 -52 0
-48 -53 0
-48 -54 0
-48 -55 0
-48 -56 0
-48 -57 0
-48 -58 0
-48 -59 0
-48 -60 0
-48 -64 0
-49 -50 0
-49 -51 0
-49 -52 0
-49 -53 0
-49 -54 0
-49 -55 0
-49 -56 0
-49 -57 0
-49 -58 0
-49 -59 0
-49 -60 0
-49 -64 0
-50 -51 0
-50 -52 0
-50 -53 0
-50 -54 0
-50 -55 0
-50 -56 0
-50 -57 0
-50 -58 0
-50 -59 0
-50 -60 0
-50 -64 0
-51 -52 0
-51 -53 0
-51 -54 0
-51 -55 0
-51 -56 0
-51 -57 0
-51 -58 0
-51 -59 0
-51 -60 0
-51 -64 0
-52 -53 0
-52 -54 0
-52 -55 0
-52 -56 0
-52 -57 0
-52 -58 0
-52 -59 0
-52 -60 0
-52 -64 0
-53 -54 0
-53 -55 0
-53 -56 0
-53 -57 0
-53 -58 0
-53 -59 0
-53 -60 0
-53 -64 0
-54 -55 0
-54 -56 0
-54 -57 0
-54 -58 0
-54 -59 0
-54 -60 0
-54 -64 0
-55 -56 0
-55 -57 0
-55 -58 0
-55 -59 0
-55 -60 0
-55 -64 0
-56 -57 0
-56 -58 0
-56 -59 0
-56 -60 0
-56 -64 0
-57 -58 0
-57 -59 0
-57 -60 0
-57 -64 0
-58 -59 0
-58 -60 0
-58 -64 0
-59 -60 0
-59 -64 0
-60 -64 0
-1 -16 0
-2 -17 0
-3 -18 0
-4 -19 0
-5 -20 0
-6 -21 0
-7 -22 0
-8 -23 0
-9 -24 0
-10 -25 0
-11 -26 0
-12 -27 0
-13 -28 0
-14 -29 0
-15 -30 0
-16 -31 0
-17 -32 0
-18 -33 0
-19 -34 0
-20 -35 0
-21 -36 0
-22 -37 0
-23 -38 0
-24 -39 0
-25 -40 0
-26 -41 0
-27 -42 0
-28 -43 0
-29 -44 0
-30 -45 0
-31 -46 0
-32 -47 0
-33 -48 0
-34 -49 0
-35 -50 0
-36 -51 0
-37 -52 0
-38 -53 0
-39 -54 0
-40 -55 0
-41 -56 0
-42 -57 0
-43 -58 0
-44 -59 0
-45 -60 0
-6 -18 0
-6 -19 0
-6 -20 0
-7 -17 0
-7 -19 0
-7 -20 0
-8 -17 0
-8 -18 0
-8 -20 0
-9 -17 0
-9 -18 0
-9 -19 0
-10 -16 0
-10 -19 0
-10 -20 0
-10 -23 0
-10 -24 0
-11 -16 0
-11 -18 0
-11 -20 0
-11 -22 0
-11 -24 0
-12 -16 0
-12 -18 0
-12 -19 0
-12 -22 0
-12 -23 0
-13 -16 0
-13 -17 0
-13 -20 0
-13 -21 0
-13 -24 0
-13 -27 0
-14 -16 0
-14 -17 0
-14 -19 0
-14 -21 0
-14 -23 0
-14 -26 0
-15 -16 0
-15 -17 0
-15 -18 0
-15 -21 0
-15 -22 0
-15 -25 0
-21 -33 0
-21 -34 0
-21 -35 0
-22 -32 0
-22 -34 0
-22 -35 0
-23 -32 0
-23 -33 0
-23 -35 0
-24 -32 0
-24 -33 0
-24 -34 0
-25 -31 0
-25 -34 0
-25 -35 0
-25 -38 0
-25 -39 0
-26 -31 0
-26 -33 0
-26 -35 0
-26 -37 0
-26 -39 0
-27 -31 0
-27 -33 0
-27 -34 0
-27 -37 0
-27 -38 0
-28 -31 0
-28 -32 0
-28 -35 0
-28 -36 0
-28 -39 0
-28 -42 0
-29 -31 0
-29 -32 0
-29 -34 0
-29 -36 0
-29 -38 0
-29 -41 0
-30 -31 0
-30 -32 0
-30 -33 0
-30 -36 0
-30 -37 0
-30 -40 0
-36 -48 0
-36 -49 0
-36 -50 0
-37 -47 0
-37 -49 0
-37 -50 0
-38 -47 0
-38 -48 0
-38 -50 0
-39 -47 0
-39 -48 0
-39 -49 0
-40 -46 0
-40 -49 0
-40 -50 0
-40 -53 0
-40 -54 0
-41 -46 0
-41 -48 0
-41 -50 0
-41 -52 0
-41 -54 0
-42 -46 0
-42 -48 0
-42 -49 0
-42 -52 0
-42 -53 0
-43 -46 0
-43 -47 0
-43 -50 0
-43 -51 0
-43 -54 0
-43 -57 0
-44 -46 0
-44 -47 0
-44 -49 0
-44 -51 0
-44 -53 0
-44 -56 0
-45 -46 0
-45 -47 0
-45 -48 0
-45 -51 0
-45 -52 0
-45 -55 0
-65 0
-1 -71 65 0
-1 -71 66 0
-1 71 -65 -66 0
-2 -71 65 0
-2 -71 67 0
-2 71 -65 -67 0
-3 -71 65 0
-3 -71 68 0
-3 71 -65 -68 0
-4 -71 65 0
-4 -71 69 0
-4 71 -65 -69 0
-5 -71 65 0
-5 -71 70 0
-5 71 -65 -70 0
-6 -71 65 0
-6 71 -65 0
-7 -71 65 0
-7 71 -65 0
-8 -71 65 0
-8 71 -65 0
-9 -71 65 0
-9 71 -65 0
-10 -71 65 0
-10 71 -65 0
-11 -71 65 0
-11 71 -65 0
-12 -71 65 0
-12 71 -65 0
-13 -71 65 0
-13 71 -65 0
-14 -71 65 0
-14 71 -65 0
-15 -71 65 0
-15 71 -65 0
-61 -71 65 0
-61 71 -65 0
-66 0
-1 -66 72 0
-1 -65 72 0
-1 -72 66 65 0
-2 -72 66 0
-2 72 -66 0
-3 -72 66 0
-3 72 -66 0
-4 -72 66 0
-4 72 -66 0
-5 -72 66 0
-5 72 -66 0
-6 -72 66 0
-6 -72 67 0
-6 72 -66 -67 0
-7 -72 66 0
-7 -72 68 0
-7 72 -66 -68 0
-8 -72 66 0
-8 -72 69 0
-8 72 -66 -69 0
-9 -72 66 0
-9 -72 70 0
-9 72 -66 -70 0
-10 -72 66 0
-10 72 -66 0
-11 -72 66 0
-11 72 -66 0
-12 -72 66 0
-12 72 -66 0
-13 -72 66 0
-13 72 -66 0
-14 -72 66 0
-14 72 -66 0
-15 -72 66 0
-15 72 -66 0
-61 -72 66 0
-61 72 -66 0
-67 0
-1 -73 67 0
-1 73 -67 0
-2 -67 73 0
-2 -65 73 0
-2 -73 67 65 0
-3 -73 67 0
-3 73 -67 0
-4 -73 67 0
-4 73 -67 0
-5 -73 67 0
-5 73 -67 0
-6 -67 73 0
-6 -66 73 0
-6 -73 67 66 0
-7 -73 67 0
-7 73 -67 0
-8 -73 67 0
-8 73 -67 0
-9 -73 67 0
-9 73 -67 0
-10 -73 67 0
-10 -73 68 0
-10 73 -67 -68 0
-11 -73 67 0
-11 -73 69 0
-11 73 -67 -69 0
-12 -73 67 0
-12 -73 70 0
-12 73 -67 -70 0
-13 -73 67 0
-13 73 -67 0
-14 -73 67 0
-14 73 -67 0
-15 -73 67 0
-15 73 -67 0
-61 -73 67 0
-61 73 -67 0
-68 0
-1 -74 68 0
-1 74 -68 0
-2 -74 68 0
-2 74 -68 0
-3 -68 74 0
-3 -65 74 0
-3 -74 68 65 0
-4 -74 68 0
-4 74 -68 0
-5 -74 68 0
-5 74 -68 0
-6 -74 68 0
-6 74 -68 0
-7 -68 74 0
-7 -66 74 0
-7 -74 68 66 0
-8 -74 68 0
-8 74 -68 0
-9 -74 68 0
-9 74 -68 0
-10 -68 74 0
-10 -67 74 0
-10 -74 68 67 0
-11 -74 68 0
-11 74 -68 0
-12 -74 68 0
-12 74 -68 0
-13 -74 68 0
-13 -74 69 0
-13 74 -68 -69 0
-14 -74 68 0
-14 -74 70 0
-14 74 -68 -70 0
-15 -74 68 0
-15 74 -68 0
-61 -74 68 0
-61 74 -68 0
-69 0
-1 -75 69 0
-1 75 -69 0
-2 -75 69 0
-2 75 -69 0
-3 -75 69 0
-3 75 -69 0
-4 -69 75 0
-4 -65 75 0
-4 -75 69 65 0
-5 -75 69 0
-5 75 -69 0
-6 -75 69 0
-6 75 -69 0
-7 -75 69 0
-7 75 -69 0
-8 -69 75 0
-8 -66 75 0
-8 -75 69 66 0
-9 -75 69 0
-9 75 -69 0
-10 -75 69 0
-10 75 -69 0
-11 -69 75 0
-11 -67 75 0
-11 -75 69 67 0
-12 -75 69 0
-12 75 -69 0
-13 -69 75 0
-13 -68 75 0
-13 -75 69 68 0
-14 -75 69 0
-14 75 -69 0
-15 -75 69 0
-15 -75 70 0
-15 75 -69 -70 0
-61 -75 69 0
-61 75 -69 0
-70 0
-1 -76 70 0
-1 76 -70 0
-2 -76 70 0
-2 76 -70 0
-3 -76 70 0
-3 76 -70 0
-4 -76 70 0
-4 76 -70 0
-5 -70 76 0
-5 -65 76 0
-5 -76 70 65 0
-6 -76 70 0
-6 76 -70 0
-7 -76 70 0
-7 76 -70 0
-8 -76 70 0
-8 76 -70 0
-9 -70 76 0
-9 -66 76 0
-9 -76 70 66 0
-10 -76 70 0
-10 76 -70 0
-11 -76 70 0
-11 76 -70 0
-12 -70 76 0
-12 -67 76 0
-12 -76 70 67 0
-13 -76 70 0
-13 76 -70 0
-14 -70 76 0
-14 -68 76 0
-14 -76 70 68 0
-15 -70 76 0
-15 -69 76 0
-15 -76 70 69 0
-61 -76 70 0
-61 76 -70 0
-16 -77 71 0
-16 -77 72 0
-16 77 -71 -72 0
-17 -77 71 0
-17 -77 73 0
-17 77 -71 -73 0
-18 -77 71 0
-18 -77 74 0
-18 77 -71 -74 0
-19 -77 71 0
-19 -77 75 0
-19 77 -71 -75 0
-20 -77 71 0
-20 -77 76 0
-20 77 -71 -76 0
-21 -77 71 0
-21 77 -71 0
-22 -77 71 0
-22 77 -71 0
-23 -77 71 0
-23 77 -71 0
-24 -77 71 0
-24 77 -71 0
-25 -77 71 0
-25 77 -71 0
-26 -77 71 0
-26 77 -71 0
-27 -77 71 0
-27 77 -71 0
-28 -77 71 0
-28 77 -71 0
-29 -77 71 0
-29 77 -71 0
-30 -77 71 0
-30 77 -71 0
-62 -77 71 0
-62 77 -71 0
-16 -72 78 0
-16 -71 78 0
-16 -78 72 71 0
-17 -78 72 0
-17 78 -72 0
-18 -78 72 0
-18 78 -72 0
-19 -78 72 0
-19 78 -72 0
-20 -78 72 0
-20 78 -72 0
-21 -78 72 0
-21 -78 73 0
-21 78 -72 -73 0
-22 -78 72 0
-22 -78 74 0
-22 78 -72 -74 0
-23 -78 72 0
-23 -78 75 0
-23 78 -72 -75 0
-24 -78 72 0
-24 -78 76 0
-24 78 -72 -76 0
-25 -78 72 0
-25 78 -72 0
-26 -78 72 0
-26 78 -72 0
-27 -78 72 0
-27 78 -72 0
-28 -78 72 0
-28 78 -72 0
-29 -78 72 0
-29 78 -72 0
-30 -78 72 0
-30 78 -72 0
-62 -78 72 0
-62 78 -72 0
-16 -79 73 0
-16 79 -73 0
-17 -73 79 0
-17 -71 79 0
-17 -79 73 71 0
-18 -79 73 0
-18 79 -73 0
-19 -79 73 0
-19 79 -73 0
-20 -79 73 0
-20 79 -73 0
-21 -73 79 0
-21 -72 79 0
-21 -79 73 72 0
-22 -79 73 0
-22 79 -73 0
-23 -79 73 0
-23 79 -73 0
-24 -79 73 0
-24 79 -73 0
-25 -79 73 0
-25 -79 74 0
-25 79 -73 -74 0
-26 -79 73 0
-26 -79 75 0
-26 79 -73 -75 0
-27 -79 73 0
-27 -79 76 0
-27 79 -73 -76 0
-28 -79 73 0
-28 79 -73 0
-29 -79 73 0
-29 79 -73 0
-30 -79 73 0
-30 79 -73 0
-62 -79 73 0
-62 79 -73 0
-16 -80 74 0
-16 80 -74 0
-17 -80 74 0
-17 80 -74 0
-18 -74 80 0
-18 -71 80 0
-18 -80 74 71 0
-19 -80 74 0
-19 80 -74 0
-20 -80 74 0
-20 80 -74 0
-21 -80 74 0
-21 80 -74 0
-22 -74 80 0
-22 -72 80 0
-22 -80 74 72 0
-23 -80 74 0
-23 80 -74 0
-24 -80 74 0
-24 80 -74 0
-25 -74 80 0
-25 -73 80 0
-25 -80 74 73 0
-26 -80 74 0
-26 80 -74 0
-27 -80 74 0
-27 80 -74 0
-28 -80 74 0
-28 -80 75 0
-28 80 -74 -75 0
-29 -80 74 0
-29 -80 76 0
-29 80 -74 -76 0
-30 -80 74 0
-30 80 -74 0
-62 -80 74 0
-62 80 -74 0
-16 -81 75 0
-16 81 -75 0
-17 -81 75 0
-17 81 -75 0
-18 -81 75 0
-18 81 -75 0
-19 -75 81 0
-19 -71 81 0
-19 -81 75 71 0
-20 -81 75 0
-20 81 -75 0
-21 -81 75 0
-21 81 -75 0
-22 -81 75 0
-22 81 -75 0
-23 -75 81 0
-23 -72 81 0
-23 -81 75 72 0
-24 -81 75 0
-24 81 -75 0
-25 -81 75 0
-25 81 -75 0
-26 -75 81 0
-26 -73 81 0
-26 -81 75 73 0
-27 -81 75 0
-27 81 -75 0
-28 -75 81 0
-28 -74 81 0
-28 -81 75 74 0
-29 -81 75 0
-29 81 -75 0
-30 -81 75 0
-30 -81 76 0
-30 81 -75 -76 0
-62 -81 75 0
-62 81 -75 0
-16 -82 76 0
-16 82 -76 0
-17 -82 76 0
-17 82 -76 0
-18 -82 76 0
-18 82 -76 0
-19 -82 76 0
-19 82 -76 0
-20 -76 82 0
-20 -71 82 0
-20 -82 76 71 0
-21 -82 76 0
-21 82 -76 0
-22 -82 76 0
-22 82 -76 0
-23 -82 76 0
-23 82 -76 0
-24 -76 82 0
-24 -72 82 0
-24 -82 76 72 0
-25 -82 76 0
-25 82 -76 0
-26 -82 76 0
-26 82 -76 0
-27 -76 82 0
-27 -73 82 0
-27 -82 76 73 0
-28 -82 76 0
-28 82 -76 0
-29 -76 82 0
-29 -74 82 0
-29 -82 76 74 0
-30 -76 82 0
-30 -75 82 0
-30 -82 76 75 0
-62 -82 76 0
-62 82 -76 0
-31 -83 77 0
-31 -83 78 0
-31 83 -77 -78 0
-32 -83 77 0
-32 -83 79 0
-32 83 -77 -79 0
-33 -83 77 0
-33 -83 80 0
-33 83 -77 -80 0
-34 -83 77 0
-34 -83 81 0
-34 83 -77 -81 0
-35 -83 77 0
-35 -83 82 0
-35 83 -77 -82 0
-36 -83 77 0
-36 83 -77 0
-37 -83 77 0
-37 83 -77 0
-38 -83 77 0
-38 83 -77 0
-39 -83 77 0
-39 83 -77 0
-40 -83 77 0
-40 83 -77 0
-41 -83 77 0
-41 83 -77 0
-42 -83 77 0
-42 83 -77 0
-43 -83 77 0
-43 83 -77 0
-44 -83 77 0
-44 83 -77 0
-45 -83 77 0
-45 83 -77 0
-63 -83 77 0
-63 83 -77 0
-31 -78 84 0
-31 -77 84 0
-31 -84 78 77 0
-32 -84 78 0
-32 84 -78 0
-33 -84 78 0
-33 84 -78 0
-34 -84 78 0
-34 84 -78 0
-35 -84 78 0
-35 84 -78 0
-36 -84 78 0
-36 -84 79 0
-36 84 -78 -79 0
-37 -84 78 0
-37 -84 80 0
-37 84 -78 -80 0
-38 -84 78 0
-38 -84 81 0
-38 84 -78 -81 0
-39 -84 78 0
-39 -84 82 0
-39 84 -78 -82 0
-40 -84 78 0
-40 84 -78 0
-41 -84 78 0
-41 84 -78 0
-42 -84 78 0
-42 84 -78 0
-43 -84 78 0
-43 84 -78 0
-44 -84 78 0
-44 84 -78 0
-45 -84 78 0
-45 84 -78 0
-63 -84 78 0
-63 84 -78 0
-31 -85 79 0
-31 85 -79 0
-32 -79 85 0
-32 -77 85 0
-32 -85 79 77 0
-33 -85 79 0
-33 85 -79 0
-34 -85 79 0
-34 85 -79 0
-35 -85 79 0
-35 85 -79 0
-36 -79 85 0
-36 -78 85 0
-36 -85 79 78 0
-37 -85 79 0
-37 85 -79 0
-38 -85 79 0
-38 85 -79 0
-39 -85 79 0
-39 85 -79 0
-40 -85 79 0
-40 -85 80 0
-40 85 -79 -80 0
-41 -85 79 0
-41 -85 81 0
-41 85 -79 -81 0
-42 -85 79 0
-42 -85 82 0
-42 85 -79 -82 0
-43 -85 79 0
-43 85 -79 0
-44 -85 79 0
-44 85 -79 0
-45 -85 79 0
-45 85 -79 0
-63 -85 79 0
-63 85 -79 0
-31 -86 80 0
-31 86 -80 0
-32 -86 80 0
-32 86 -80 0
-33 -80 86 0
-33 -77 86 0
-33 -86 80 77 0
-34 -86 80 0
-34 86 -80 0
-35 -86 80 0
-35 86 -80 0
-36 -86 80 0
-36 86 -80 0
-37 -80 86 0
-37 -78 86 0
-37 -86 80 78 0
-38 -86 80 0
-38 86 -80 0
-39 -86 80 0
-39 86 -80 0
-40 -80 86 0
-40 -79 86 0
-40 -86 80 79 0
-41 -86 80 0
-41 86 -80 0
-42 -86 80 0
-42 86 -80 0
-43 -86 80 0
-43 -86 81 0
-43 86 -80 -81 0
-44 -86 80 0
-44 -86 82 0
-44 86 -80 -82 0
-45 -86 80 0
-45 86 -80 0
-63 -86 80 0
-63 86 -80 0
-31 -87 81 0
-31 87 -81 0
-32 -87 81 0
-32 87 -81 0
-33 -87 81 0
-33 87 -81 0
-34 -81 87 0
-34 -77 87 0
-34 -87 81 77 0
-35 -87 81 0
-35 87 -81 0
-36 -87 81 0
-36 87 -81 0
-37 -87 81 0
-37 87 -81 0
-38 -81 87 0
-38 -78 87 0
-38 -87 81 78 0
-39 -87 81 0
-39 87 -81 0
-40 -87 81 0
-40 87 -81 0
-41 -81 87 0
-41 -79 87 0
-41 -87 81 79 0
-42 -87 81 0
-42 87 -81 0
-43 -81 87 0
-43 -80 87 0
-43 -87 81 80 0
-44 -87 81 0
-44 87 -81 0
-45 -87 81 0
-45 -87 82 0
-45 87 -81 -82 0
-63 -87 81 0
-63 87 -81 0
-31 -88 82 0
-31 88 -82 0
-32 -88 82 0
-32 88 -82 0
-33 -88 82 0
-33 88 -82 0
-34 -88 82 0
-34 88 -82 0
-35 -82 88 0
-35 -77 88 0
-35 -88 82 77 0
-36 -88 82 0
-36 88 -82 0
-37 -88 82 0
-37 88 -82 0
-38 -88 82 0
-38 88 -82 0
-39 -82 88 0
-39 -78 88 0
-39 -88 82 78 0
-40 -88 82 0
-40 88 -82 0
-41 -88 82 0
-41 88 -82 0
-42 -82 88 0
-42 -79 88 0
-42 -88 82 79 0
-43 -88 82 0
-43 88 -82 0
-44 -82 88 0
-44 -80 88 0
-44 -88 82 80 0
-45 -82 88 0
-45 -81 88 0
-45 -88 82 81 0
-63 -88 82 0
-63 88 -82 0
-46 -89 83 0
-46 -89 84 0
-46 89 -83 -84 0
-47 -89 83 0
-47 -89 85 0
-47 89 -83 -85 0
-48 -89 83 0
-48 -89 86 0
-48 89 -83 -86 0
-49 -89 83 0
-49 -89 87 0
-49 89 -83 -87 0
-50 -89 83 0
-50 -89 88 0
-50 89 -83 -88 0
-51 -89 83 0
-51 89 -83 0
-52 -89 83 0
-52 89 -83 0
-53 -89 83 0
-53 89 -83 0
-54 -89 83 0
-54 89 -83 0
-55 -89 83 0
-55 89 -83 0
-56 -89 83 0
-56 89 -83 0
-57 -89 83 0
-57 89 -83 0
-58 -89 83 0
-58 89 -83 0
-59 -89 83 0
-59 89 -83 0
-60 -89 83 0
-60 89 -83 0
-64 -89 83 0
-64 89 -83 0
-46 -84 90 0
-46 -83 90 0
-46 -90 84 83 0
-47 -90 84 0
-47 90 -84 0
-48 -90 84 0
-48 90 -84 0
-49 -90 84 0
-49 90 -84 0
-50 -90 84 0
-50 90 -84 0
-51 -90 84 0
-51 -90 85 0
-51 90 -84 -85 0
-52 -90 84 0
-52 -90 86 0
-52 90 -84 -86 0
-53 -90 84 0
-53 -90 87 0
-53 90 -84 -87 0
-54 -90 84 0
-54 -90 88 0
-54 90 -84 -88 0
-55 -90 84 0
-55 90 -84 0
-56 -90 84 0
-56 90 -84 0
-57 -90 84 0
-57 90 -84 0
-58 -90 84 0
-58 90 -84 0
-59 -90 84 0
-59 90 -84 0
-60 -90 84 0
-60 90 -84 0
-64 -90 84 0
-64 90 -84 0
-46 -91 85 0
-46 91 -85 0
-47 -85 91 0
-47 -83 91 0
-47 -91 85 83 0
-48 -91 85 0
-48 91 -85 0
-49 -91 85 0
-49 91 -85 0
-50 -91 85 0
-50 91 -85 0
-51 -85 91 0
-51 -84 91 0
-51 -91 85 84 0
-52 -91 85 0
-52 91 -85 0
-53 -91 85 0
-53 91 -85 0
-54 -91 85 0
-54 91 -85 0
-55 -91 85 0
-55 -91 86 0
-55 91 -85 -86 0
-56 -91 85 0
-56 -91 87 0
-56 91 -85 -87 0
-57 -91 85 0
-57 -91 88 0
-57 91 -85 -88 0
-58 -91 85 0
-58 91 -85 0
-59 -91 85 0
-59 91 -85 0
-60 -91 85 0
-60 91 -85 0
-64 -91 85 0
-64 91 -85 0
-46 -92 86 0
-46 92 -86 0
-47 -92 86 0
-47 92 -86 0
-48 -86 92 0
-48 -83 92 0
-48 -92 86 83 0
-49 -92 86 0
-49 92 -86 0
-50 -92 86 0
-50 92 -86 0
-51 -92 86 0
-51 92 -86 0
-52 -86 92 0
-52 -84 92 0
-52 -92 86 84 0
-53 -92 86 0
-53 92 -86 0
-54 -92 86 0
-54 92 -86 0
-55 -86 92 0
-55 -85 92 0
-55 -92 86 85 0
-56 -92 86 0
-56 92 -86 0
-57 -92 86 0
-57 92 -86 0
-58 -92 86 0
-58 -92 87 0
-58 92 -86 -87 0
-59 -92 86 0
-59 -92 88 0
-59 92 -86 -88 0
-60 -92 86 0
-60 92 -86 0
-64 -92 86 0
-64 92 -86 0
-46 -93 87 0
-46 93 -87 0
-47 -93 87 0
-47 93 -87 0
-48 -93 87 0
-48 93 -87 0
-49 -87 93 0
-49 -83 93 0
-49 -93 87 83 0
-50 -93 87 0
-50 93 -87 0
-51 -93 87 0
-51 93 -87 0
-52 -93 87 0
-52 93 -87 0
-53 -87 93 0
-53 -84 93 0
-53 -93 87 84 0
-54 -93 87 0
-54 93 -87 0
-55 -93 87 0
-55 93 -87 0
-56 -87 93 0
-56 -85 93 0
-56 -93 87 85 0
-57 -93 87 0
-57 93 -87 0
-58 -87 93 0
-58 -86 93 0
-58 -93 87 86 0
-59 -93 87 0
-59 93 -87 0
-60 -93 87 0
-60 -93 88 0
-60 93 -87 -88 0
-64 -93 87 0
-64 93 -87 0
-46 -94 88 0
-46 94 -88 0
-47 -94 88 0
-47 94 -88 0
-48 -94 88 0
-48 94 -88 0
-49 -94 88 0
-49 94 -88 0
-50 -88 94 0
-50 -83 94 0
-50 -94 88 83 0
-51 -94 88 0
-51 94 -88 0
-52 -94 88 0
-52 94 -88 0
-53 -94 88 0
-53 94 -88 0
-54 -88 94 0
-54 -84 94 0
-54 -94 88 84 0
-55 -94 88 0
-55 94 -88 0
-56 -94 88 0
-56 94 -88 0
-57 -88 94 0
-57 -85 94 0
-57 -94 88 85 0
-58 -94 88 0
-58 94 -88 0
-59 -88 94 0
-59 -86 94 0
-59 -94 88 86 0
-60 -88 94 0
-60 -87 94 0
-60 -94 88 87 0
-64 -94 88 0
-64 94 -88 0
-95 0
-1 -101 95 0
-1 -101 96 0
-1 101 -95 -96 0
-2 -101 95 0
-2 -101 97 0
-2 101 -95 -97 0
-3 -101 95 0
-3 -101 98 0
-3 101 -95 -98 0
-4 -101 95 0
-4 -101 99 0
-4 101 -95 -99 0
-5 -101 95 0
-5 -101 100 0
-5 101 -95 -100 0
-6 -101 95 0
-6 101 -95 0
-7 -101 95 0
-7 101 -95 0
-8 -101 95 0
-8 101 -95 0
-9 -101 95 0
-9 101 -95 0
-10 -101 95 0
-10 101 -95 0
-11 -101 95 0
-11 101 -95 0
-12 -101 95 0
-12 101 -95 0
-13 -101 95 0
-13 101 -95 0
-14 -101 95 0
-14 101 -95 0
-15 -101 95 0
-15 101 -95 0
-61 -101 95 0
-61 101 -95 0
-96 0
-1 -96 102 0
-1 -95 102 0
-1 -102 96 95 0
-2 -102 96 0
-2 102 -96 0
-3 -102 96 0
-3 102 -96 0
-4 -102 96 0
-4 102 -96 0
-5 -102 96 0
-5 102 -96 0
-6 -102 96 0
-6 -102 97 0
-6 102 -96 -97 0
-7 -102 96 0
-7 -102 98 0
-7 102 -96 -98 0
-8 -102 96 0
-8 -102 99 0
-8 102 -96 -99 0
-9 -102 96 0
-9 -102 100 0
-9 102 -96 -100 0
-10 -102 96 0
-10 102 -96 0
-11 -102 96 0
-11 102 -96 0
-12 -102 96 0
-12 102 -96 0
-13 -102 96 0
-13 102 -96 0
-14 -102 96 0
-14 102 -96 0
-15 -102 96 0
-15 102 -96 0
-61 -102 96 0
-61 102 -96 0
-97 0
-1 -103 97 0
-1 103 -97 0
-2 -97 103 0
-2 -95 103 0
-2 -103 97 95 0
-3 -103 97 0
-3 103 -97 0
-4 -103 97 0
-4 103 -97 0
-5 -103 97 0
-5 103 -97 0
-6 -97 103 0
-6 -96 103 0
-6 -103 97 96 0
-7 -103 97 0
-7 103 -97 0
-8 -103 97 0
-8 103 -97 0
-9 -103 97 0
-9 103 -97 0
-10 -103 97 0
-10 -103 98 0
-10 103 -97 -98 0
-11 -103 97 0
-11 -103 99 0
-11 103 -97 -99 0
-12 -103 97 0
-12 -103 100 0
-12 103 -97 -100 0
-13 -103 97 0
-13 103 -97 0
-14 -103 97 0
-14 103 -97 0
-15 -103 97 0
-15 103 -97 0
-61 -103 97 0
-61 103 -97 0
-98 0
-1 -104 98 0
-1 104 -98 0
-2 -104 98 0
-2 104 -98 0
-3 -98 104 0
-3 -95 104 0
-3 -104 98 95 0
-4 -104 98 0
-4 104 -98 0
-5 -104 98 0
-5 104 -98 0
-6 -104 98 0
-6 104 -98 0
-7 -98 104 0
-7 -96 104 0
-7 -104 98 96 0
-8 -104 98 0
-8 104 -98 0
-9 -104 98 0
-9 104 -98 0
-10 -98 104 0
-10 -97 104 0
-10 -104 98 97 0
-11 -104 98 0
-11 104 -98 0
-12 -104 98 0
-12 104 -98 0
-13 -104 98 0
-13 -104 99 0
-13 104 -98 -99 0
-14 -104 98 0
-14 -104 100 0
-14 104 -98 -100 0
-15 -104 98 0
-15 104 -98 0
-61 -104 98 0
-61 104 -98 0
-99 0
-1 -105 99 0
-1 105 -99 0
-2 -105 99 0
-2 105 -99 0
-3 -105 99 0
-3 105 -99 0
-4 -99 105 0
-4 -95 105 0
-4 -105 99 95 0
-5 -105 99 0
-5 105 -99 0
-6 -105 99 0
-6 105 -99 0
-7 -105 99 0
-7 105 -99 0
-8 -99 105 0
-8 -96 105 0
-8 -105 99 96 0
-9 -105 99 0
-9 105 -99 0
-10 -105 99 0
-10 105 -99 0
-11 -99 105 0
-11 -97 105 0
-11 -105 99 97 0
-12 -105 99 0
-12 105 -99 0
-13 -99 105 0
-13 -98 105 0
-13 -105 99 98 0
-14 -105 99 0
-14 105 -99 0
-15 -105 99 0
-15 -105 100 0
-15 105 -99 -100 0
-61 -105 99 0
-61 105 -99 0
100 0
-1 -106 100 0
-1 106 -100 0
-2 -106 100 0
-2 106 -100 0
-3 -106 100 0
-3 106 -100 0
-4 -106 100 0
-4 106 -100 0
-5 -100 106 0
-5 -95 106 0
-5 -106 100 95 0
-6 -106 100 0
-6 106 -100 0
-7 -106 100 0
-7 106 -100 0
-8 -106 100 0
-8 106 -100 0
-9 -100 106 0
-9 -96 106 0
-9 -106 100 96 0
-10 -106 100 0
-10 106 -100 0
-11 -106 100 0
-11 106 -100 0
-12 -100 106 0
-12 -97 106 0
-12 -106 100 97 0
-13 -106 100 0
-13 106 -100 0
-14 -100 106 0
-14 -98 106 0
-14 -106 100 98 0
-15 -100 106 0
-15 -99 106 0
-15 -106 100 99 0
-61 -106 100 0
-61 106 -100 0
-16 -107 101 0
-16 -107 102 0
-16 107 -101 -102 0
-17 -107 101 0
-17 -107 103 0
-17 107 -101 -103 0
-18 -107 101 0
-18 -107 104 0
-18 107 -101 -104 0
-19 -107 101 0
-19 -107 105 0
-19 107 -101 -105 0
-20 -107 101 0
-20 -107 106 0
-20 107 -101 -106 0
-21 -107 101 0
-21 107 -101 0
-22 -107 101 0
-22 107 -101 0
-23 -107 101 0
-23 107 -101 0
-24 -107 101 0
-24 107 -101 0
-25 -107 101 0
-25 107 -101 0
-26 -107 101 0
-26 107 -101 0
-27 -107 101 0
-27 107 -101 0
-28 -107 101 0
-28 107 -101 0
-29 -107 101 0
-29 107 -101 0
-30 -107 101 0
-30 107 -101 0
-62 -107 101 0
-62 107 -101 0
-16 -102 108 0
-16 -101 108 0
-16 -108 102 101 0
-17 -108 102 0
-17 108 -102 0
-18 -108 102 0
-18 108 -102 0
-19 -108 102 0
-19 108 -102 0
-20 -108 102 0
-20 108 -102 0
-21 -108 102 0
-21 -108 103 0
-21 108 -102 -103 0
-22 -108 102 0
-22 -108 104 0
-22 108 -102 -104 0
-23 -108 102 0
-23 -108 105 0
-23 108 -102 -105 0
-24 -108 102 0
-24 -108 106 0
-24 108 -102 -106 0
-25 -108 102 0
-25 108 -102 0
-26 -108 102 0
-26 108 -102 0
-27 -108 102 0
-27 108 -102 0
-28 -108 102 0
-28 108 -102 0
-29 -108 102 0
-29 108 -102 0
-30 -108 102 0
-30 108 -102 0
-62 -108 102 0
-62 108 -102 0
-16 -109 103 0
-16 109 -103 0
-17 -103 109 0
-17 -101 109 0
-17 -109 103 101 0
-18 -109 103 0
-18 109 -103 0
-19 -109 103 0
-19 109 -103 0
-20 -109 103 0
-20 109 -103 0
-21 -103 109 0
-21 -102 109 0
-21 -109 103 102 0
-22 -109 103 0
-22 109 -103 0
-23 -109 103 0
-23 109 -103 0
-24 -109 103 0
-24 109 -103 0
-25 -109 103 0
-25 -109 104 0
-25 109 -103 -104 0
-26 -109 103 0
-26 -109 105 0
-26 109 -103 -105 0
-27 -109 103 0
-27 -109 106 0
-27 109 -103 -106 0
-28 -109 103 0
-28 109 -103 0
-29 -109 103 0
-29 109 -103 0
-30 -109 103 0
-30 109 -103 0
-62 -109 103 0
-62 109 -103 0
-16 -110 104 0
-16 110 -104 0
-17 -110 104 0
-17 110 -104 0
-18 -104 110 0
-18 -101 110 0
-18 -110 104 101 0
-19 -110 104 0
-19 110 -104 0
-20 -110 104 0
-20 110 -104 0
-21 -110 104 0
-21 110 -104 0
-22 -104 110 0
-22 -102 110 0
-22 -110 104 102 0
-23 -110 104 0
-23 110 -104 0
-24 -110 104 0
-24 110 -104 0
-25 -104 110 0
-25 -103 110 0
-25 -110 104 103 0
-26 -110 104 0
-26 110 -104 0
-27 -110 104 0
-27 110 -104 0
-28 -110 104 0
-28 -110 105 0
-28 110 -104 -105 0
-29 -110 104 0
-29 -110 106 0
-29 110 -104 -106 0
-30 -110 104 0
-30 110 -104 0
-62 -110 104 0
-62 110 -104 0
-16 -111 105 0
-16 111 -105 0
-17 -111 105 0
-17 111 -105 0
-18 -111 105 0
-18 111 -105 0
-19 -105 111 0
-19 -101 111 0
-19 -111 105 101 0
-20 -111 105 0
-20 111 -105 0
-21 -111 105 0
-21 111 -105 0
-22 -111 105 0
-22 111 -105 0
-23 -105 111 0
-23 -102 111 0
-23 -111 105 102 0
-24 -111 105 0
-24 111 -105 0
-25 -111 105 0
-25 111 -105 0
-26 -105 111 0
-26 -103 111 0
-26 -111 105 103 0
-27 -111 105 0
-27 111 -105 0
-28 -105 111 0
-28 -104 111 0
-28 -111 105 104 0
-29 -111 105 0
-29 111 -105 0
-30 -111 105 0
-30 -111 106 0
-30 111 -105 -106 0
-62 -111 105 0
-62 111 -105 0
-16 -112 106 0
-16 112 -106 0
-17 -112 106 0
-17 112 -106 0
-18 -112 106 0
-18 112 -106 0
-19 -112 106 0
-19 112 -106 0
-20 -106 112 0
-20 -101 112 0
-20 -112 106 101 0
-21 -112 106 0
-21 112 -106 0
-22 -112 106 0
-22 112 -106 0
-23 -112 106 0
-23 112 -106 0
-24 -106 112 0
-24 -102 112 0
-24 -112 106 102 0
-25 -112 106 0
-25 112 -106 0
-26 -112 106 0
-26 112 -106 0
-27 -106 112 0
-27 -103 112 0
-27 -112 106 103 0
-28 -112 106 0
-28 112 -106 0
-29 -106 112 0
-29 -104 112 0
-29 -112 106 104 0
-30 -106 112 0
-30 -105 112 0
-30 -112 106 105 0
-62 -112 106 0
-62 112 -106 0
-31 -113 107 0
-31 -113 108 0
-31 113 -107 -108 0
-32 -113 107 0
-32 -113 109 0
-32 113 -107 -109 0
-33 -113 107 0
-33 -113 110 0
-33 113 -107 -110 0
-34 -113 107 0
-34 -113 111 0
-34 113 -107 -111 0
-35 -113 107 0
-35 -113 112 0
-35 113 -107 -112 0
-36 -113 107 0
-36 113 -107 0
-37 -113 107 0
-37 113 -107 0
-38 -113 107 0
-38 113 -107 0
-39 -113 107 0
-39 113 -107 0
-40 -113 107 0
-40 113 -107 0
-41 -113 107 0
-41 113 -107 0
-42 -113 107 0
-42 113 -107 0
-43 -113 107 0
-43 113 -107 0
-44 -113 107 0
-44 113 -107 0
-45 -113 107 0
-45 113 -107 0
-63 -113 107 0
-63 113 -107 0
-31 -108 114 0
-31 -107 114 0
-31 -114 108 107 0
-32 -114 108 0
-32 114 -108 0
-33 -114 108 0
-33 114 -108 0
-34 -114 108 0
-34 114 -108 0
-35 -114 108 0
-35 114 -108 0
-36 -114 108 0
-36 -114 109 0
-36 114 -108 -109 0
-37 -114 108 0
-37 -114 110 0
-37 114 -108 -110 0
-38 -114 108 0
-38 -114 111 0
-38 114 -108 -111 0
-39 -114 108 0
-39 -114 112 0
-39 114 -108 -112 0
-40 -114 108 0
-40 114 -108 0
-41 -114 108 0
-41 114 -108 0
-42 -114 108 0
-42 114 -108 0
-43 -114 108 0
-43 114 -108 0
-44 -114 108 0
-44 114 -108 0
-45 -114 108 0
-45 114 -108 0
-63 -114 108 0
-63 114 -108 0
-31 -115 109 0
-31 115 -109 0
-32 -109 115 0
-32 -107 115 0
-32 -115 109 107 0
-33 -115 109 0
-33 115 -109 0
-34 -115 109 0
-34 115 -109 0
-35 -115 109 0
-35 115 -109 0
-36 -109 115 0
-36 -108 115 0
-36 -115 109 108 0
-37 -115 109 0
-37 115 -109 0
-38 -115 109 0
-38 115 -109 0
-39 -115 109 0
-39 115 -109 0
-40 -115 109 0
-40 -115 110 0
-40 115 -109 -110 0
-41 -115 109 0
-41 -115 111 0
-41 115 -109 -111 0
-42 -115 109 0
-42 -115 112 0
-42 115 -109 -112 0
-43 -115 109 0
-43 115 -109 0
-44 -115 109 0
-44 115 -109 0
-45 -115 109 0
-45 115 -109 0
-63 -115 109 0
-63 115 -109 0
-31 -116 110 0
-31 116 -110 0
-32 -116 110 0
-32 116 -110 0
-33 -110 116 0
-33 -107 116 0
-33 -116 110 107 0
-34 -116 110 0
-34 116 -110 0
-35 -116 110 0
-35 116 -110 0
-36 -116 110 0
-36 116 -110 0
-37 -110 116 0
-37 -108 116 0
-37 -116 110 108 0
-38 -116 110 0
-38 116 -110 0
-39 -116 110 0
-39 116 -110 0
-40 -110 116 0
-40 -109 116 0
-40 -116 110 109 0
-41 -116 110 0
-41 116 -110 0
-42 -116 110 0
-42 116 -110 0
-43 -116 110 0
-43 -116 111 0
-43 116 -110 -111 0
-44 -116 110 0
-44 -116 112 0
-44 116 -110 -112 0
-45 -116 110 0
-45 116 -110 0
-63 -116 110 0
-63 116 -110 0
-31 -117 111 0
-31 117 -111 0
-32 -117 111 0
-32 117 -111 0
-33 -117 111 0
-33 117 -111 0
-34 -111 117 0
-34 -107 117 0
-34 -117 111 107 0
-35 -117 111 0
-35 117 -111 0
-36 -117 111 0
-36 117 -111 0
-37 -117 111 0
-37 117 -111 0
-38 -111 117 0
-38 -108 117 0
-38 -117 111 108 0
-39 -117 111 0
-39 117 -111 0
-40 -117 111 0
-40 117 -111 0
-41 -111 117 0
-41 -109 117 0
-41 -117 111 109 0
-42 -117 111 0
-42 117 -111 0
-43 -111 117 0
-43 -110 117 0
-43 -117 111 110 0
-44 -117 111 0
-44 117 -111 0
-45 -117 111 0
-45 -117 112 0
-45 117 -111 -112 0
-63 -117 111 0
-63 117 -111 0
-31 -118 112 0
-31 118 -112 0
-32 -118 112 0
-32 118 -112 0
-33 -118 112 0
-33 118 -112 0
-34 -118 112 0
-34 118 -112 0
-35 -112 118 0
-35 -107 118 0
-35 -118 112 107 0
-36 -118 112 0
-36 118 -112 0
-37 -118 112 0
-37 118 -112 0
-38 -118 112 0
-38 118 -112 0
-39 -112 118 0
-39 -108 118 0
-39 -118 112 108 0
-40 -118 112 0
-40 118 -112 0
-41 -118 112 0
-41 118 -112 0
-42 -112 118 0
-42 -109 118 0
-42 -118 112 109 0
-43 -118 112 0
-43 118 -112 0
-44 -112 118 0
-44 -110 118 0
-44 -118 112 110 0
-45 -112 118 0
-45 -111 118 0
-45 -118 112 111 0
-63 -118 112 0
-63 118 -112 0
-46 -119 113 0
-46 -119 114 0
-46 119 -113 -114 0
-47 -119 113 0
-47 -119 115 0
-47 119 -113 -115 0
-48 -119 113 0
-48 -119 116 0
-48 119 -113 -116 0
-49 -119 113 0
-49 -119 117 0
-49 119 -113 -117 0
-50 -119 113 0
-50 -119 118 0
-50 119 -113 -118 0
-51 -119 113 0
-51 119 -113 0
-52 -119 113 0
-52 119 -113 0
-53 -119 113 0
-53 119 -113 0
-54 -119 113 0
-54 119 -113 0
-55 -119 113 0
-55 119 -113 0
-56 -119 113 0
-56 119 -113 0
-57 -119 113 0
-57 119 -113 0
-58 -119 113 0
-58 119 -113 0
-59 -119 113 0
-59 119 -113 0
-60 -119 113 0
-60 119 -113 0
-64 -119 113 0
-64 119 -113 0
-46 -114 120 0
-46 -113 120 0
-46 -120 114 113 0
-47 -120 114 0
-47 120 -114 0
-48 -120 114 0
-48 120 -114 0
-49 -120 114 0
-49 120 -114 0
-50 -120 114 0
-50 120 -114 0
-51 -120 114 0
-51 -120 115 0
-51 120 -114 -115 0
-52 -120 114 0
-52 -120 116 0
-52 120 -114 -116 0
-53 -120 114 0
-53 -120 117 0
-53 120 -114 -117 0
-54 -120 114 0
-54 -120 118 0
-54 120 -114 -118 0
-55 -120 114 0
-55 120 -114 0
-56 -120 114 0
-56 120 -114 0
-57 -120 114 0
-57 120 -114 0
-58 -120 114 0
-58 120 -114 0
-59 -120 114 0
-59 120 -114 0
-60 -120 114 0
-60 120 -114 0
-64 -120 114 0
-64 120 -114 0
-46 -121 115 0
-46 121 -115 0
-47 -115 121 0
-47 -113 121 0
-47 -121 115 113 0
-48 -121 115 0
-48 121 -115 0
-49 -121 115 0
-49 121 -115 0
-50 -121 115 0
-50 121 -115 0
-51 -115 121 0
-51 -114 121 0
-51 -121 115 114 0
-52 -121 115 0
-52 121 -115 0
-53 -121 115 0
-53 121 -115 0
-54 -121 115 0
-54 121 -115 0
-55 -121 115 0
-55 -121 116 0
-55 121 -115 -116 0
-56 -121 115 0
-56 -121 117 0
-56 121 -115 -117 0
-57 -121 115 0
-57 -121 118 0
-57 121 -115 -118 0
-58 -121 115 0
-58 121 -115 0
-59 -121 115 0
-59 121 -115 0
-60 -121 115 0
-60 121 -115 0
-64 -121 115 0
-64 121 -115 0
-46 -122 116 0
-46 122 -116 0
-47 -122 116 0
-47 122 -116 0
-48 -116 122 0
-48 -113 122 0
-48 -122 116 113 0
-49 -122 116 0
-49 122 -116 0
-50 -122 116 0
-50 122 -116 0
-51 -122 116 0
-51 122 -116 0
-52 -116 122 0
-52 -114 122 0
-52 -122 116 114 0
-53 -122 116 0
-53 122 -116 0
-54 -122 116 0
-54 122 -116 0
-55 -116 122 0
-55 -115 122 0
-55 -122 116 115 0
-56 -122 116 0
-56 122 -116 0
-57 -122 116 0
-57 122 -116 0
-58 -122 116 0
-58 -122 117 0
-58 122 -116 -117 0
-59 -122 116 0
-59 -122 118 0
-59 122 -116 -118 0
-60 -122 116 0
-60 122 -116 0
-64 -122 116 0
-64 122 -116 0
-46 -123 117 0
-46 123 -117 0
-47 -123 117 0
-47 123 -117 0
-48 -123 117 0
-48 123 -117 0
-49 -117 123 0
-49 -113 123 0
-49 -123 117 113 0
-50 -123 117 0
-50 123 -117 0
-51 -123 117 0
-51 123 -117 0
-52 -123 117 0
-52 123 -117 0
-53 -117 123 0
-53 -114 123 0
-53 -123 117 114 0
-54 -123 117 0
-54 123 -117 0
-55 -123 117 0
-55 123 -117 0
-56 -117 123 0
-56 -115 123 0
-56 -123 117 115 0
-57 -123 117 0
-57 123 -117 0
-58 -117 123 0
-58 -116 123 0
-58 -123 117 116 0
-59 -123 117 0
-59 123 -117 0
-60 -123 117 0
-60 -123 118 0
-60 123 -117 -118 0
-64 -123 117 0
-64 123 -117 0
-46 -124 118 0
-46 124 -118 0
-47 -124 118 0
-47 124 -118 0
-48 -124 118 0
-48 124 -118 0
-49 -124 118 0
-49 124 -118 0
-50 -118 124 0
-50 -113 124 0
-50 -124 118 113 0
-51 -124 118 0
-51 124 -118 0
-52 -124 118 0
-52 124 -118 0
-53 -124 118 0
-53 124 -118 0
-54 -118 124 0
-54 -114 124 0
-54 -124 118 114 0
-55 -124 118 0
-55 124 -118 0
-56 -124 118 0
-56 124 -118 0
-57 -118 124 0
-57 -115 124 0
-57 -124 118 115 0
-58 -124 118 0
-58 124 -118 0
-59 -118 124 0
-59 -116 124 0
-59 -124 118 116 0
-60 -118 124 0
-60 -117 124 0
-60 -124 118 117 0
-64 -124 118 0
-64 124 -118 0
-125 0
-1 -131 125 0
-1 -131 126 0
-1 131 -125 -126 0
-2 -131 125 0
-2 -131 127 0
-2 131 -125 -127 0
-3 -131 125 0
-3 -131 128 0
-3 131 -125 -128 0
-4 -131 125 0
-4 -131 129 0
-4 131 -125 -129 0
-5 -131 125 0
-5 -131 130 0
-5 131 -125 -130 0
-6 -131 125 0
-6 131 -125 0
-7 -131 125 0
-7 131 -125 0
-8 -131 125 0
-8 131 -125 0
-9 -131 125 0
-9 131 -125 0
-10 -131 125 0
-10 131 -125 0
-11 -131 125 0
-11 131 -125 0
-12 -131 125 0
-12 131 -125 0
-13 -131 125 0
-13 131 -125 0
-14 -131 125 0
-14 131 -125 0
-15 -131 125 0
-15 131 -125 0
-61 -131 125 0
-61 131 -125 0
-126 0
-1 -126 132 0
-1 -125 132 0
-1 -132 126 125 0
-2 -132 126 0
-2 132 -126 0
-3 -132 126 0
-3 132 -126 0
-4 -132 126 0
-4 132 -126 0
-5 -132 126 0
-5 132 -126 0
-6 -132 126 0
-6 -132 127 0
-6 132 -126 -127 0
-7 -132 126 0
-7 -132 128 0
-7 132 -126 -128 0
-8 -132 126 0
-8 -132 129 0
-8 132 -126 -129 0
-9 -132 126 0
-9 -132 130 0
-9 132 -126 -130 0
-10 -132 126 0
-10 132 -126 0
-11 -132 126 0
-11 132 -126 0
-12 -132 126 0
-12 132 -126 0
-13 -132 126 0
-13 132 -126 0
-14 -132 126 0
-14 132 -126 0
-15 -132 126 0
-15 132 -126 0
-61 -132 126 0
-61 132 -126 0
-127 0
-1 -133 127 0
-1 133 -127 0
-2 -127 133 0
-2 -125 133 0
-2 -133 127 125 0
-3 -133 127 0
-3 133 -127 0
-4 -133 127 0
-4 133 -127 0
-5 -133 127 0
-5 133 -127 0
-6 -127 133 0
-6 -126 133 0
-6 -133 127 126 0
-7 -133 127 0
-7 133 -127 0
-8 -133 127 0
-8 133 -127 0
-9 -133 127 0
-9 133 -127 0
-10 -133 127 0
-10 -133 128 0
-10 133 -127 -128 0
-11 -133 127 0
-11 -133 129 0
-11 133 -127 -129 0
-12 -133 127 0
-12 -133 130 0
-12 133 -127 -130 0
-13 -133 127 0
-13 133 -127 0
-14 -133 127 0
-14 133 -127 0
-15 -133 127 0
-15 133 -127 0
-61 -133 127 0
-61 133 -127 0
-128 0
-1 -134 128 0
-1 134 -128 0
-2 -134 128 0
-2 134 -128 0
-3 -128 134 0
-3 -125 134 0
-3 -134 128 125 0
-4 -134 128 0
-4 134 -128 0
-5 -134 128 0
-5 134 -128 0
-6 -134 128 0
-6 134 -128 0
-7 -128 134 0
-7 -126 134 0
-7 -134 128 126 0
-8 -134 128 0
-8 134 -128 0
-9 -134 128 0
-9 134 -128 0
-10 -128 134 0
-10 -127 134 0
-10 -134 128 127 0
-11 -134 128 0
-11 134 -128 0
-12 -134 128 0
-12 134 -128 0
-13 -134 128 0
-13 -134 129 0
-13 134 -128 -129 0
-14 -134 128 0
-14 -134 130 0
-14 134 -128 -130 0
-15 -134 128 0
-15 134 -128 0
-61 -134 128 0
-61 134 -128 0
129 0
-1 -135 129 0
-1 135 -129 0
-2 -135 129 0
-2 135 -129 0
-3 -135 129 0
-3 135 -129 0
-4 -129 135 0
-4 -125 135 0
-4 -135 129 125 0
-5 -135 129 0
-5 135 -129 0
-6 -135 129 0
-6 135 -129 0
-7 -135 129 0
-7 135 -129 0
-8 -129 135 0
-8 -126 135 0
-8 -135 129 126 0
-9 -135 129 0
-9 135 -129 0
-10 -135 129 0
-10 135 -129 0
-11 -129 135 0
-11 -127 135 0
-11 -135 129 127 0
-12 -135 129 0
-12 135 -129 0
-13 -129 135 0
-13 -128 135 0
-13 -135 129 128 0
-14 -135 129 0
-14 135 -129 0
-15 -135 129 0
-15 -135 130 0
-15 135 -129 -130 0
-61 -135 129 0
-61 135 -129 0
130 0
-1 -136 130 0
-1 136 -130 0
-2 -136 130 0
-2 136 -130 0
-3 -136 130 0
-3 136 -130 0
-4 -136 130 0
-4 136 -130 0
-5 -130 136 0
-5 -125 136 0
-5 -136 130 125 0
-6 -136 130 0
-6 136 -130 0
-7 -136 130 0
-7 136 -130 0
-8 -136 130 0
-8 136 -130 0
-9 -130 136 0
-9 -126 136 0
-9 -136 130 126 0
-10 -136 130 0
-10 136 -130 0
-11 -136 130 0
-11 136 -130 0
-12 -130 136 0
-12 -127 136 0
-12 -136 130 127 0
-13 -136 130 0
-13 136 -130 0
-14 -130 136 0
-14 -128 136 0
-14 -136 130 128 0
-15 -130 136 0
-15 -129 136 0
-15 -136 130 129 0
-61 -136 130 0
-61 136 -130 0
-16 -137 131 0
-16 -137 132 0
-16 137 -131 -132 0
-17 -137 131 0
-17 -137 133 0
-17 137 -131 -133 0
-18 -137 131 0
-18 -137 134 0
-18 137 -131 -134 0
-19 -137 131 0
-19 -137 135 0
-19 137 -131 -135 0
-20 -137 131 0
-20 -137 136 0
-20 137 -131 -136 0
-21 -137 131 0
-21 137 -131 0
-22 -137 131 0
-22 137 -131 0
-23 -137 131 0
-23 137 -131 0
-24 -137 131 0
-24 137 -131 0
-25 -137 131 0
-25 137 -131 0
-26 -137 131 0
-26 137 -131 0
-27 -137 131 0
-27 137 -131 0
-28 -137 131 0
-28 137 -131 0
-29 -137 131 0
-29 137 -131 0
-30 -137 131 0
-30 137 -131 0
-62 -137 131 0
-62 137 -131 0
-16 -132 138 0
-16 -131 138 0
-16 -138 132 131 0
-17 -138 132 0
-17 138 -132 0
-18 -138 132 0
-18 138 -132 0
-19 -138 132 0
-19 138 -132 0
-20 -138 132 0
-20 138 -132 0
-21 -138 132 0
-21 -138 133 0
-21 138 -132 -133 0
-22 -138 132 0
-22 -138 134 0
-22 138 -132 -134 0
-23 -138 132 0
-23 -138 135 0
-23 138 -132 -135 0
-24 -138 132 0
-24 -138 136 0
-24 138 -132 -136 0
-25 -138 132 0
-25 138 -132 0
-26 -138 132 0
-26 138 -132 0
-27 -138 132 0
-27 138 -132 0
-28 -138 132 0
-28 138 -132 0
-29 -138 132 0
-29 138 -132 0
-30 -138 132 0
-30 138 -132 0
-62 -138 132 0
-62 138 -132 0
-16 -139 133 0
-16 139 -133 0
-17 -133 139 0
-17 -131 139 0
-17 -139 133 131 0
-18 -139 133 0
-18 139 -133 0
-19 -139 133 0
-19 139 -133 0
-20 -139 133 0
-20 139 -133 0
-21 -133 139 0
-21 -132 139 0
-21 -139 133 132 0
-22 -139 133 0
-22 139 -133 0
-23 -139 133 0
-23 139 -133 0
-24 -139 133 0
-24 139 -133 0
-25 -139 133 0
-25 -139 134 0
-25 139 -133 -134 0
-26 -139 133 0
-26 -139 135 0
-26 139 -133 -135 0
-27 -139 133 0
-27 -139 136 0
-27 139 -133 -136 0
-28 -139 133 0
-28 139 -133 0
-29 -139 133 0
-29 139 -133 0
-30 -139 133 0
-30 139 -133 0
-62 -139 133 0
-62 139 -133 0
-16 -140 134 0
-16 140 -134 0
-17 -140 134 0
-17 140 -134 0
-18 -134 140 0
-18 -131 140 0
-18 -140 134 131 0
-19 -140 134 0
-19 140 -134 0
-20 -140 134 0
-20 140 -134 0
-21 -140 134 0
-21 140 -134 0
-22 -134 140 0
-22 -132 140 0
-22 -140 134 132 0
-23 -140 134 0
-23 140 -134 0
-24 -140 134 0
-24 140 -134 0
-25 -134 140 0
-25 -133 140 0
-25 -140 134 133 0
-26 -140 134 0
-26 140 -134 0
-27 -140 134 0
-27 140 -134 0
-28 -140 134 0
-28 -140 135 0
-28 140 -134 -135 0
-29 -140 134 0
-29 -140 136 0
-29 140 -134 -136 0
-30 -140 134 0
-30 140 -134 0
-62 -140 134 0
-62 140 -134 0
-16 -141 135 0
-16 141 -135 0
-17 -141 135 0
-17 141 -135 0
-18 -141 135 0
-18 141 -135 0
-19 -135 141 0
-19 -131 141 0
-19 -141 135 131 0
-20 -141 135 0
-20 141 -135 0
-21 -141 135 0
-21 141 -135 0
-22 -141 135 0
-22 141 -135 0
-23 -135 141 0
-23 -132 141 0
-23 -141 135 132 0
-24 -141 135 0
-24 141 -135 0
-25 -141 135 0
-25 141 -135 0
-26 -135 141 0
-26 -133 141 0
-26 -141 135 133 0
-27 -141 135 0
-27 141 -135 0
-28 -135 141 0
-28 -134 141 0
-28 -141 135 134 0
-29 -141 135 0
-29 141 -135 0
-30 -141 135 0
-30 -141 136 0
-30 141 -135 -136 0
-62 -141 135 0
-62 141 -135 0
-16 -142 136 0
-16 142 -136 0
-17 -142 136 0
-17 142 -136 0
-18 -142 136 0
-18 142 -136 0
-19 -142 136 0
-19 142 -136 0
-20 -136 142 0
-20 -131 142 0
-20 -142 136 131 0
-21 -142 136 0
-21 142 -136 0
-22 -142 136 0
-22 142 -136 0
-23 -142 136 0
-23 142 -136 0
-24 -136 142 0
-24 -132 142 0
-24 -142 136 132 0
-25 -142 136 0
-25 142 -136 0
-26 -142 136 0
-26 142 -136 0
-27 -136 142 0
-27 -133 142 0
-27 -142 136 133 0
-28 -142 136 0
-28 142 -136 0
-29 -136 142 0
-29 -134 142 0
-29 -142 136 134 0
-30 -136 142 0
-30 -135 142 0
-30 -142 136 135 0
-62 -142 136 0
-62 142 -136 0
-31 -143 137 0
-31 -143 138 0
-31 143 -137 -138 0
-32 -143 137 0
-32 -143 139 0
-32 143 -137 -139 0
-33 -143 137 0
-33 -143 140 0
-33 143 -137 -140 0
-34 -143 137 0
-34 -143 141 0
-34 143 -137 -141 0
-35 -143 137 0
-35 -143 142 0
-35 143 -137 -142 0
-36 -143 137 0
-36 143 -137 0
-37 -143 137 0
-37 143 -137 0
-38 -143 137 0
-38 143 -137 0
-39 -143 137 0
-39 143 -137 0
-40 -143 137 0
-40 143 -137 0
-41 -143 137 0
-41 143 -137 0
-42 -143 137 0
-42 143 -137 0
-43 -143 137 0
-43 143 -137 0
-44 -143 137 0
-44 143 -137 0
-45 -143 137 0
-45 143 -137 0
-63 -143 137 0
-63 143 -137 0
-31 -138 144 0
-31 -137 144 0
-31 -144 138 137 0
-32 -144 138 0
-32 144 -138 0
-33 -144 138 0
-33 144 -138 0
-34 -144 138 0
-34 144 -138 0
-35 -144 138 0
-35 144 -138 0
-36 -144 138 0
-36 -144 139 0
-36 144 -138 -139 0
-37 -144 138 0
-37 -144 140 0
-37 144 -138 -140 0
-38 -144 138 0
-38 -144 141 0
-38 144 -138 -141 0
-39 -144 138 0
-39 -144 142 0
-39 144 -138 -142 0
-40 -144 138 0
-40 144 -138 0
-41 -144 138 0
-41 144 -138 0
-42 -144 138 0
-42 144 -138 0
-43 -144 138 0
-43 144 -138 0
-44 -144 138 0
-44 144 -138 0
-45 -144 138 0
-45 144 -138 0
-63 -144 138 0
-63 144 -138 0
-31 -145 139 0
-31 145 -139 0
-32 -139 145 0
-32 -137 145 0
-32 -145 139 137 0
-33 -145 139 0
-33 145 -139 0
-34 -145 139 0
-34 145 -139 0
-35 -145 139 0
-35 145 -139 0
-36 -139 145 0
-36 -138 145 0
-36 -145 139 138 0
-37 -145 139 0
-37 145 -139 0
-38 -145 139 0
-38 145 -139 0
-39 -145 139 0
-39 145 -139 0
-40 -145 139 0
-40 -145 140 0
-40 145 -139 -140 0
-41 -145 139 0
-41 -145 141 0
-41 145 -139 -141 0
-42 -145 139 0
-42 -145 142 0
-42 145 -139 -142 0
-43 -145 139 0
-43 145 -139 0
-44 -145 139 0
-44 145 -139 0
-45 -145 139 0
-45 145 -139 0
-63 -145 139 0
-63 145 -139 0
-31 -146 140 0
-31 146 -140 0
-32 -146 140 0
-32 146 -140 0
-33 -140 146 0
-33 -137 146 0
-33 -146 140 137 0
-34 -146 140 0
-34 146 -140 0
-35 -146 140 0
-35 146 -140 0
-36 -146 140 0
-36 146 -140 0
-37 -140 146 0
-37 -138 146 0
-37 -146 140 138 0
-38 -146 140 0
-38 146 -140 0
-39 -146 140 0
-39 146 -140 0
-40 -140 146 0
-40 -139 146 0
-40 -146 140 139 0
-41 -146 140 0
-41 146 -140 0
-42 -146 140 0
-42 146 -140 0
-43 -146 140 0
-43 -146 141 0
-43 146 -140 -141 0
-44 -146 140 0
-44 -146 142 0
-44 146 -140 -142 0
-45 -146 140 0
-45 146 -140 0
-63 -146 140 0
-63 146 -140 0
-31 -147 141 0
-31 147 -141 0
-32 -147 141 0
-32 147 -141 0
-33 -147 141 0
-33 147 -141 0
-34 -141 147 0
-34 -137 147 0
-34 -147 141 137 0
-35 -147 141 0
-35 147 -141 0
-36 -147 141 0
-36 147 -141 0
-37 -147 141 0
-37 147 -141 0
-38 -141 147 0
-38 -138 147 0
-38 -147 141 138 0
-39 -147 141 0
-39 147 -141 0
-40 -147 141 0
-40 147 -141 0
-41 -141 147 0
-41 -139 147 0
-41 -147 141 139 0
-42 -147 141 0
-42 147 -141 0
-43 -141 147 0
-43 -140 147 0
-43 -147 141 140 0
-44 -147 141 0
-44 147 -141 0
-45 -147 141 0
-45 -147 142 0
-45 147 -141 -142 0
-63 -147 141 0
-63 147 -141 0
-31 -148 142 0
-31 148 -142 0
-32 -148 142 0
-32 148 -142 0
-33 -148 142 0
-33 148 -142 0
-34 -148 142 0
-34 148 -142 0
-35 -142 148 0
-35 -137 148 0
-35 -148 142 137 0
-36 -148 142 0
-36 148 -142 0
-37 -148 142 0
-37 148 -142 0
-38 -148 142 0
-38 148 -142 0
-39 -142 148 0
-39 -138 148 0
-39 -148 142 138 0
-40 -148 142 0
-40 148 -142 0
-41 -148 142 0
-41 148 -142 0
-42 -142 148 0
-42 -139 148 0
-42 -148 142 139 0
-43 -148 142 0
-43 148 -142 0
-44 -142 148 0
-44 -140 148 0
-44 -148 142 140 0
-45 -142 148 0
-45 -141 148 0
-45 -148 142 141 0
-63 -148 142 0
-63 148 -142 0
-46 -149 143 0
-46 -149 144 0
-46 149 -143 -144 0
-47 -149 143 0
-47 -149 145 0
-47 149 -143 -145 0
-48 -149 143 0
-48 -149 146 0
-48 149 -143 -146 0
-49 -149 143 0
-49 -149 147 0
-49 149 -143 -147 0
-50 -149 143 0
-50 -149 148 0
-50 149 -143 -148 0
-51 -149 143 0
-51 149 -143 0
-52 -149 143 0
-52 149 -143 0
-53 -149 143 0
-53 149 -143 0
-54 -149 143 0
-54 149 -143 0
-55 -149 143 0
-55 149 -143 0
-56 -149 143 0
-56 149 -143 0
-57 -149 143 0
-57 149 -143 0
-58 -149 143 0
-58 149 -143 0
-59 -149 143 0
-59 149 -143 0
-60 -149 143 0
-60 149 -143 0
-64 -149 143 0
-64 149 -143 0
-46 -144 150 0
-46 -143 150 0
-46 -150 144 143 0
-47 -150 144 0
-47 150 -144 0
-48 -150 144 0
-48 150 -144 0
-49 -150 144 0
-49 150 -144 0
-50 -150 144 0
-50 150 -144 0
-51 -150 144 0
-51 -150 145 0
-51 150 -144 -145 0
-52 -150 144 0
-52 -150 146 0
-52 150 -144 -146 0
-53 -150 144 0
-53 -150 147 0
-53 150 -144 -147 0
-54 -150 144 0
-54 -150 148 0
-54 150 -144 -148 0
-55 -150 144 0
-55 150 -144 0
-56 -150 144 0
-56 150 -144 0
-57 -150 144 0
-57 150 -144 0
-58 -150 144 0
-58 150 -144 0
-59 -150 144 0
-59 150 -144 0
-60 -150 144 0
-60 150 -144 0
-64 -150 144 0
-64 150 -144 0
-46 -151 145 0
-46 151 -145 0
-47 -145 151 0
-47 -143 151 0
-47 -151 145 143 0
-48 -151 145 0
-48 151 -145 0
-49 -151 145 0
-49 151 -145 0
-50 -151 145 0
-50 151 -145 0
-51 -145 151 0
-51 -144 151 0
-51 -151 145 144 0
-52 -151 145 0
-52 151 -145 0
-53 -151 145 0
-53 151 -145 0
-54 -151 145 0
-54 151 -145 0
-55 -151 145 0
-55 -151 146 0
-55 151 -145 -146 0
-56 -151 145 0
-56 -151 147 0
-56 151 -145 -147 0
-57 -151 145 0
-57 -151 148 0
-57 151 -145 -148 0
-58 -151 145 0
-58 151 -145 0
-59 -151 145 0
-59 151 -145 0
-60 -151 145 0
-60 151 -145 0
-64 -151 145 0
-64 151 -145 0
-46 -152 146 0
-46 152 -146 0
-47 -152 146 0
-47 152 -146 0
-48 -146 152 0
-48 -143 152 0
-48 -152 146 143 0
-49 -152 146 0
-49 152 -146 0
-50 -152 146 0
-50 152 -146 0
-51 -152 146 0
-51 152 -146 0
-52 -146 152 0
-52 -144 152 0
-52 -152 146 144 0
-53 -152 146 0
-53 152 -146 0
-54 -152 146 0
-54 152 -146 0
-55 -146 152 0
-55 -145 152 0
-55 -152 146 145 0
-56 -152 146 0
-56 152 -146 0
-57 -152 146 0
-57 152 -146 0
-58 -152 146 0
-58 -152 147 0
-58 152 -146 -147 0
-59 -152 146 0
-59 -152 148 0
-59 152 -146 -148 0
-60 -152 146 0
-60 152 -146 0
-64 -152 146 0
-64 152 -146 0
-46 -153 147 0
-46 153 -147 0
-47 -153 147 0
-47 153 -147 0
-48 -153 147 0
-48 153 -147 0
-49 -147 153 0
-49 -143 153 0
-49 -153 147 143 0
-50 -153 147 0
-50 153 -147 0
-51 -153 147 0
-51 153 -147 0
-52 -153 147 0
-52 153 -147 0
-53 -147 153 0
-53 -144 153 0
-53 -153 147 144 0
-54 -153 147 0
-54 153 -147 0
-55 -153 147 0
-55 153 -147 0
-56 -147 153 0
-56 -145 153 0
-56 -153 147 145 0
-57 -153 147 0
-57 153 -147 0
-58 -147 153 0
-58 -146 153 0
-58 -153 147 146 0
-59 -153 147 0
-59 153 -147 0
-60 -153 147 0
-60 -153 148 0
-60 153 -147 -148 0
-64 -153 147 0
-64 153 -147 0
-46 -154 148 0
-46 154 -148 0
-47 -154 148 0
-47 154 -148 0
-48 -154 148 0
-48 154 -148 0
-49 -154 148 0
-49 154 -148 0
-50 -148 154 0
-50 -143 154 0
-50 -154 148 143 0
-51 -154 148 0
-51 154 -148 0
-52 -154 148 0
-52 154 -148 0
-53 -154 148 0
-53 154 -148 0
-54 -148 154 0
-54 -144 154 0
-54 -154 148 144 0
-55 -154 148 0
-55 154 -148 0
-56 -154 148 0
-56 154 -148 0
-57 -148 154 0
-57 -145 154 0
-57 -154 148 145 0
-58 -154 148 0
-58 154 -148 0
-59 -148 154 0
-59 -146 154 0
-59 -154 148 146 0
-60 -148 154 0
-60 -147 154 0
-60 -154 148 147 0
-64 -154 148 0
-64 154 -148 0
-155 0
-1 -161 155 0
-1 -161 156 0
-1 161 -155 -156 0
-2 -161 155 0
-2 -161 157 0
-2 161 -155 -157 0
-3 -161 155 0
-3 -161 158 0
-3 161 -155 -158 0
-4 -161 155 0
-4 -161 159 0
-4 161 -155 -159 0
-5 -161 155 0
-5 -161 160 0
-5 161 -155 -160 0
-6 -161 155 0
-6 161 -155 0
-7 -161 155 0
-7 161 -155 0
-8 -161 155 0
-8 161 -155 0
-9 -161 155 0
-9 161 -155 0
-10 -161 155 0
-10 161 -155 0
-11 -161 155 0
-11 161 -155 0
-12 -161 155 0
-12 161 -155 0
-13 -161 155 0
-13 161 -155 0
-14 -161 155 0
-14 161 -155 0
-15 -161 155 0
-15 161 -155 0
-61 -161 155 0
-61 161 -155 0
-156 0
-1 -156 162 0
-1 -155 162 0
-1 -162 156 155 0
-2 -162 156 0
-2 162 -156 0
-3 -162 156 0
-3 162 -156 0
-4 -162 156 0
-4 162 -156 0
-5 -162 156 0
-5 162 -156 0
-6 -162 156 0
-6 -162 157 0
-6 162 -156 -157 0
-7 -162 156 0
-7 -162 158 0
-7 162 -156 -158 0
-8 -162 156 0
-8 -162 159 0
-8 162 -156 -159 0
-9 -162 156 0
-9 -162 160 0
-9 162 -156 -160 0
-10 -162 156 0
-10 162 -156 0
-11 -162 156 0
-11 162 -156 0
-12 -162 156 0
-12 162 -156 0
-13 -162 156 0
-13 162 -156 0
-14 -162 156 0
-14 162 -156 0
-15 -162 156 0
-15 162 -156 0
-61 -162 156 0
-61 162 -156 0
-157 0
-1 -163 157 0
-1 163 -157 0
-2 -157 163 0
-2 -155 163 0
-2 -163 157 155 0
-3 -163 157 0
-3 163 -157 0
-4 -163 157 0
-4 163 -157 0
-5 -163 157 0
-5 163 -157 0
-6 -157 163 0
-6 -156 163 0
-6 -163 157 156 0
-7 -163 157 0
-7 163 -157 0
-8 -163 157 0
-8 163 -157 0
-9 -163 157 0
-9 163 -157 0
-10 -163 157 0
-10 -163 158 0
-10 163 -157 -158 0
-11 -163 157 0
-11 -163 159 0
-11 163 -157 -159 0
-12 -163 157 0
-12 -163 160 0
-12 163 -157 -160 0
-13 -163 157 0
-13 163 -157 0
-14 -163 157 0
-14 163 -157 0
-15 -163 157 0
-15 163 -157 0
-61 -163 157 0
-61 163 -157 0
158 0
-1 -164 158 0
-1 164 -158 0
-2 -164 158 0
-2 164 -158 0
-3 -158 164 0
-3 -155 164 0
-3 -164 158 155 0
-4 -164 158 0
-4 164 -158 0
-5 -164 158 0
-5 164 -158 0
-6 -164 158 0
-6 164 -158 0
-7 -158 164 0
-7 -156 164 0
-7 -164 158 156 0
-8 -164 158 0
-8 164 -158 0
-9 -164 158 0
-9 164 -158 0
-10 -158 164 0
-10 -157 164 0
-10 -164 158 157 0
-11 -164 158 0
-11 164 -158 0
-12 -164 158 0
-12 164 -158 0
-13 -164 158 0
-13 -164 159 0
-13 164 -158 -159 0
-14 -164 158 0
-14 -164 160 0
-14 164 -158 -160 0
-15 -164 158 0
-15 164 -158 0
-61 -164 158 0
-61 164 -158 0
159 0
-1 -165 159 0
-1 165 -159 0
-2 -165 159 0
-2 165 -159 0
-3 -165 159 0
-3 165 -159 0
-4 -159 165 0
-4 -155 165 0
-4 -165 159 155 0
-5 -165 159 0
-5 165 -159 0
-6 -165 159 0
-6 165 -159 0
-7 -165 159 0
-7 165 -159 0
-8 -159 165 0
-8 -156 165 0
-8 -165 159 156 0
-9 -165 159 0
-9 165 -159 0
-10 -165 159 0
-10 165 -159 0
-11 -159 165 0
-11 -157 165 0
-11 -165 159 157 0
-12 -165 159 0
-12 165 -159 0
-13 -159 165 0
-13 -158 165 0
-13 -165 159 158 0
-14 -165 159 0
-14 165 -159 0
-15 -165 159 0
-15 -165 160 0
-15 165 -159 -160 0
-61 -165 159 0
-61 165 -159 0
160 0
-1 -166 160 0
-1 166 -160 0
-2 -166 160 0
-2 166 -160 0
-3 -166 160 0
-3 166 -160 0
-4 -166 160 0
-4 166 -160 0
-5 -160 166 0
-5 -155 166 0
-5 -166 160 155 0
-6 -166 160 0
-6 166 -160 0
-7 -166 160 0
-7 166 -160 0
-8 -166 160 0
-8 166 -160 0
-9 -160 166 0
-9 -156 166 0
-9 -166 160 156 0
-10 -166 160 0
-10 166 -160 0
-11 -166 160 0
-11 166 -160 0
-12 -160 166 0
-12 -157 166 0
-12 -166 160 157 0
-13 -166 160 0
-13 166 -160 0
-14 -160 166 0
-14 -158 166 0
-14 -166 160 158 0
-15 -160 166 0
-15 -159 166 0
-15 -166 160 159 0
-61 -166 160 0
-61 166 -160 0
-16 -167 161 0
-16 -167 162 0
-16 167 -161 -162 0
-17 -167 161 0
-17 -167 163 0
-17 167 -161 -163 0
-18 -167 161 0
-18 -167 164 0
-18 167 -161 -164 0
-19 -167 161 0
-19 -167 165 0
-19 167 -161 -165 0
-20 -167 161 0
-20 -167 166 0
-20 167 -161 -166 0
-21 -167 161 0
-21 167 -161 0
-22 -167 161 0
-22 167 -161 0
-23 -167 161 0
-23 167 -161 0
-24 -167 161 0
-24 167 -161 0
-25 -167 161 0
-25 167 -161 0
-26 -167 161 0
-26 167 -161 0
-27 -167 161 0
-27 167 -161 0
-28 -167 161 0
-28 167 -161 0
-29 -167 161 0
-29 167 -161 0
-30 -167 161 0
-30 167 -161 0
-62 -167 161 0
-62 167 -161 0
-16 -162 168 0
-16 -161 168 0
-16 -168 162 161 0
-17 -168 162 0
-17 168 -162 0
-18 -168 162 0
-18 168 -162 0
-19 -168 162 0
-19 168 -162 0
-20 -168 162 0
-20 168 -162 0
-21 -168 162 0
-21 -168 163 0
-21 168 -162 -163 0
-22 -168 162 0
-22 -168 164 0
-22 168 -162 -164 0
-23 -168 162 0
-23 -168 165 0
-23 168 -162 -165 0
-24 -168 162 0
-24 -168 166 0
-24 168 -162 -166 0
-25 -168 162 0
-25 168 -162 0
-26 -168 162 0
-26 168 -162 0
-27 -168 162 0
-27 168 -162 0
-28 -168 162 0
-28 168 -162 0
-29 -168 162 0
-29 168 -162 0
-30 -168 162 0
-30 168 -162 0
-62 -168 162 0
-62 168 -162 0
-16 -169 163 0
-16 169 -163 0
-17 -163 169 0
-17 -161 169 0
-17 -169 163 161 0
-18 -169 163 0
-18 169 -163 0
-19 -169 163 0
-19 169 -163 0
-20 -169 163 0
-20 169 -163 0
-21 -163 169 0
-21 -162 169 0
-21 -169 163 162 0
-22 -169 163 0
-22 169 -163 0
-23 -169 163 0
-23 169 -163 0
-24 -169 163 0
-24 169 -163 0
-25 -169 163 0
-25 -169 164 0
-25 169 -163 -164 0
-26 -169 163 0
-26 -169 165 0
-26 169 -163 -165 0
-27 -169 163 0
-27 -169 166 0
-27 169 -163 -166 0
-28 -169 163 0
-28 169 -163 0
-29 -169 163 0
-29 169 -163 0
-30 -169 163 0
-30 169 -163 0
-62 -169 163 0
-62 169 -163 0
-16 -170 164 0
-16 170 -164 0
-17 -170 164 0
-17 170 -164 0
-18 -164 170 0
-18 -161 170 0
-18 -170 164 161 0
-19 -170 164 0
-19 170 -164 0
-20 -170 164 0
-20 170 -164 0
-21 -170 164 0
-21 170 -164 0
-22 -164 170 0
-22 -162 170 0
-22 -170 164 162 0
-23 -170 164 0
-23 170 -164 0
-24 -170 164 0
-24 170 -164 0
-25 -164 170 0
-25 -163 170 0
-25 -170 164 163 0
-26 -170 164 0
-26 170 -164 0
-27 -170 164 0
-27 170 -164 0
-28 -170 164 0
-28 -170 165 0
-28 170 -164 -165 0
-29 -170 164 0
-29 -170 166 0
-29 170 -164 -166 0
-30 -170 164 0
-30 170 -164 0
-62 -170 164 0
-62 170 -164 0
-16 -171 165 0
-16 171 -165 0
-17 -171 165 0
-17 171 -165 0
-18 -171 165 0
-18 171 -165 0
-19 -165 171 0
-19 -161 171 0
-19 -171 165 161 0
-20 -171 165 0
-20 171 -165 0
-21 -171 165 0
-21 171 -165 0
-22 -171 165 0
-22 171 -165 0
-23 -165 171 0
-23 -162 171 0
-23 -171 165 162 0
-24 -171 165 0
-24 171 -165 0
-25 -171 165 0
-25 171 -165 0
-26 -165 171 0
-26 -163 171 0
-26 -171 165 163 0
-27 -171 165 0
-27 171 -165 0
-28 -165 171 0
-28 -164 171 0
-28 -171 165 164 0
-29 -171 165 0
-29 171 -165 0
-30 -171 165 0
-30 -171 166 0
-30 171 -165 -166 0
-62 -171 165 0
-62 171 -165 0
-16 -172 166 0
-16 172 -166 0
-17 -172 166 0
-17 172 -166 0
-18 -172 166 0
-18 172 -166 0
-19 -172 166 0
-19 172 -166 0
-20 -166 172 0
-20 -161 172 0
-20 -172 166 161 0
-21 -172 166 0
-21 172 -166 0
-22 -172 166 0
-22 172 -166 0
-23 -172 166 0
-23 172 -166 0
-24 -166 172 0
-24 -162 172 0
-24 -172 166 162 0
-25 -172 166 0
-25 172 -166 0
-26 -172 166 0
-26 172 -166 0
-27 -166 172 0
-27 -163 172 0
-27 -172 166 163 0
-28 -172 166 0
-28 172 -166 0
-29 -166 172 0
-29 -164 172 0
-29 -172 166 164 0
-30 -166 172 0
-30 -165 172 0
-30 -172 166 165 0
-62 -172 166 0
-62 172 -166 0
-31 -173 167 0
-31 -173 168 0
-31 173 -167 -168 0
-32 -173 167 0
-32 -173 169 0
-32 173 -167 -169 0
-33 -173 167 0
-33 -173 170 0
-33 173 -167 -170 0
-34 -173 167 0
-34 -173 171 0
-34 173 -167 -171 0
-35 -173 167 0
-35 -173 172 0
-35 173 -167 -172 0
-36 -173 167 0
-36 173 -167 0
-37 -173 167 0
-37 173 -167 0
-38 -173 167 0
-38 173 -167 0
-39 -173 167 0
-39 173 -167 0
-40 -173 167 0
-40 173 -167 0
-41 -173 167 0
-41 173 -167 0
-42 -173 167 0
-42 173 -167 0
-43 -173 167 0
-43 173 -167 0
-44 -173 167 0
-44 173 -167 0
-45 -173 167 0
-45 173 -167 0
-63 -173 167 0
-63 173 -167 0
-31 -168 174 0
-31 -167 174 0
-31 -174 168 167 0
-32 -174 168 0
-32 174 -168 0
-33 -174 168 0
-33 174 -168 0
-34 -174 168 0
-34 174 -168 0
-35 -174 168 0
-35 174 -168 0
-36 -174 168 0
-36 -174 169 0
-36 174 -168 -169 0
-37 -174 168 0
-37 -174 170 0
-37 174 -168 -170 0
-38 -174 168 0
-38 -174 171 0
-38 174 -168 -171 0
-39 -174 168 0
-39 -174 172 0
-39 174 -168 -172 0
-40 -174 168 0
-40 174 -168 0
-41 -174 168 0
-41 174 -168 0
-42 -174 168 0
-42 174 -168 0
-43 -174 168 0
-43 174 -168 0
-44 -174 168 0
-44 174 -168 0
-45 -174 168 0
-45 174 -168 0
-63 -174 168 0
-63 174 -168 0
-31 -175 169 0
-31 175 -169 0
-32 -169 175 0
-32 -167 175 0
-32 -175 169 167 0
-33 -175 169 0
-33 175 -169 0
-34 -175 169 0
-34 175 -169 0
-35 -175 169 0
-35 175 -169 0
-36 -169 175 0
-36 -168 175 0
-36 -175 169 168 0
-37 -175 169 0
-37 175 -169 0
-38 -175 169 0
-38 175 -169 0
-39 -175 169 0
-39 175 -169 0
-40 -175 169 0
-40 -175 170 0
-40 175 -169 -170 0
-41 -175 169 0
-41 -175 171 0
-41 175 -169 -171 0
-42 -175 169 0
-42 -175 172 0
-42 175 -169 -172 0
-43 -175 169 0
-43 175 -169 0
-44 -175 169 0
-44 175 -169 0
-45 -175 169 0
-45 175 -169 0
-63 -175 169 0
-63 175 -169 0
-31 -176 170 0
-31 176 -170 0
-32 -176 170 0
-32 176 -170 0
-33 -170 176 0
-33 -167 176 0
-33 -176 170 167 0
-34 -176 170 0
-34 176 -170 0
-35 -176 170 0
-35 176 -170 0
-36 -176 170 0
-36 176 -170 0
-37 -170 176 0
-37 -168 176 0
-37 -176 170 168 0
-38 -176 170 0
-38 176 -170 0
-39 -176 170 0
-39 176 -170 0
-40 -170 176 0
-40 -169 176 0
-40 -176 170 169 0
-41 -176 170 0
-41 176 -170 0
-42 -176 170 0
-42 176 -170 0
-43 -176 170 0
-43 -176 171 0
-43 176 -170 -171 0
-44 -176 170 0
-44 -176 172 0
-44 176 -170 -172 0
-45 -176 170 0
-45 176 -170 0
-63 -176 170 0
-63 176 -170 0
-31 -177 171 0
-31 177 -171 0
-32 -177 171 0
-32 177 -171 0
-33 -177 171 0
-33 177 -171 0
-34 -171 177 0
-34 -167 177 0
-34 -177 171 167 0
-35 -177 171 0
-35 177 -171 0
-36 -177 171 0
-36 177 -171 0
-37 -177 171 0
-37 177 -171 0
-38 -171 177 0
-38 -168 177 0
-38 -177 171 168 0
-39 -177 171 0
-39 177 -171 0
-40 -177 171 0
-40 177 -171 0
-41 -171 177 0
-41 -169 177 0
-41 -177 171 169 0
-42 -177 171 0
-42 177 -171 0
-43 -171 177 0
-43 -170 177 0
-43 -177 171 170 0
-44 -177 171 0
-44 177 -171 0
-45 -177 171 0
-45 -177 172 0
-45 177 -171 -172 0
-63 -177 171 0
-63 177 -171 0
-31 -178 172 0
-31 178 -172 0
-32 -178 172 0
-32 178 -172 0
-33 -178 172 0
-33 178 -172 0
-34 -178 172 0
-34 178 -172 0
-35 -172 178 0
-35 -167 178 0
-35 -178 172 167 0
-36 -178 172 0
-36 178 -172 0
-37 -178 172 0
-37 178 -172 0
-38 -178 172 0
-38 178 -172 0
-39 -172 178 0
-39 -168 178 0
-39 -178 172 168 0
-40 -178 172 0
-40 178 -172 0
-41 -178 172 0
-41 178 -172 0
-42 -172 178 0
-42 -169 178 0
-42 -178 172 169 0
-43 -178 172 0
-43 178 -172 0
-44 -172 178 0
-44 -170 178 0
-44 -178 172 170 0
-45 -172 178 0
-45 -171 178 0
-45 -178 172 171 0
-63 -178 172 0
-63 178 -172 0
-46 -179 173 0
-46 -179 174 0
-46 179 -173 -174 0
-47 -179 173 0
-47 -179 175 0
-47 179 -173 -175 0
-48 -179 173 0
-48 -179 176 0
-48 179 -173 -176 0
-49 -179 173 0
-49 -179 177 0
-49 179 -173 -177 0
-50 -179 173 0
-50 -179 178 0
-50 179 -173 -178 0
-51 -179 173 0
-51 179 -173 0
-52 -179 173 0
-52 179 -173 0
-53 -179 173 0
-53 179 -173 0
-54 -179 173 0
-54 179 -173 0
-55 -179 173 0
-55 179 -173 0
-56 -179 173 0
-56 179 -173 0
-57 -179 173 0
-57 179 -173 0
-58 -179 173 0
-58 179 -173 0
-59 -179 173 0
-59 179 -173 0
-60 -179 173 0
-60 179 -173 0
-64 -179 173 0
-64 179 -173 0
-46 -174 180 0
-46 -173 180 0
-46 -180 174 173 0
-47 -180 174 0
-47 180 -174 0
-48 -180 174 0
-48 180 -174 0
-49 -180 174 0
-49 180 -174 0
-50 -180 174 0
-50 180 -174 0
-51 -180 174 0
-51 -180 175 0
-51 180 -174 -175 0
-52 -180 174 0
-52 -180 176 0
-52 180 -174 -176 0
-53 -180 174 0
-53 -180 177 0
-53 180 -174 -177 0
-54 -180 174 0
-54 -180 178 0
-54 180 -174 -178 0
-55 -180 174 0
-55 180 -174 0
-56 -180 174 0
-56 180 -174 0
-57 -180 174 0
-57 180 -174 0
-58 -180 174 0
-58 180 -174 0
-59 -180 174 0
-59 180 -174 0
-60 -180 174 0
-60 180 -174 0
-64 -180 174 0
-64 180 -174 0
-46 -181 175 0
-46 181 -175 0
-47 -175 181 0
-47 -173 181 0
-47 -181 175 173 0
-48 -181 175 0
-48 181 -175 0
-49 -181 175 0
-49 181 -175 0
-50 -181 175 0
-50 181 -175 0
-51 -175 181 0
-51 -174 181 0
-51 -181 175 174 0
-52 -181 175 0
-52 181 -175 0
-53 -181 175 0
-53 181 -175 0
-54 -181 175 0
-54 181 -175 0
-55 -181 175 0
-55 -181 176 0
-55 181 -175 -176 0
-56 -181 175 0
-56 -181 177 0
-56 181 -175 -177 0
-57 -181 175 0
-57 -181 178 0
-57 181 -175 -178 0
-58 -181 175 0
-58 181 -175 0
-59 -181 175 0
-59 181 -175 0
-60 -181 175 0
-60 181 -175 0
-64 -181 175 0
-64 181 -175 0
-46 -182 176 0
-46 182 -176 0
-47 -182 176 0
-47 182 -176 0
-48 -176 182 0
-48 -173 182 0
-48 -182 176 173 0
-49 -182 176 0
-49 182 -176 0
-50 -182 176 0
-50 182 -176 0
-51 -182 176 0
-51 182 -176 0
-52 -176 182 0
-52 -174 182 0
-52 -182 176 174 0
-53 -182 176 0
-53 182 -176 0
-54 -182 176 0
-54 182 -176 0
-55 -176 182 0
-55 -175 182 0
-55 -182 176 175 0
-56 -182 176 0
-56 182 -176 0
-57 -182 176 0
-57 182 -176 0
-58 -182 176 0
-58 -182 177 0
-58 182 -176 -177 0
-59 -182 176 0
-59 -182 178 0
-59 182 -176 -178 0
-60 -182 176 0
-60 182 -176 0
-64 -182 176 0
-64 182 -176 0
-46 -183 177 0
-46 183 -177 0
-47 -183 177 0
-47 183 -177 0
-48 -183 177 0
-48 183 -177 0
-49 -177 183 0
-49 -173 183 0
-49 -183 177 173 0
-50 -183 177 0
-50 183 -177 0
-51 -183 177 0
-51 183 -177 0
-52 -183 177 0
-52 183 -177 0
-53 -177 183 0
-53 -174 183 0
-53 -183 177 174 0
-54 -183 177 0
-54 183 -177 0
-55 -183 177 0
-55 183 -177 0
-56 -177 183 0
-56 -175 183 0
-56 -183 177 175 0
-57 -183 177 0
-57 183 -177 0
-58 -177 183 0
-58 -176 183 0
-58 -183 177 176 0
-59 -183 177 0
-59 183 -177 0
-60 -183 177 0
-60 -183 178 0
-60 183 -177 -178 0
-64 -183 177 0
-64 183 -177 0
-46 -184 178 0
-46 184 -178 0
-47 -184 178 0
-47 184 -178 0
-48 -184 178 0
-48 184 -178 0
-49 -184 178 0
-49 184 -178 0
-50 -178 184 0
-50 -173 184 0
-50 -184 178 173 0
-51 -184 178 0
-51 184 -178 0
-52 -184 178 0
-52 184 -178 0
-53 -184 178 0
-53 184 -178 0
-54 -178 184 0
-54 -174 184 0
-54 -184 178 174 0
-55 -184 178 0
-55 184 -178 0
-56 -184 178 0
-56 184 -178 0
-57 -178 184 0
-57 -175 184 0
-57 -184 178 175 0
-58 -184 178 0
-58 184 -178 0
-59 -178 184 0
-59 -176 184 0
-59 -184 178 176 0
-60 -178 184 0
-60 -177 184 0
-60 -184 178 177 0
-64 -184 178 0
-64 184 -178 0
-185 0
-1 -191 185 0
-1 -191 186 0
-1 191 -185 -186 0
-2 -191 185 0
-2 -191 187 0
-2 191 -185 -187 0
-3 -191 185 0
-3 -191 188 0
-3 191 -185 -188 0
-4 -191 185 0
-4 -191 189 0
-4 191 -185 -189 0
-5 -191 185 0
-5 -191 190 0
-5 191 -185 -190 0
-6 -191 185 0
-6 191 -185 0
-7 -191 185 0
-7 191 -185 0
-8 -191 185 0
-8 191 -185 0
-9 -191 185 0
-9 191 -185 0
-10 -191 185 0
-10 191 -185 0
-11 -191 185 0
-11 191 -185 0
-12 -191 185 0
-12 191 -185 0
-13 -191 185 0
-13 191 -185 0
-14 -191 185 0
-14 191 -185 0
-15 -191 185 0
-15 191 -185 0
-61 -191 185 0
-61 191 -185 0
-186 0
-1 -186 192 0
-1 -185 192 0
-1 -192 186 185 0
-2 -192 186 0
-2 192 -186 0
-3 -192 186 0
-3 192 -186 0
-4 -192 186 0
-4 192 -186 0
-5 -192 186 0
-5 192 -186 0
-6 -192 186 0
-6 -192 187 0
-6 192 -186 -187 0
-7 -192 186 0
-7 -192 188 0
-7 192 -186 -188 0
-8 -192 186 0
-8 -192 189 0
-8 192 -186 -189 0
-9 -192 186 0
-9 -192 190 0
-9 192 -186 -190 0
-10 -192 186 0
-10 192 -186 0
-11 -192 186 0
-11 192 -186 0
-12 -192 186 0
-12 192 -186 0
-13 -192 186 0
-13 192 -186 0
-14 -192 186 0
-14 192 -186 0
-15 -192 186 0
-15 192 -186 0
-61 -192 186 0
-61 192 -186 0
187 0
-1 -193 187 0
-1 193 -187 0
-2 -187 193 0
-2 -185 193 0
-2 -193 187 185 0
-3 -193 187 0
-3 193 -187 0
-4 -193 187 0
-4 193 -187 0
-5 -193 187 0
-5 193 -187 0
-6 -187 193 0
-6 -186 193 0
-6 -193 187 186 0
-7 -193 187 0
-7 193 -187 0
-8 -193 187 0
-8 193 -187 0
-9 -193 187 0
-9 193 -187 0
-10 -193 187 0
-10 -193 188 0
-10 193 -187 -188 0
-11 -193 187 0
-11 -193 189 0
-11 193 -187 -189 0
-12 -193 187 0
-12 -193 190 0
-12 193 -187 -190 0
-13 -193 187 0
-13 193 -187 0
-14 -193 187 0
-14 193 -187 0
-15 -193 187 0
-15 193 -187 0
-61 -193 187 0
-61 193 -187 0
188 0
-1 -194 188 0
-1 194 -188 0
-2 -194 188 0
-2 194 -188 0
-3 -188 194 0
-3 -185 194 0
-3 -194 188 185 0
-4 -194 188 0
-4 194 -188 0
-5 -194 188 0
-5 194 -188 0
-6 -194 188 0
-6 194 -188 0
-7 -188 194 0
-7 -186 194 0
-7 -194 188 186 0
-8 -194 188 0
-8 194 -188 0
-9 -194 188 0
-9 194 -188 0
-10 -188 194 0
-10 -187 194 0
-10 -194 188 187 0
-11 -194 188 0
-11 194 -188 0
-12 -194 188 0
-12 194 -188 0
-13 -194 188 0
-13 -194 189 0
-13 194 -188 -189 0
-14 -194 188 0
-14 -194 190 0
-14 194 -188 -190 0
-15 -194 188 0
-15 194 -188 0
-61 -194 188 0
-61 194 -188 0
189 0
-1 -195 189 0
-1 195 -189 0
-2 -195 189 0
-2 195 -189 0
-3 -195 189 0
-3 195 -189 0
-4 -189 195 0
-4 -185 195 0
-4 -195 189 185 0
-5 -195 189 0
-5 195 -189 0
-6 -195 189 0
-6 195 -189 0
-7 -195 189 0
-7 195 -189 0
-8 -189 195 0
-8 -186 195 0
-8 -195 189 186 0
-9 -195 189 0
-9 195 -189 0
-10 -195 189 0
-10 195 -189 0
-11 -189 195 0
-11 -187 195 0
-11 -195 189 187 0
-12 -195 189 0
-12 195 -189 0
-13 -189 195 0
-13 -188 195 0
-13 -195 189 188 0
-14 -195 189 0
-14 195 -189 0
-15 -195 189 0
-15 -195 190 0
-15 195 -189 -190 0
-61 -195 189 0
-61 195 -189 0
190 0
-1 -196 190 0
-1 196 -190 0
-2 -196 190 0
-2 196 -190 0
-3 -196 190 0
-3 196 -190 0
-4 -196 190 0
-4 196 -190 0
-5 -190 196 0
-5 -185 196 0
-5 -196 190 185 0
-6 -196 190 0
-6 196 -190 0
-7 -196 190 0
-7 196 -190 0
-8 -196 190 0
-8 196 -190 0
-9 -190 196 0
-9 -186 196 0
-9 -196 190 186 0
-10 -196 190 0
-10 196 -190 0
-11 -196 190 0
-11 196 -190 0
-12 -190 196 0
-12 -187 196 0
-12 -196 190 187 0
-13 -196 190 0
-13 196 -190 0
-14 -190 196 0
-14 -188 196 0
-14 -196 190 188 0
-15 -190 196 0
-15 -189 196 0
-15 -196 190 189 0
-61 -196 190 0
-61 196 -190 0
-16 -197 191 0
-16 -197 192 0
-16 197 -191 -192 0
-17 -197 191 0
-17 -197 193 0
-17 197 -191 -193 0
-18 -197 191 0
-18 -197 194 0
-18 197 -191 -194 0
-19 -197 191 0
-19 -197 195 0
-19 197 -191 -195 0
-20 -197 191 0
-20 -197 196 0
-20 197 -191 -196 0
-21 -197 191 0
-21 197 -191 0
-22 -197 191 0
-22 197 -191 0
-23 -197 191 0
-23 197 -191 0
-24 -197 191 0
-24 197 -191 0
-25 -197 191 0
-25 197 -191 0
-26 -197 191 0
-26 197 -191 0
-27 -197 191 0
-27 197 -191 0
-28 -197 191 0
-28 197 -191 0
-29 -197 191 0
-29 197 -191 0
-30 -197 191 0
-30 197 -191 0
-62 -197 191 0
-62 197 -191 0
-16 -192 198 0
-16 -191 198 0
-16 -198 192 191 0
-17 -198 192 0
-17 198 -192 0
-18 -198 192 0
-18 198 -192 0
-19 -198 192 0
-19 198 -192 0
-20 -198 192 0
-20 198 -192 0
-21 -198 192 0
-21 -198 193 0
-21 198 -192 -193 0
-22 -198 192 0
-22 -198 194 0
-22 198 -192 -194 0
-23 -198 192 0
-23 -198 195 0
-23 198 -192 -195 0
-24 -198 192 0
-24 -198 196 0
-24 198 -192 -196 0
-25 -198 192 0
-25 198 -192 0
-26 -198 192 0
-26 198 -192 0
-27 -198 192 0
-27 198 -192 0
-28 -198 192 0
-28 198 -192 0
-29 -198 192 0
-29 198 -192 0
-30 -198 192 0
-30 198 -192 0
-62 -198 192 0
-62 198 -192 0
-16 -199 193 0
-16 199 -193 0
-17 -193 199 0
-17 -191 199 0
-17 -199 193 191 0
-18 -199 193 0
-18 199 -193 0
-19 -199 193 0
-19 199 -193 0
-20 -199 193 0
-20 199 -193 0
-21 -193 199 0
-21 -192 199 0
-21 -199 193 192 0
-22 -199 193 0
-22 199 -193 0
-23 -199 193 0
-23 199 -193 0
-24 -199 193 0
-24 199 -193 0
-25 -199 193 0
-25 -199 194 0
-25 199 -193 -194 0
-26 -199 193 0
-26 -199 195 0
-26 199 -193 -195 0
-27 -199 193 0
-27 -199 196 0
-27 199 -193 -196 0
-28 -199 193 0
-28 199 -193 0
-29 -199 193 0
-29 199 -193 0
-30 -199 193 0
-30 199 -193 0
-62 -199 193 0
-62 199 -193 0
-16 -200 194 0
-16 200 -194 0
-17 -200 194 0
-17 200 -194 0
-18 -194 200 0
-18 -191 200 0
-18 -200 194 191 0
-19 -200 194 0
-19 200 -194 0
-20 -200 194 0
-20 200 -194 0
-21 -200 194 0
-21 200 -194 0
-22 -194 200 0
-22 -192 200 0
-22 -200 194 192 0
-23 -200 194 0
-23 200 -194 0
-24 -200 194 0
-24 200 -194 0
-25 -194 200 0
-25 -193 200 0
-25 -200 194 193 0
-26 -200 194 0
-26 200 -194 0
-27 -200 194 0
-27 200 -194 0
-28 -200 194 0
-28 -200 195 0
-28 200 -194 -195 0
-29 -200 194 0
-29 -200 196 0
-29 200 -194 -196 0
-30 -200 194 0
-30 200 -194 0
-62 -200 194 0
-62 200 -194 0
-16 -201 195 0
-16 201 -195 0
-17 -201 195 0
-17 201 -195 0
-18 -201 195 0
-18 201 -195 0
-19 -195 201 0
-19 -191 201 0
-19 -201 195 191 0
-20 -201 195 0
-20 201 -195 0
-21 -201 195 0
-21 201 -195 0
-22 -201 195 0
-22 201 -195 0
-23 -195 201 0
-23 -192 201 0
-23 -201 195 192 0
-24 -201 195 0
-24 201 -195 0
-25 -201 195 0
-25 201 -195 0
-26 -195 201 0
-26 -193 201 0
-26 -201 195 193 0
-27 -201 195 0
-27 201 -195 0
-28 -195 201 0
-28 -194 201 0
-28 -201 195 194 0
-29 -201 195 0
-29 201 -195 0
-30 -201 195 0
-30 -201 196 0
-30 201 -195 -196 0
-62 -201 195 0
-62 201 -195 0
-16 -202 196 0
-16 202 -196 0
-17 -202 196 0
-17 202 -196 0
-18 -202 196 0
-18 202 -196 0
-19 -202 196 0
-19 202 -196 0
-20 -196 202 0
-20 -191 202 0
-20 -202 196 191 0
-21 -202 196 0
-21 202 -196 0
-22 -202 196 0
-22 202 -196 0
-23 -202 196 0
-23 202 -196 0
-24 -196 202 0
-24 -192 202 0
-24 -202 196 192 0
-25 -202 196 0
-25 202 -196 0
-26 -202 196 0
-26 202 -196 0
-27 -196 202 0
-27 -193 202 0
-27 -202 196 193 0
-28 -202 196 0
-28 202 -196 0
-29 -196 202 0
-29 -194 202 0
-29 -202 196 194 0
-30 -196 202 0
-30 -195 202 0
-30 -202 196 195 0
-62 -202 196 0
-62 202 -196 0
-31 -203 197 0
-31 -203 198 0
-31 203 -197 -198 0
-32 -203 197 0
-32 -203 199 0
-32 203 -197 -199 0
-33 -203 197 0
-33 -203 200 0
-33 203 -197 -200 0
-34 -203 197 0
-34 -203 201 0
-34 203 -197 -201 0
-35 -203 197 0
-35 -203 202 0
-35 203 -197 -202 0
-36 -203 197 0
-36 203 -197 0
-37 -203 197 0
-37 203 -197 0
-38 -203 197 0
-38 203 -197 0
-39 -203 197 0
-39 203 -197 0
-40 -203 197 0
-40 203 -197 0
-41 -203 197 0
-41 203 -197 0
-42 -203 197 0
-42 203 -197 0
-43 -203 197 0
-43 203 -197 0
-44 -203 197 0
-44 203 -197 0
-45 -203 197 0
-45 203 -197 0
-63 -203 197 0
-63 203 -197 0
-31 -198 204 0
-31 -197 204 0
-31 -204 198 197 0
-32 -204 198 0
-32 204 -198 0
-33 -204 198 0
-33 204 -198 0
-34 -204 198 0
-34 204 -198 0
-35 -204 198 0
-35 204 -198 0
-36 -204 198 0
-36 -204 199 0
-36 204 -198 -199 0
-37 -204 198 0
-37 -204 200 0
-37 204 -198 -200 0
-38 -204 198 0
-38 -204 201 0
-38 204 -198 -201 0
-39 -204 198 0
-39 -204 202 0
-39 204 -198 -202 0
-40 -204 198 0
-40 204 -198 0
-41 -204 198 0
-41 204 -198 0
-42 -204 198 0
-42 204 -198 0
-43 -204 198 0
-43 204 -198 0
-44 -204 198 0
-44 204 -198 0
-45 -204 198 0
-45 204 -198 0
-63 -204 198 0
-63 204 -198 0
-31 -205 199 0
-31 205 -199 0
-32 -199 205 0
-32 -197 205 0
-32 -205 199 197 0
-33 -205 199 0
-33 205 -199 0
-34 -205 199 0
-34 205 -199 0
-35 -205 199 0
-35 205 -199 0
-36 -199 205 0
-36 -198 205 0
-36 -205 199 198 0
-37 -205 199 0
-37 205 -199 0
-38 -205 199 0
-38 205 -199 0
-39 -205 199 0
-39 205 -199 0
-40 -205 199 0
-40 -205 200 0
-40 205 -199 -200 0
-41 -205 199 0
-41 -205 201 0
-41 205 -199 -201 0
-42 -205 199 0
-42 -205 202 0
-42 205 -199 -202 0
-43 -205 199 0
-43 205 -199 0
-44 -205 199 0
-44 205 -199 0
-45 -205 199 0
-45 205 -199 0
-63 -205 199 0
-63 205 -199 0
-31 -206 200 0
-31 206 -200 0
-32 -206 200 0
-32 206 -200 0
-33 -200 206 0
-33 -197 206 0
-33 -206 200 197 0
-34 -206 200 0
-34 206 -200 0
-35 -206 200 0
-35 206 -200 0
-36 -206 200 0
-36 206 -200 0
-37 -200 206 0
-37 -198 206 0
-37 -206 200 198 0
-38 -206 200 0
-38 206 -200 0
-39 -206 200 0
-39 206 -200 0
-40 -200 206 0
-40 -199 206 0
-40 -206 200 199 0
-41 -206 200 0
-41 206 -200 0
-42 -206 200 0
-42 206 -200 0
-43 -206 200 0
-43 -206 201 0
-43 206 -200 -201 0
-44 -206 200 0
-44 -206 202 0
-44 206 -200 -202 0
-45 -206 200 0
-45 206 -200 0
-63 -206 200 0
-63 206 -200 0
-31 -207 201 0
-31 207 -201 0
-32 -207 201 0
-32 207 -201 0
-33 -207 201 0
-33 207 -201 0
-34 -201 207 0
-34 -197 207 0
-34 -207 201 197 0
-35 -207 201 0
-35 207 -201 0
-36 -207 201 0
-36 207 -201 0
-37 -207 201 0
-37 207 -201 0
-38 -201 207 0
-38 -198 207 0
-38 -207 201 198 0
-39 -207 201 0
-39 207 -201 0
-40 -207 201 0
-40 207 -201 0
-41 -201 207 0
-41 -199 207 0
-41 -207 201 199 0
-42 -207 201 0
-42 207 -201 0
-43 -201 207 0
-43 -200 207 0
-43 -207 201 200 0
-44 -207 201 0
-44 207 -201 0
-45 -207 201 0
-45 -207 202 0
-45 207 -201 -202 0
-63 -207 201 0
-63 207 -201 0
-31 -208 202 0
-31 208 -202 0
-32 -208 202 0
-32 208 -202 0
-33 -208 202 0
-33 208 -202 0
-34 -208 202 0
-34 208 -202 0
-35 -202 208 0
-35 -197 208 0
-35 -208 202 197 0
-36 -208 202 0
-36 208 -202 0
-37 -208 202 0
-37 208 -202 0
-38 -208 202 0
-38 208 -202 0
-39 -202 208 0
-39 -198 208 0
-39 -208 202 198 0
-40 -208 202 0
-40 208 -202 0
-41 -208 202 0
-41 208 -202 0
-42 -202 208 0
-42 -199 208 0
-42 -208 202 199 0
-43 -208 202 0
-43 208 -202 0
-44 -202 208 0
-44 -200 208 0
-44 -208 202 200 0
-45 -202 208 0
-45 -201 208 0
-45 -208 202 201 0
-63 -208 202 0
-63 208 -202 0
-46 -209 203 0
-46 -209 204 0
-46 209 -203 -204 0
-47 -209 203 0
-47 -209 205 0
-47 209 -203 -205 0
-48 -209 203 0
-48 -209 206 0
-48 209 -203 -206 0
-49 -209 203 0
-49 -209 207 0
-49 209 -203 -207 0
-50 -209 203 0
-50 -209 208 0
-50 209 -203 -208 0
-51 -209 203 0
-51 209 -203 0
-52 -209 203 0
-52 209 -203 0
-53 -209 203 0
-53 209 -203 0
-54 -209 203 0
-54 209 -203 0
-55 -209 203 0
-55 209 -203 0
-56 -209 203 0
-56 209 -203 0
-57 -209 203 0
-57 209 -203 0
-58 -209 203 0
-58 209 -203 0
-59 -209 203 0
-59 209 -203 0
-60 -209 203 0
-60 209 -203 0
-64 -209 203 0
-64 209 -203 0
-46 -204 210 0
-46 -203 210 0
-46 -210 204 203 0
-47 -210 204 0
-47 210 -204 0
-48 -210 204 0
-48 210 -204 0
-49 -210 204 0
-49 210 -204 0
-50 -210 204 0
-50 210 -204 0
-51 -210 204 0
-51 -210 205 0
-51 210 -204 -205 0
-52 -210 204 0
-52 -210 206 0
-52 210 -204 -206 0
-53 -210 204 0
-53 -210 207 0
-53 210 -204 -207 0
-54 -210 204 0
-54 -210 208 0
-54 210 -204 -208 0
-55 -210 204 0
-55 210 -204 0
-56 -210 204 0
-56 210 -204 0
-57 -210 204 0
-57 210 -204 0
-58 -210 204 0
-58 210 -204 0
-59 -210 204 0
-59 210 -204 0
-60 -210 204 0
-60 210 -204 0
-64 -210 204 0
-64 210 -204 0
-46 -211 205 0
-46 211 -205 0
-47 -205 211 0
-47 -203 211 0
-47 -211 205 203 0
-48 -211 205 0
-48 211 -205 0
-49 -211 205 0
-49 211 -205 0
-50 -211 205 0
-50 211 -205 0
-51 -205 211 0
-51 -204 211 0
-51 -211 205 204 0
-52 -211 205 0
-52 211 -205 0
-53 -211 205 0
-53 211 -205 0
-54 -211 205 0
-54 211 -205 0
-55 -211 205 0
-55 -211 206 0
-55 211 -205 -206 0
-56 -211 205 0
-56 -211 207 0
-56 211 -205 -207 0
-57 -211 205 0
-57 -211 208 0
-57 211 -205 -208 0
-58 -211 205 0
-58 211 -205 0
-59 -211 205 0
-59 211 -205 0
-60 -211 205 0
-60 211 -205 0
-64 -211 205 0
-64 211 -205 0
-46 -212 206 0
-46 212 -206 0
-47 -212 206 0
-47 212 -206 0
-48 -206 212 0
-48 -203 212 0
-48 -212 206 203 0
-49 -212 206 0
-49 212 -206 0
-50 -212 206 0
-50 212 -206 0
-51 -212 206 0
-51 212 -206 0
-52 -206 212 0
-52 -204 212 0
-52 -212 206 204 0
-53 -212 206 0
-53 212 -206 0
-54 -212 206 0
-54 212 -206 0
-55 -206 212 0
-55 -205 212 0
-55 -212 206 205 0
-56 -212 206 0
-56 212 -206 0
-57 -212 206 0
-57 212 -206 0
-58 -212 206 0
-58 -212 207 0
-58 212 -206 -207 0
-59 -212 206 0
-59 -212 208 0
-59 212 -206 -208 0
-60 -212 206 0
-60 212 -206 0
-64 -212 206 0
-64 212 -206 0
-46 -213 207 0
-46 213 -207 0
-47 -213 207 0
-47 213 -207 0
-48 -213 207 0
-48 213 -207 0
-49 -207 213 0
-49 -203 213 0
-49 -213 207 203 0
-50 -213 207 0
-50 213 -207 0
-51 -213 207 0
-51 213 -207 0
-52 -213 207 0
-52 213 -207 0
-53 -207 213 0
-53 -204 213 0
-53 -213 207 204 0
-54 -213 207 0
-54 213 -207 0
-55 -213 207 0
-55 213 -207 0
-56 -207 213 0
-56 -205 213 0
-56 -213 207 205 0
-57 -213 207 0
-57 213 -207 0
-58 -207 213 0
-58 -206 213 0
-58 -213 207 206 0
-59 -213 207 0
-59 213 -207 0
-60 -213 207 0
-60 -213 208 0
-60 213 -207 -208 0
-64 -213 207 0
-64 213 -207 0
-46 -214 208 0
-46 214 -208 0
-47 -214 208 0
-47 214 -208 0
-48 -214 208 0
-48 214 -208 0
-49 -214 208 0
-49 214 -208 0
-50 -208 214 0
-50 -203 214 0
-50 -214 208 203 0
-51 -214 208 0
-51 214 -208 0
-52 -214 208 0
-52 214 -208 0
-53 -214 208 0
-53 214 -208 0
-54 -208 214 0
-54 -204 214 0
-54 -214 208 204 0
-55 -214 208 0
-55 214 -208 0
-56 -214 208 0
-56 214 -208 0
-57 -208 214 0
-57 -205 214 0
-57 -214 208 205 0
-58 -214 208 0
-58 214 -208 0
-59 -208 214 0
-59 -206 214 0
-59 -214 208 206 0
-60 -208 214 0
-60 -207 214 0
-60 -214 208 207 0
-64 -214 208 0
-64 214 -208 0
-215 0
-1 -221 215 0
-1 -221 216 0
-1 221 -215 -216 0
-2 -221 215 0
-2 -221 217 0
-2 221 -215 -217 0
-3 -221 215 0
-3 -221 218 0
-3 221 -215 -218 0
-4 -221 215 0
-4 -221 219 0
-4 221 -215 -219 0
-5 -221 215 0
-5 -221 220 0
-5 221 -215 -220 0
-6 -221 215 0
-6 221 -215 0
-7 -221 215 0
-7 221 -215 0
-8 -221 215 0
-8 221 -215 0
-9 -221 215 0
-9 221 -215 0
-10 -221 215 0
-10 221 -215 0
-11 -221 215 0
-11 221 -215 0
-12 -221 215 0
-12 221 -215 0
-13 -221 215 0
-13 221 -215 0
-14 -221 215 0
-14 221 -215 0
-15 -221 215 0
-15 221 -215 0
-61 -221 215 0
-61 221 -215 0
216 0
-1 -216 222 0
-1 -215 222 0
-1 -222 216 215 0
-2 -222 216 0
-2 222 -216 0
-3 -222 216 0
-3 222 -216 0
-4 -222 216 0
-4 222 -216 0
-5 -222 216 0
-5 222 -216 0
-6 -222 216 0
-6 -222 217 0
-6 222 -216 -217 0
-7 -222 216 0
-7 -222 218 0
-7 222 -216 -218 0
-8 -222 216 0
-8 -222 219 0
-8 222 -216 -219 0
-9 -222 216 0
-9 -222 220 0
-9 222 -216 -220 0
-10 -222 216 0
-10 222 -216 0
-11 -222 216 0
-11 222 -216 0
-12 -222 216 0
-12 222 -216 0
-13 -222 216 0
-13 222 -216 0
-14 -222 216 0
-14 222 -216 0
-15 -222 216 0
-15 222 -216 0
-61 -222 216 0
-61 222 -216 0
-217 0
-1 -223 217 0
-1 223 -217 0
-2 -217 223 0
-2 -215 223 0
-2 -223 217 215 0
-3 -223 217 0
-3 223 -217 0
-4 -223 217 0
-4 223 -217 0
-5 -223 217 0
-5 223 -217 0
-6 -217 223 0
-6 -216 223 0
-6 -223 217 216 0
-7 -223 217 0
-7 223 -217 0
-8 -223 217 0
-8 223 -217 0
-9 -223 217 0
-9 223 -217 0
-10 -223 217 0
-10 -223 218 0
-10 223 -217 -218 0
-11 -223 217 0
-11 -223 219 0
-11 223 -217 -219 0
-12 -223 217 0
-12 -223 220 0
-12 223 -217 -220 0
-13 -223 217 0
-13 223 -217 0
-14 -223 217 0
-14 223 -217 0
-15 -223 217 0
-15 223 -217 0
-61 -223 217 0
-61 223 -217 0
-218 0
-1 -224 218 0
-1 224 -218 0
-2 -224 218 0
-2 224 -218 0
-3 -218 224 0
-3 -215 224 0
-3 -224 218 215 0
-4 -224 218 0
-4 224 -218 0
-5 -224 218 0
-5 224 -218 0
-6 -224 218 0
-6 224 -218 0
-7 -218 224 0
-7 -216 224 0
-7 -224 218 216 0
-8 -224 218 0
-8 224 -218 0
-9 -224 218 0
-9 224 -218 0
-10 -218 224 0
-10 -217 224 0
-10 -224 218 217 0
-11 -224 218 0
-11 224 -218 0
-12 -224 218 0
-12 224 -218 0
-13 -224 218 0
-13 -224 219 0
-13 224 -218 -219 0
-14 -224 218 0
-14 -224 220 0
-14 224 -218 -220 0
-15 -224 218 0
-15 224 -218 0
-61 -224 218 0
-61 224 -218 0
-219 0
-1 -225 219 0
-1 225 -219 0
-2 -225 219 0
-2 225 -219 0
-3 -225 219 0
-3 225 -219 0
-4 -219 225 0
-4 -215 225 0
-4 -225 219 215 0
-5 -225 219 0
-5 225 -219 0
-6 -225 219 0
-6 225 -219 0
-7 -225 219 0
-7 225 -219 0
-8 -219 225 0
-8 -216 225 0
-8 -225 219 216 0
-9 -225 219 0
-9 225 -219 0
-10 -225 219 0
-10 225 -219 0
-11 -219 225 0
-11 -217 225 0
-11 -225 219 217 0
-12 -225 219 0
-12 225 -219 0
-13 -219 225 0
-13 -218 225 0
-13 -225 219 218 0
-14 -225 219 0
-14 225 -219 0
-15 -225 219 0
-15 -225 220 0
-15 225 -219 -220 0
-61 -225 219 0
-61 225 -219 0
-220 0
-1 -226 220 0
-1 226 -220 0
-2 -226 220 0
-2 226 -220 0
-3 -226 220 0
-3 226 -220 0
-4 -226 220 0
-4 226 -220 0
-5 -220 226 0
-5 -215 226 0
-5 -226 220 215 0
-6 -226 220 0
-6 226 -220 0
-7 -226 220 0
-7 226 -220 0
-8 -226 220 0
-8 226 -220 0
-9 -220 226 0
-9 -216 226 0
-9 -226 220 216 0
-10 -226 220 0
-10 226 -220 0
-11 -226 220 0
-11 226 -220 0
-12 -220 226 0
-12 -217 226 0
-12 -226 220 217 0
-13 -226 220 0
-13 226 -220 0
-14 -220 226 0
-14 -218 226 0
-14 -226 220 218 0
-15 -220 226 0
-15 -219 226 0
-15 -226 220 219 0
-61 -226 220 0
-61 226 -220 0
-16 -227 221 0
-16 -227 222 0
-16 227 -221 -222 0
-17 -227 221 0
-17 -227 223 0
-17 227 -221 -223 0
-18 -227 221 0
-18 -227 224 0
-18 227 -221 -224 0
-19 -227 221 0
-19 -227 225 0
-19 227 -221 -225 0
-20 -227 221 0
-20 -227 226 0
-20 227 -221 -226 0
-21 -227 221 0
-21 227 -221 0
-22 -227 221 0
-22 227 -221 0
-23 -227 221 0
-23 227 -221 0
-24 -227 221 0
-24 227 -221 0
-25 -227 221 0
-25 227 -221 0
-26 -227 221 0
-26 227 -221 0
-27 -227 221 0
-27 227 -221 0
-28 -227 221 0
-28 227 -221 0
-29 -227 221 0
-29 227 -221 0
-30 -227 221 0
-30 227 -221 0
-62 -227 221 0
-62 227 -221 0
-16 -222 228 0
-16 -221 228 0
-16 -228 222 221 0
-17 -228 222 0
-17 228 -222 0
-18 -228 222 0
-18 228 -222 0
-19 -228 222 0
-19 228 -222 0
-20 -228 222 0
-20 228 -222 0
-21 -228 222 0
-21 -228 223 0
-21 228 -222 -223 0
-22 -228 222 0
-22 -228 224 0
-22 228 -222 -224 0
-23 -228 222 0
-23 -228 225 0
-23 228 -222 -225 0
-24 -228 222 0
-24 -228 226 0
-24 228 -222 -226 0
-25 -228 222 0
-25 228 -222 0
-26 -228 222 0
-26 228 -222 0
-27 -228 222 0
-27 228 -222 0
-28 -228 222 0
-28 228 -222 0
-29 -228 222 0
-29 228 -222 0
-30 -228 222 0
-30 228 -222 0
-62 -228 222 0
-62 228 -222 0
-16 -229 223 0
-16 229 -223 0
-17 -223 229 0
-17 -221 229 0
-17 -229 223 221 0
-18 -229 223 0
-18 229 -223 0
-19 -229 223 0
-19 229 -223 0
-20 -229 223 0
-20 229 -223 0
-21 -223 229 0
-21 -222 229 0
-21 -229 223 222 0
-22 -229 223 0
-22 229 -223 0
-23 -229 223 0
-23 229 -223 0
-24 -229 223 0
-24 229 -223 0
-25 -229 223 0
-25 -229 224 0
-25 229 -223 -224 0
-26 -229 223 0
-26 -229 225 0
-26 229 -223 -225 0
-27 -229 223 0
-27 -229 226 0
-27 229 -223 -226 0
-28 -229 223 0
-28 229 -223 0
-29 -229 223 0
-29 229 -223 0
-30 -229 223 0
-30 229 -223 0
-62 -229 223 0
-62 229 -223 0
-16 -230 224 0
-16 230 -224 0
-17 -230 224 0
-17 230 -224 0
-18 -224 230 0
-18 -221 230 0
-18 -230 224 221 0
-19 -230 224 0
-19 230 -224 0
-20 -230 224 0
-20 230 -224 0
-21 -230 224 0
-21 230 -224 0
-22 -224 230 0
-22 -222 230 0
-22 -230 224 222 0
-23 -230 224 0
-23 230 -224 0
-24 -230 224 0
-24 230 -224 0
-25 -224 230 0
-25 -223 230 0
-25 -230 224 223 0
-26 -230 224 0
-26 230 -224 0
-27 -230 224 0
-27 230 -224 0
-28 -230 224 0
-28 -230 225 0
-28 230 -224 -225 0
-29 -230 224 0
-29 -230 226 0
-29 230 -224 -226 0
-30 -230 224 0
-30 230 -224 0
-62 -230 224 0
-62 230 -224 0
-16 -231 225 0
-16 231 -225 0
-17 -231 225 0
-17 231 -225 0
-18 -231 225 0
-18 231 -225 0
-19 -225 231 0
-19 -221 231 0
-19 -231 225 221 0
-20 -231 225 0
-20 231 -225 0
-21 -231 225 0
-21 231 -225 0
-22 -231 225 0
-22 231 -225 0
-23 -225 231 0
-23 -222 231 0
-23 -231 225 222 0
-24 -231 225 0
-24 231 -225 0
-25 -231 225 0
-25 231 -225 0
-26 -225 231 0
-26 -223 231 0
-26 -231 225 223 0
-27 -231 225 0
-27 231 -225 0
-28 -225 231 0
-28 -224 231 0
-28 -231 225 224 0
-29 -231 225 0
-29 231 -225 0
-30 -231 225 0
-30 -231 226 0
-30 231 -225 -226 0
-62 -231 225 0
-62 231 -225 0
-16 -232 226 0
-16 232 -226 0
-17 -232 226 0
-17 232 -226 0
-18 -232 226 0
-18 232 -226 0
-19 -232 226 0
-19 232 -226 0
-20 -226 232 0
-20 -221 232 0
-20 -232 226 221 0
-21 -232 226 0
-21 232 -226 0
-22 -232 226 0
-22 232 -226 0
-23 -232 226 0
-23 232 -226 0
-24 -226 232 0
-24 -222 232 0
-24 -232 226 222 0
-25 -232 226 0
-25 232 -226 0
-26 -232 226 0
-26 232 -226 0
-27 -226 232 0
-27 -223 232 0
-27 -232 226 223 0
-28 -232 226 0
-28 232 -226 0
-29 -226 232 0
-29 -224 232 0
-29 -232 226 224 0
-30 -226 232 0
-30 -225 232 0
-30 -232 226 225 0
-62 -232 226 0
-62 232 -226 0
-31 -233 227 0
-31 -233 228 0
-31 233 -227 -228 0
-32 -233 227 0
-32 -233 229 0
-32 233 -227 -229 0
-33 -233 227 0
-33 -233 230 0
-33 233 -227 -230 0
-34 -233 227 0
-34 -233 231 0
-34 233 -227 -231 0
-35 -233 227 0
-35 -233 232 0
-35 233 -227 -232 0
-36 -233 227 0
-36 233 -227 0
-37 -233 227 0
-37 233 -227 0
-38 -233 227 0
-38 233 -227 0
-39 -233 227 0
-39 233 -227 0
-40 -233 227 0
-40 233 -227 0
-41 -233 227 0
-41 233 -227 0
-42 -233 227 0
-42 233 -227 0
-43 -233 227 0
-43 233 -227 0
-44 -233 227 0
-44 233 -227 0
-45 -233 227 0
-45 233 -227 0
-63 -233 227 0
-63 233 -227 0
-31 -228 234 0
-31 -227 234 0
-31 -234 228 227 0
-32 -234 228 0
-32 234 -228 0
-33 -234 228 0
-33 234 -228 0
-34 -234 228 0
-34 234 -228 0
-35 -234 228 0
-35 234 -228 0
-36 -234 228 0
-36 -234 229 0
-36 234 -228 -229 0
-37 -234 228 0
-37 -234 230 0
-37 234 -228 -230 0
-38 -234 228 0
-38 -234 231 0
-38 234 -228 -231 0
-39 -234 228 0
-39 -234 232 0
-39 234 -228 -232 0
-40 -234 228 0
-40 234 -228 0
-41 -234 228 0
-41 234 -228 0
-42 -234 228 0
-42 234 -228 0
-43 -234 228 0
-43 234 -228 0
-44 -234 228 0
-44 234 -228 0
-45 -234 228 0
-45 234 -228 0
-63 -234 228 0
-63 234 -228 0
-31 -235 229 0
-31 235 -229 0
-32 -229 235 0
-32 -227 235 0
-32 -235 229 227 0
-33 -235 229 0
-33 235 -229 0
-34 -235 229 0
-34 235 -229 0
-35 -235 229 0
-35 235 -229 0
-36 -229 235 0
-36 -228 235 0
-36 -235 229 228 0
-37 -235 229 0
-37 235 -229 0
-38 -235 229 0
-38 235 -229 0
-39 -235 229 0
-39 235 -229 0
-40 -235 229 0
-40 -235 230 0
-40 235 -229 -230 0
-41 -235 229 0
-41 -235 231 0
-41 235 -229 -231 0
-42 -235 229 0
-42 -235 232 0
-42 235 -229 -232 0
-43 -235 229 0
-43 235 -229 0
-44 -235 229 0
-44 235 -229 0
-45 -235 229 0
-45 235 -229 0
-63 -235 229 0
-63 235 -229 0
-31 -236 230 0
-31 236 -230 0
-32 -236 230 0
-32 236 -230 0
-33 -230 236 0
-33 -227 236 0
-33 -236 230 227 0
-34 -236 230 0
-34 236 -230 0
-35 -236 230 0
-35 236 -230 0
-36 -236 230 0
-36 236 -230 0
-37 -230 236 0
-37 -228 236 0
-37 -236 230 228 0
-38 -236 230 0
-38 236 -230 0
-39 -236 230 0
-39 236 -230 0
-40 -230 236 0
-40 -229 236 0
-40 -236 230 229 0
-41 -236 230 0
-41 236 -230 0
-42 -236 230 0
-42 236 -230 0
-43 -236 230 0
-43 -236 231 0
-43 236 -230 -231 0
-44 -236 230 0
-44 -236 232 0
-44 236 -230 -232 0
-45 -236 230 0
-45 236 -230 0
-63 -236 230 0
-63 236 -230 0
-31 -237 231 0
-31 237 -231 0
-32 -237 231 0
-32 237 -231 0
-33 -237 231 0
-33 237 -231 0
-34 -231 237 0
-34 -227 237 0
-34 -237 231 227 0
-35 -237 231 0
-35 237 -231 0
-36 -237 231 0
-36 237 -231 0
-37 -237 231 0
-37 237 -231 0
-38 -231 237 0
-38 -228 237 0
-38 -237 231 228 0
-39 -237 231 0
-39 237 -231 0
-40 -237 231 0
-40 237 -231 0
-41 -231 237 0
-41 -229 237 0
-41 -237 231 229 0
-42 -237 231 0
-42 237 -231 0
-43 -231 237 0
-43 -230 237 0
-43 -237 231 230 0
-44 -237 231 0
-44 237 -231 0
-45 -237 231 0
-45 -237 232 0
-45 237 -231 -232 0
-63 -237 231 0
-63 237 -231 0
-31 -238 232 0
-31 238 -232 0
-32 -238 232 0
-32 238 -232 0
-33 -238 232 0
-33 238 -232 0
-34 -238 232 0
-34 238 -232 0
-35 -232 238 0
-35 -227 238 0
-35 -238 232 227 0
-36 -238 232 0
-36 238 -232 0
-37 -238 232 0
-37 238 -232 0
-38 -238 232 0
-38 238 -232 0
-39 -232 238 0
-39 -228 238 0
-39 -238 232 228 0
-40 -238 232 0
-40 238 -232 0
-41 -238 232 0
-41 238 -232 0
-42 -232 238 0
-42 -229 238 0
-42 -238 232 229 0
-43 -238 232 0
-43 238 -232 0
-44 -232 238 0
-44 -230 238 0
-44 -238 232 230 0
-45 -232 238 0
-45 -231 238 0
-45 -238 232 231 0
-63 -238 232 0
-63 238 -232 0
-46 -239 233 0
-46 -239 234 0
-46 239 -233 -234 0
-47 -239 233 0
-47 -239 235 0
-47 239 -233 -235 0
-48 -239 233 0
-48 -239 236 0
-48 239 -233 -236 0
-49 -239 233 0
-49 -239 237 0
-49 239 -233 -237 0
-50 -239 233 0
-50 -239 238 0
-50 239 -233 -238 0
-51 -239 233 0
-51 239 -233 0
-52 -239 233 0
-52 239 -233 0
-53 -239 233 0
-53 239 -233 0
-54 -239 233 0
-54 239 -233 0
-55 -239 233 0
-55 239 -233 0
-56 -239 233 0
-56 239 -233 0
-57 -239 233 0
-57 239 -233 0
-58 -239 233 0
-58 239 -233 0
-59 -239 233 0
-59 239 -233 0
-60 -239 233 0
-60 239 -233 0
-64 -239 233 0
-64 239 -233 0
-46 -234 240 0
-46 -233 240 0
-46 -240 234 233 0
-47 -240 234 0
-47 240 -234 0
-48 -240 234 0
-48 240 -234 0
-49 -240 234 0
-49 240 -234 0
-50 -240 234 0
-50 240 -234 0
-51 -240 234 0
-51 -240 235 0
-51 240 -234 -235 0
-52 -240 234 0
-52 -240 236 0
-52 240 -234 -236 0
-53 -240 234 0
-53 -240 237 0
-53 240 -234 -237 0
-54 -240 234 0
-54 -240 238 0
-54 240 -234 -238 0
-55 -240 234 0
-55 240 -234 0
-56 -240 234 0
-56 240 -234 0
-57 -240 234 0
-57 240 -234 0
-58 -240 234 0
-58 240 -234 0
-59 -240 234 0
-59 240 -234 0
-60 -240 234 0
-60 240 -234 0
-64 -240 234 0
-64 240 -234 0
-46 -241 235 0
-46 241 -235 0
-47 -235 241 0
-47 -233 241 0
-47 -241 235 233 0
-48 -241 235 0
-48 241 -235 0
-49 -241 235 0
-49 241 -235 0
-50 -241 235 0
-50 241 -235 0
-51 -235 241 0
-51 -234 241 0
-51 -241 235 234 0
-52 -241 235 0
-52 241 -235 0
-53 -241 235 0
-53 241 -235 0
-54 -241 235 0
-54 241 -235 0
-55 -241 235 0
-55 -241 236 0
-55 241 -235 -236 0
-56 -241 235 0
-56 -241 237 0
-56 241 -235 -237 0
-57 -241 235 0
-57 -241 238 0
-57 241 -235 -238 0
-58 -241 235 0
-58 241 -235 0
-59 -241 235 0
-59 241 -235 0
-60 -241 235 0
-60 241 -235 0
-64 -241 235 0
-64 241 -235 0
-46 -242 236 0
-46 242 -236 0
-47 -242 236 0
-47 242 -236 0
-48 -236 242 0
-48 -233 242 0
-48 -242 236 233 0
-49 -242 236 0
-49 242 -236 0
-50 -242 236 0
-50 242 -236 0
-51 -242 236 0
-51 242 -236 0
-52 -236 242 0
-52 -234 242 0
-52 -242 236 234 0
-53 -242 236 0
-53 242 -236 0
-54 -242 236 0
-54 242 -236 0
-55 -236 242 0
-55 -235 242 0
-55 -242 236 235 0
-56 -242 236 0
-56 242 -236 0
-57 -242 236 0
-57 242 -236 0
-58 -242 236 0
-58 -242 237 0
-58 242 -236 -237 0
-59 -242 236 0
-59 -242 238 0
-59 242 -236 -238 0
-60 -242 236 0
-60 242 -236 0
-64 -242 236 0
-64 242 -236 0
-46 -243 237 0
-46 243 -237 0
-47 -243 237 0
-47 243 -237 0
-48 -243 237 0
-48 243 -237 0
-49 -237 243 0
-49 -233 243 0
-49 -243 237 233 0
-50 -243 237 0
-50 243 -237 0
-51 -243 237 0
-51 243 -237 0
-52 -243 237 0
-52 243 -237 0
-53 -237 243 0
-53 -234 243 0
-53 -243 237 234 0
-54 -243 237 0
-54 243 -237 0
-55 -243 237 0
-55 243 -237 0
-56 -237 243 0
-56 -235 243 0
-56 -243 237 235 0
-57 -243 237 0
-57 243 -237 0
-58 -237 243 0
-58 -236 243 0
-58 -243 237 236 0
-59 -243 237 0
-59 243 -237 0
-60 -243 237 0
-60 -243 238 0
-60 243 -237 -238 0
-64 -243 237 0
-64 243 -237 0
-46 -244 238 0
-46 244 -238 0
-47 -244 238 0
-47 244 -238 0
-48 -244 238 0
-48 244 -238 0
-49 -244 238 0
-49 244 -238 0
-50 -238 244 0
-50 -233 244 0
-50 -244 238 233 0
-51 -244 238 0
-51 244 -238 0
-52 -244 238 0
-52 244 -238 0
-53 -244 238 0
-53 244 -238 0
-54 -238 244 0
-54 -234 244 0
-54 -244 238 234 0
-55 -244 238 0
-55 244 -238 0
-56 -244 238 0
-56 244 -238 0
-57 -238 244 0
-57 -235 244 0
-57 -244 238 235 0
-58 -244 238 0
-58 244 -238 0
-59 -238 244 0
-59 -236 244 0
-59 -244 238 236 0
-60 -238 244 0
-60 -237 244 0
-60 -244 238 237 0
-64 -244 238 0
-64 244 -238 0
-245 0
-1 -251 245 0
-1 -251 246 0
-1 251 -245 -246 0
-2 -251 245 0
-2 -251 247 0
-2 251 -245 -247 0
-3 -251 245 0
-3 -251 248 0
-3 251 -245 -248 0
-4 -251 245 0
-4 -251 249 0
-4 251 -245 -249 0
-5 -251 245 0
-5 -251 250 0
-5 251 -245 -250 0
-6 -251 245 0
-6 251 -245 0
-7 -251 245 0
-7 251 -245 0
-8 -251 245 0
-8 251 -245 0
-9 -251 245 0
-9 251 -245 0
-10 -251 245 0
-10 251 -245 0
-11 -251 245 0
-11 251 -245 0
-12 -251 245 0
-12 251 -245 0
-13 -251 245 0
-13 251 -245 0
-14 -251 245 0
-14 251 -245 0
-15 -251 245 0
-15 251 -245 0
-61 -251 245 0
-61 251 -245 0
246 0
-1 -246 252 0
-1 -245 252 0
-1 -252 246 245 0
-2 -252 246 0
-2 252 -246 0
-3 -252 246 0
-3 252 -246 0
-4 -252 246 0
-4 252 -246 0
-5 -252 246 0
-5 252 -246 0
-6 -252 246 0
-6 -252 247 0
-6 252 -246 -247 0
-7 -252 246 0
-7 -252 248 0
-7 252 -246 -248 0
-8 -252 246 0
-8 -252 249 0
-8 252 -246 -249 0
-9 -252 246 0
-9 -252 250 0
-9 252 -246 -250 0
-10 -252 246 0
-10 252 -246 0
-11 -252 246 0
-11 252 -246 0
-12 -252 246 0
-12 252 -246 0
-13 -252 246 0
-13 252 -246 0
-14 -252 246 0
-14 252 -246 0
-15 -252 246 0
-15 252 -246 0
-61 -252 246 0
-61 252 -246 0
-247 0
-1 -253 247 0
-1 253 -247 0
-2 -247 253 0
-2 -245 253 0
-2 -253 247 245 0
-3 -253 247 0
-3 253 -247 0
-4 -253 247 0
-4 253 -247 0
-5 -253 247 0
-5 253 -247 0
-6 -247 253 0
-6 -246 253 0
-6 -253 247 246 0
-7 -253 247 0
-7 253 -247 0
-8 -253 247 0
-8 253 -247 0
-9 -253 247 0
-9 253 -247 0
-10 -253 247 0
-10 -253 248 0
-10 253 -247 -248 0
-11 -253 247 0
-11 -253 249 0
-11 253 -247 -249 0
-12 -253 247 0
-12 -253 250 0
-12 253 -247 -250 0
-13 -253 247 0
-13 253 -247 0
-14 -253 247 0
-14 253 -247 0
-15 -253 247 0
-15 253 -247 0
-61 -253 247 0
-61 253 -247 0
-248 0
-1 -254 248 0
-1 254 -248 0
-2 -254 248 0
-2 254 -248 0
-3 -248 254 0
-3 -245 254 0
-3 -254 248 245 0
-4 -254 248 0
-4 254 -248 0
-5 -254 248 0
-5 254 -248 0
-6 -254 248 0
-6 254 -248 0
-7 -248 254 0
-7 -246 254 0
-7 -254 248 246 0
-8 -254 248 0
-8 254 -248 0
-9 -254 248 0
-9 254 -248 0
-10 -248 254 0
-10 -247 254 0
-10 -254 248 247 0
-11 -254 248 0
-11 254 -248 0
-12 -254 248 0
-12 254 -248 0
-13 -254 248 0
-13 -254 249 0
-13 254 -248 -249 0
-14 -254 248 0
-14 -254 250 0
-14 254 -248 -250 0
-15 -254 248 0
-15 254 -248 0
-61 -254 248 0
-61 254 -248 0
-249 0
-1 -255 249 0
-1 255 -249 0
-2 -255 249 0
-2 255 -249 0
-3 -255 249 0
-3 255 -249 0
-4 -249 255 0
-4 -245 255 0
-4 -255 249 245 0
-5 -255 249 0
-5 255 -249 0
-6 -255 249 0
-6 255 -249 0
-7 -255 249 0
-7 255 -249 0
-8 -249 255 0
-8 -246 255 0
-8 -255 249 246 0
-9 -255 249 0
-9 255 -249 0
-10 -255 249 0
-10 255 -249 0
-11 -249 255 0
-11 -247 255 0
-11 -255 249 247 0
-12 -255 249 0
-12 255 -249 0
-13 -249 255 0
-13 -248 255 0
-13 -255 249 248 0
-14 -255 249 0
-14 255 -249 0
-15 -255 249 0
-15 -255 250 0
-15 255 -249 -250 0
-61 -255 249 0
-61 255 -249 0
250 0
-1 -256 250 0
-1 256 -250 0
-2 -256 250 0
-2 256 -250 0
-3 -256 250 0
-3 256 -250 0
-4 -256 250 0
-4 256 -250 0
-5 -250 256 0
-5 -245 256 0
-5 -256 250 245 0
-6 -256 250 0
-6 256 -250 0
-7 -256 250 0
-7 256 -250 0
-8 -256 250 0
-8 256 -250 0
-9 -250 256 0
-9 -246 256 0
-9 -256 250 246 0
-10 -256 250 0
-10 256 -250 0
-11 -256 250 0
-11 256 -250 0
-12 -250 256 0
-12 -247 256 0
-12 -256 250 247 0
-13 -256 250 0
-13 256 -250 0
-14 -250 256 0
-14 -248 256 0
-14 -256 250 248 0
-15 -250 256 0
-15 -249 256 0
-15 -256 250 249 0
-61 -256 250 0
-61 256 -250 0
-16 -257 251 0
-16 -257 252 0
-16 257 -251 -252 0
-17 -257 251 0
-17 -257 253 0
-17 257 -251 -253 0
-18 -257 251 0
-18 -257 254 0
-18 257 -251 -254 0
-19 -257 251 0
-19 -257 255 0
-19 257 -251 -255 0
-20 -257 251 0
-20 -257 256 0
-20 257 -251 -256 0
-21 -257 251 0
-21 257 -251 0
-22 -257 251 0
-22 257 -251 0
-23 -257 251 0
-23 257 -251 0
-24 -257 251 0
-24 257 -251 0
-25 -257 251 0
-25 257 -251 0
-26 -257 251 0
-26 257 -251 0
-27 -257 251 0
-27 257 -251 0
-28 -257 251 0
-28 257 -251 0
-29 -257 251 0
-29 257 -251 0
-30 -257 251 0
-30 257 -251 0
-62 -257 251 0
-62 257 -251 0
-16 -252 258 0
-16 -251 258 0
-16 -258 252 251 0
-17 -258 252 0
-17 258 -252 0
-18 -258 252 0
-18 258 -252 0
-19 -258 252 0
-19 258 -252 0
-20 -258 252 0
-20 258 -252 0
-21 -258 252 0
-21 -258 253 0
-21 258 -252 -253 0
-22 -258 252 0
-22 -258 254 0
-22 258 -252 -254 0
-23 -258 252 0
-23 -258 255 0
-23 258 -252 -255 0
-24 -258 252 0
-24 -258 256 0
-24 258 -252 -256 0
-25 -258 252 0
-25 258 -252 0
-26 -258 252 0
-26 258 -252 0
-27 -258 252 0
-27 258 -252 0
-28 -258 252 0
-28 258 -252 0
-29 -258 252 0
-29 258 -252 0
-30 -258 252 0
-30 258 -252 0
-62 -258 252 0
-62 258 -252 0
-16 -259 253 0
-16 259 -253 0
-17 -253 259 0
-17 -251 259 0
-17 -259 253 251 0
-18 -259 253 0
-18 259 -253 0
-19 -259 253 0
-19 259 -253 0
-20 -259 253 0
-20 259 -253 0
-21 -253 259 0
-21 -252 259 0
-21 -259 253 252 0
-22 -259 253 0
-22 259 -253 0
-23 -259 253 0
-23 259 -253 0
-24 -259 253 0
-24 259 -253 0
-25 -259 253 0
-25 -259 254 0
-25 259 -253 -254 0
-26 -259 253 0
-26 -259 255 0
-26 259 -253 -255 0
-27 -259 253 0
-27 -259 256 0
-27 259 -253 -256 0
-28 -259 253 0
-28 259 -253 0
-29 -259 253 0
-29 259 -253 0
-30 -259 253 0
-30 259 -253 0
-62 -259 253 0
-62 259 -253 0
-16 -260 254 0
-16 260 -254 0
-17 -260 254 0
-17 260 -254 0
-18 -254 260 0
-18 -251 260 0
-18 -260 254 251 0
-19 -260 254 0
-19 260 -254 0
-20 -260 254 0
-20 260 -254 0
-21 -260 254 0
-21 260 -254 0
-22 -254 260 0
-22 -252 260 0
-22 -260 254 252 0
-23 -260 254 0
-23 260 -254 0
-24 -260 254 0
-24 260 -254 0
-25 -254 260 0
-25 -253 260 0
-25 -260 254 253 0
-26 -260 254 0
-26 260 -254 0
-27 -260 254 0
-27 260 -254 0
-28 -260 254 0
-28 -260 255 0
-28 260 -254 -255 0
-29 -260 254 0
-29 -260 256 0
-29 260 -254 -256 0
-30 -260 254 0
-30 260 -254 0
-62 -260 254 0
-62 260 -254 0
-16 -261 255 0
-16 261 -255 0
-17 -261 255 0
-17 261 -255 0
-18 -261 255 0
-18 261 -255 0
-19 -255 261 0
-19 -251 261 0
-19 -261 255 251 0
-20 -261 255 0
-20 261 -255 0
-21 -261 255 0
-21 261 -255 0
-22 -261 255 0
-22 261 -255 0
-23 -255 261 0
-23 -252 261 0
-23 -261 255 252 0
-24 -261 255 0
-24 261 -255 0
-25 -261 255 0
-25 261 -255 0
-26 -255 261 0
-26 -253 261 0
-26 -261 255 253 0
-27 -261 255 0
-27 261 -255 0
-28 -255 261 0
-28 -254 261 0
-28 -261 255 254 0
-29 -261 255 0
-29 261 -255 0
-30 -261 255 0
-30 -261 256 0
-30 261 -255 -256 0
-62 -261 255 0
-62 261 -255 0
-16 -262 256 0
-16 262 -256 0
-17 -262 256 0
-17 262 -256 0
-18 -262 256 0
-18 262 -256 0
-19 -262 256 0
-19 262 -256 0
-20 -256 262 0
-20 -251 262 0
-20 -262 256 251 0
-21 -262 256 0
-21 262 -256 0
-22 -262 256 0
-22 262 -256 0
-23 -262 256 0
-23 262 -256 0
-24 -256 262 0
-24 -252 262 0
-24 -262 256 252 0
-25 -262 256 0
-25 262 -256 0
-26 -262 256 0
-26 262 -256 0
-27 -256 262 0
-27 -253 262 0
-27 -262 256 253 0
-28 -262 256 0
-28 262 -256 0
-29 -256 262 0
-29 -254 262 0
-29 -262 256 254 0
-30 -256 262 0
-30 -255 262 0
-30 -262 256 255 0
-62 -262 256 0
-62 262 -256 0
-31 -263 257 0
-31 -263 258 0
-31 263 -257 -258 0
-32 -263 257 0
-32 -263 259 0
-32 263 -257 -259 0
-33 -263 257 0
-33 -263 260 0
-33 263 -257 -260 0
-34 -263 257 0
-34 -263 261 0
-34 263 -257 -261 0
-35 -263 257 0
-35 -263 262 0
-35 263 -257 -262 0
-36 -263 257 0
-36 263 -257 0
-37 -263 257 0
-37 263 -257 0
-38 -263 257 0
-38 263 -257 0
-39 -263 257 0
-39 263 -257 0
-40 -263 257 0
-40 263 -257 0
-41 -263 257 0
-41 263 -257 0
-42 -263 257 0
-42 263 -257 0
-43 -263 257 0
-43 263 -257 0
-44 -263 257 0
-44 263 -257 0
-45 -263 257 0
-45 263 -257 0
-63 -263 257 0
-63 263 -257 0
-31 -258 264 0
-31 -257 264 0
-31 -264 258 257 0
-32 -264 258 0
-32 264 -258 0
-33 -264 258 0
-33 264 -258 0
-34 -264 258 0
-34 264 -258 0
-35 -264 258 0
-35 264 -258 0
-36 -264 258 0
-36 -264 259 0
-36 264 -258 -259 0
-37 -264 258 0
-37 -264 260 0
-37 264 -258 -260 0
-38 -264 258 0
-38 -264 261 0
-38 264 -258 -261 0
-39 -264 258 0
-39 -264 262 0
-39 264 -258 -262 0
-40 -264 258 0
-40 264 -258 0
-41 -264 258 0
-41 264 -258 0
-42 -264 258 0
-42 264 -258 0
-43 -264 258 0
-43 264 -258 0
-44 -264 258 0
-44 264 -258 0
-45 -264 258 0
-45 264 -258 0
-63 -264 258 0
-63 264 -258 0
-31 -265 259 0
-31 265 -259 0
-32 -259 265 0
-32 -257 265 0
-32 -265 259 257 0
-33 -265 259 0
-33 265 -259 0
-34 -265 259 0
-34 265 -259 0
-35 -265 259 0
-35 265 -259 0
-36 -259 265 0
-36 -258 265 0
-36 -265 259 258 0
-37 -265 259 0
-37 265 -259 0
-38 -265 259 0
-38 265 -259 0
-39 -265 259 0
-39 265 -259 0
-40 -265 259 0
-40 -265 260 0
-40 265 -259 -260 0
-41 -265 259 0
-41 -265 261 0
-41 265 -259 -261 0
-42 -265 259 0
-42 -265 262 0
-42 265 -259 -262 0
-43 -265 259 0
-43 265 -259 0
-44 -265 259 0
-44 265 -259 0
-45 -265 259 0
-45 265 -259 0
-63 -265 259 0
-63 265 -259 0
-31 -266 260 0
-31 266 -260 0
-32 -266 260 0
-32 266 -260 0
-33 -260 266 0
-33 -257 266 0
-33 -266 260 257 0
-34 -266 260 0
-34 266 -260 0
-35 -266 260 0
-35 266 -260 0
-36 -266 260 0
-36 266 -260 0
-37 -260 266 0
-37 -258 266 0
-37 -266 260 258 0
-38 -266 260 0
-38 266 -260 0
-39 -266 260 0
-39 266 -260 0
-40 -260 266 0
-40 -259 266 0
-40 -266 260 259 0
-41 -266 260 0
-41 266 -260 0
-42 -266 260 0
-42 266 -260 0
-43 -266 260 0
-43 -266 261 0
-43 266 -260 -261 0
-44 -266 260 0
-44 -266 262 0
-44 266 -260 -262 0
-45 -266 260 0
-45 266 -260 0
-63 -266 260 0
-63 266 -260 0
-31 -267 261 0
-31 267 -261 0
-32 -267 261 0
-32 267 -261 0
-33 -267 261 0
-33 267 -261 0
-34 -261 267 0
-34 -257 267 0
-34 -267 261 257 0
-35 -267 261 0
-35 267 -261 0
-36 -267 261 0
-36 267 -261 0
-37 -267 261 0
-37 267 -261 0
-38 -261 267 0
-38 -258 267 0
-38 -267 261 258 0
-39 -267 261 0
-39 267 -261 0
-40 -267 261 0
-40 267 -261 0
-41 -261 267 0
-41 -259 267 0
-41 -267 261 259 0
-42 -267 261 0
-42 267 -261 0
-43 -261 267 0
-43 -260 267 0
-43 -267 261 260 0
-44 -267 261 0
-44 267 -261 0
-45 -267 261 0
-45 -267 262 0
-45 267 -261 -262 0
-63 -267 261 0
-63 267 -261 0
-31 -268 262 0
-31 268 -262 0
-32 -268 262 0
-32 268 -262 0
-33 -268 262 0
-33 268 -262 0
-34 -268 262 0
-34 268 -262 0
-35 -262 268 0
-35 -257 268 0
-35 -268 262 257 0
-36 -268 262 0
-36 268 -262 0
-37 -268 262 0
-37 268 -262 0
-38 -268 262 0
-38 268 -262 0
-39 -262 268 0
-39 -258 268 0
-39 -268 262 258 0
-40 -268 262 0
-40 268 -262 0
-41 -268 262 0
-41 268 -262 0
-42 -262 268 0
-42 -259 268 0
-42 -268 262 259 0
-43 -268 262 0
-43 268 -262 0
-44 -262 268 0
-44 -260 268 0
-44 -268 262 260 0
-45 -262 268 0
-45 -261 268 0
-45 -268 262 261 0
-63 -268 262 0
-63 268 -262 0
-46 -269 263 0
-46 -269 264 0
-46 269 -263 -264 0
-47 -269 263 0
-47 -269 265 0
-47 269 -263 -265 0
-48 -269 263 0
-48 -269 266 0
-48 269 -263 -266 0
-49 -269 263 0
-49 -269 267 0
-49 269 -263 -267 0
-50 -269 263 0
-50 -269 268 0
-50 269 -263 -268 0
-51 -269 263 0
-51 269 -263 0
-52 -269 263 0
-52 269 -263 0
-53 -269 263 0
-53 269 -263 0
-54 -269 263 0
-54 269 -263 0
-55 -269 263 0
-55 269 -263 0
-56 -269 263 0
-56 269 -263 0
-57 -269 263 0
-57 269 -263 0
-58 -269 263 0
-58 269 -263 0
-59 -269 263 0
-59 269 -263 0
-60 -269 263 0
-60 269 -263 0
-64 -269 263 0
-64 269 -263 0
-46 -264 270 0
-46 -263 270 0
-46 -270 264 263 0
-47 -270 264 0
-47 270 -264 0
-48 -270 264 0
-48 270 -264 0
-49 -270 264 0
-49 270 -264 0
-50 -270 264 0
-50 270 -264 0
-51 -270 264 0
-51 -270 265 0
-51 270 -264 -265 0
-52 -270 264 0
-52 -270 266 0
-52 270 -264 -266 0
-53 -270 264 0
-53 -270 267 0
-53 270 -264 -267 0
-54 -270 264 0
-54 -270 268 0
-54 270 -264 -268 0
-55 -270 264 0
-55 270 -264 0
-56 -270 264 0
-56 270 -264 0
-57 -270 264 0
-57 270 -264 0
-58 -270 264 0
-58 270 -264 0
-59 -270 264 0
-59 270 -264 0
-60 -270 264 0
-60 270 -264 0
-64 -270 264 0
-64 270 -264 0
-46 -271 265 0
-46 271 -265 0
-47 -265 271 0
-47 -263 271 0
-47 -271 265 263 0
-48 -271 265 0
-48 271 -265 0
-49 -271 265 0
-49 271 -265 0
-50 -271 265 0
-50 271 -265 0
-51 -265 271 0
-51 -264 271 0
-51 -271 265 264 0
-52 -271 265 0
-52 271 -265 0
-53 -271 265 0
-53 271 -265 0
-54 -271 265 0
-54 271 -265 0
-55 -271 265 0
-55 -271 266 0
-55 271 -265 -266 0
-56 -271 265 0
-56 -271 267 0
-56 271 -265 -267 0
-57 -271 265 0
-57 -271 268 0
-57 271 -265 -268 0
-58 -271 265 0
-58 271 -265 0
-59 -271 265 0
-59 271 -265 0
-60 -271 265 0
-60 271 -265 0
-64 -271 265 0
-64 271 -265 0
-46 -272 266 0
-46 272 -266 0
-47 -272 266 0
-47 272 -266 0
-48 -266 272 0
-48 -263 272 0
-48 -272 266 263 0
-49 -272 266 0
-49 272 -266 0
-50 -272 266 0
-50 272 -266 0
-51 -272 266 0
-51 272 -266 0
-52 -266 272 0
-52 -264 272 0
-52 -272 266 264 0
-53 -272 266 0
-53 272 -266 0
-54 -272 266 0
-54 272 -266 0
-55 -266 272 0
-55 -265 272 0
-55 -272 266 265 0
-56 -272 266 0
-56 272 -266 0
-57 -272 266 0
-57 272 -266 0
-58 -272 266 0
-58 -272 267 0
-58 272 -266 -267 0
-59 -272 266 0
-59 -272 268 0
-59 272 -266 -268 0
-60 -272 266 0
-60 272 -266 0
-64 -272 266 0
-64 272 -266 0
-46 -273 267 0
-46 273 -267 0
-47 -273 267 0
-47 273 -267 0
-48 -273 267 0
-48 273 -267 0
-49 -267 273 0
-49 -263 273 0
-49 -273 267 263 0
-50 -273 267 0
-50 273 -267 0
-51 -273 267 0
-51 273 -267 0
-52 -273 267 0
-52 273 -267 0
-53 -267 273 0
-53 -264 273 0
-53 -273 267 264 0
-54 -273 267 0
-54 273 -267 0
-55 -273 267 0
-55 273 -267 0
-56 -267 273 0
-56 -265 273 0
-56 -273 267 265 0
-57 -273 267 0
-57 273 -267 0
-58 -267 273 0
-58 -266 273 0
-58 -273 267 266 0
-59 -273 267 0
-59 273 -267 0
-60 -273 267 0
-60 -273 268 0
-60 273 -267 -268 0
-64 -273 267 0
-64 273 -267 0
-46 -274 268 0
-46 274 -268 0
-47 -274 268 0
-47 274 -268 0
-48 -274 268 0
-48 274 -268 0
-49 -274 268 0
-49 274 -268 0
-50 -268 274 0
-50 -263 274 0
-50 -274 268 263 0
-51 -274 268 0
-51 274 -268 0
-52 -274 268 0
-52 274 -268 0
-53 -274 268 0
-53 274 -268 0
-54 -268 274 0
-54 -264 274 0
-54 -274 268 264 0
-55 -274 268 0
-55 274 -268 0
-56 -274 268 0
-56 274 -268 0
-57 -268 274 0
-57 -265 274 0
-57 -274 268 265 0
-58 -274 268 0
-58 274 -268 0
-59 -268 274 0
-59 -266 274 0
-59 -274 268 266 0
-60 -268 274 0
-60 -267 274 0
-60 -274 268 267 0
-64 -274 268 0
-64 274 -268 0
-275 0
-1 -281 275 0
-1 -281 276 0
-1 281 -275 -276 0
-2 -281 275 0
-2 -281 277 0
-2 281 -275 -277 0
-3 -281 275 0
-3 -281 278 0
-3 281 -275 -278 0
-4 -281 275 0
-4 -281 279 0
-4 281 -275 -279 0
-5 -281 275 0
-5 -281 280 0
-5 281 -275 -280 0
-6 -281 275 0
-6 281 -275 0
-7 -281 275 0
-7 281 -275 0
-8 -281 275 0
-8 281 -275 0
-9 -281 275 0
-9 281 -275 0
-10 -281 275 0
-10 281 -275 0
-11 -281 275 0
-11 281 -275 0
-12 -281 275 0
-12 281 -275 0
-13 -281 275 0
-13 281 -275 0
-14 -281 275 0
-14 281 -275 0
-15 -281 275 0
-15 281 -275 0
-61 -281 275 0
-61 281 -275 0
276 0
-1 -276 282 0
-1 -275 282 0
-1 -282 276 275 0
-2 -282 276 0
-2 282 -276 0
-3 -282 276 0
-3 282 -276 0
-4 -282 276 0
-4 282 -276 0
-5 -282 276 0
-5 282 -276 0
-6 -282 276 0
-6 -282 277 0
-6 282 -276 -277 0
-7 -282 276 0
-7 -282 278 0
-7 282 -276 -278 0
-8 -282 276 0
-8 -282 279 0
-8 282 -276 -279 0
-9 -282 276 0
-9 -282 280 0
-9 282 -276 -280 0
-10 -282 276 0
-10 282 -276 0
-11 -282 276 0
-11 282 -276 0
-12 -282 276 0
-12 282 -276 0
-13 -282 276 0
-13 282 -276 0
-14 -282 276 0
-14 282 -276 0
-15 -282 276 0
-15 282 -276 0
-61 -282 276 0
-61 282 -276 0
-277 0
-1 -283 277 0
-1 283 -277 0
-2 -277 283 0
-2 -275 283 0
-2 -283 277 275 0
-3 -283 277 0
-3 283 -277 0
-4 -283 277 0
-4 283 -277 0
-5 -283 277 0
-5 283 -277 0
-6 -277 283 0
-6 -276 283 0
-6 -283 277 276 0
-7 -283 277 0
-7 283 -277 0
-8 -283 277 0
-8 283 -277 0
-9 -283 277 0
-9 283 -277 0
-10 -283 277 0
-10 -283 278 0
-10 283 -277 -278 0
-11 -283 277 0
-11 -283 279 0
-11 283 -277 -279 0
-12 -283 277 0
-12 -283 280 0
-12 283 -277 -280 0
-13 -283 277 0
-13 283 -277 0
-14 -283 277 0
-14 283 -277 0
-15 -283 277 0
-15 283 -277 0
-61 -283 277 0
-61 283 -277 0
-278 0
-1 -284 278 0
-1 284 -278 0
-2 -284 278 0
-2 284 -278 0
-3 -278 284 0
-3 -275 284 0
-3 -284 278 275 0
-4 -284 278 0
-4 284 -278 0
-5 -284 278 0
-5 284 -278 0
-6 -284 278 0
-6 284 -278 0
-7 -278 284 0
-7 -276 284 0
-7 -284 278 276 0
-8 -284 278 0
-8 284 -278 0
-9 -284 278 0
-9 284 -278 0
-10 -278 284 0
-10 -277 284 0
-10 -284 278 277 0
-11 -284 278 0
-11 284 -278 0
-12 -284 278 0
-12 284 -278 0
-13 -284 278 0
-13 -284 279 0
-13 284 -278 -279 0
-14 -284 278 0
-14 -284 280 0
-14 284 -278 -280 0
-15 -284 278 0
-15 284 -278 0
-61 -284 278 0
-61 284 -278 0
279 0
-1 -285 279 0
-1 285 -279 0
-2 -285 279 0
-2 285 -279 0
-3 -285 279 0
-3 285 -279 0
-4 -279 285 0
-4 -275 285 0
-4 -285 279 275 0
-5 -285 279 0
-5 285 -279 0
-6 -285 279 0
-6 285 -279 0
-7 -285 279 0
-7 285 -279 0
-8 -279 285 0
-8 -276 285 0
-8 -285 279 276 0
-9 -285 279 0
-9 285 -279 0
-10 -285 279 0
-10 285 -279 0
-11 -279 285 0
-11 -277 285 0
-11 -285 279 277 0
-12 -285 279 0
-12 285 -279 0
-13 -279 285 0
-13 -278 285 0
-13 -285 279 278 0
-14 -285 279 0
-14 285 -279 0
-15 -285 279 0
-15 -285 280 0
-15 285 -279 -280 0
-61 -285 279 0
-61 285 -279 0
280 0
-1 -286 280 0
-1 286 -280 0
-2 -286 280 0
-2 286 -280 0
-3 -286 280 0
-3 286 -280 0
-4 -286 280 0
-4 286 -280 0
-5 -280 286 0
-5 -275 286 0
-5 -286 280 275 0
-6 -286 280 0
-6 286 -280 0
-7 -286 280 0
-7 286 -280 0
-8 -286 280 0
-8 286 -280 0
-9 -280 286 0
-9 -276 286 0
-9 -286 280 276 0
-10 -286 280 0
-10 286 -280 0
-11 -286 280 0
-11 286 -280 0
-12 -280 286 0
-12 -277 286 0
-12 -286 280 277 0
-13 -286 280 0
-13 286 -280 0
-14 -280 286 0
-14 -278 286 0
-14 -286 280 278 0
-15 -280 286 0
-15 -279 286 0
-15 -286 280 279 0
-61 -286 280 0
-61 286 -280 0
-16 -287 281 0
-16 -287 282 0
-16 287 -281 -282 0
-17 -287 281 0
-17 -287 283 0
-17 287 -281 -283 0
-18 -287 281 0
-18 -287 284 0
-18 287 -281 -284 0
-19 -287 281 0
-19 -287 285 0
-19 287 -281 -285 0
-20 -287 281 0
-20 -287 286 0
-20 287 -281 -286 0
-21 -287 281 0
-21 287 -281 0
-22 -287 281 0
-22 287 -281 0
-23 -287 281 0
-23 287 -281 0
-24 -287 281 0
-24 287 -281 0
-25 -287 281 0
-25 287 -281 0
-26 -287 281 0
-26 287 -281 0
-27 -287 281 0
-27 287 -281 0
-28 -287 281 0
-28 287 -281 0
-29 -287 281 0
-29 287 -281 0
-30 -287 281 0
-30 287 -281 0
-62 -287 281 0
-62 287 -281 0
-16 -282 288 0
-16 -281 288 0
-16 -288 282 281 0
-17 -288 282 0
-17 288 -282 0
-18 -288 282 0
-18 288 -282 0
-19 -288 282 0
-19 288 -282 0
-20 -288 282 0
-20 288 -282 0
-21 -288 282 0
-21 -288 283 0
-21 288 -282 -283 0
-22 -288 282 0
-22 -288 284 0
-22 288 -282 -284 0
-23 -288 282 0
-23 -288 285 0
-23 288 -282 -285 0
-24 -288 282 0
-24 -288 286 0
-24 288 -282 -286 0
-25 -288 282 0
-25 288 -282 0
-26 -288 282 0
-26 288 -282 0
-27 -288 282 0
-27 288 -282 0
-28 -288 282 0
-28 288 -282 0
-29 -288 282 0
-29 288 -282 0
-30 -288 282 0
-30 288 -282 0
-62 -288 282 0
-62 288 -282 0
-16 -289 283 0
-16 289 -283 0
-17 -283 289 0
-17 -281 289 0
-17 -289 283 281 0
-18 -289 283 0
-18 289 -283 0
-19 -289 283 0
-19 289 -283 0
-20 -289 283 0
-20 289 -283 0
-21 -283 289 0
-21 -282 289 0
-21 -289 283 282 0
-22 -289 283 0
-22 289 -283 0
-23 -289 283 0
-23 289 -283 0
-24 -289 283 0
-24 289 -283 0
-25 -289 283 0
-25 -289 284 0
-25 289 -283 -284 0
-26 -289 283 0
-26 -289 285 0
-26 289 -283 -285 0
-27 -289 283 0
-27 -289 286 0
-27 289 -283 -286 0
-28 -289 283 0
-28 289 -283 0
-29 -289 283 0
-29 289 -283 0
-30 -289 283 0
-30 289 -283 0
-62 -289 283 0
-62 289 -283 0
-16 -290 284 0
-16 290 -284 0
-17 -290 284 0
-17 290 -284 0
-18 -284 290 0
-18 -281 290 0
-18 -290 284 281 0
-19 -290 284 0
-19 290 -284 0
-20 -290 284 0
-20 290 -284 0
-21 -290 284 0
-21 290 -284 0
-22 -284 290 0
-22 -282 290 0
-22 -290 284 282 0
-23 -290 284 0
-23 290 -284 0
-24 -290 284 0
-24 290 -284 0
-25 -284 290 0
-25 -283 290 0
-25 -290 284 283 0
-26 -290 284 0
-26 290 -284 0
-27 -290 284 0
-27 290 -284 0
-28 -290 284 0
-28 -290 285 0
-28 290 -284 -285 0
-29 -290 284 0
-29 -290 286 0
-29 290 -284 -286 0
-30 -290 284 0
-30 290 -284 0
-62 -290 284 0
-62 290 -284 0
-16 -291 285 0
-16 291 -285 0
-17 -291 285 0
-17 291 -285 0
-18 -291 285 0
-18 291 -285 0
-19 -285 291 0
-19 -281 291 0
-19 -291 285 281 0
-20 -291 285 0
-20 291 -285 0
-21 -291 285 0
-21 291 -285 0
-22 -291 285 0
-22 291 -285 0
-23 -285 291 0
-23 -282 291 0
-23 -291 285 282 0
-24 -291 285 0
-24 291 -285 0
-25 -291 285 0
-25 291 -285 0
-26 -285 291 0
-26 -283 291 0
-26 -291 285 283 0
-27 -291 285 0
-27 291 -285 0
-28 -285 291 0
-28 -284 291 0
-28 -291 285 284 0
-29 -291 285 0
-29 291 -285 0
-30 -291 285 0
-30 -291 286 0
-30 291 -285 -286 0
-62 -291 285 0
-62 291 -285 0
-16 -292 286 0
-16 292 -286 0
-17 -292 286 0
-17 292 -286 0
-18 -292 286 0
-18 292 -286 0
-19 -292 286 0
-19 292 -286 0
-20 -286 292 0
-20 -281 292 0
-20 -292 286 281 0
-21 -292 286 0
-21 292 -286 0
-22 -292 286 0
-22 292 -286 0
-23 -292 286 0
-23 292 -286 0
-24 -286 292 0
-24 -282 292 0
-24 -292 286 282 0
-25 -292 286 0
-25 292 -286 0
-26 -292 286 0
-26 292 -286 0
-27 -286 292 0
-27 -283 292 0
-27 -292 286 283 0
-28 -292 286 0
-28 292 -286 0
-29 -286 292 0
-29 -284 292 0
-29 -292 286 284 0
-30 -286 292 0
-30 -285 292 0
-30 -292 286 285 0
-62 -292 286 0
-62 292 -286 0
-31 -293 287 0
-31 -293 288 0
-31 293 -287 -288 0
-32 -293 287 0
-32 -293 289 0
-32 293 -287 -289 0
-33 -293 287 0
-33 -293 290 0
-33 293 -287 -290 0
-34 -293 287 0
-34 -293 291 0
-34 293 -287 -291 0
-35 -293 287 0
-35 -293 292 0
-35 293 -287 -292 0
-36 -293 287 0
-36 293 -287 0
-37 -293 287 0
-37 293 -287 0
-38 -293 287 0
-38 293 -287 0
-39 -293 287 0
-39 293 -287 0
-40 -293 287 0
-40 293 -287 0
-41 -293 287 0
-41 293 -287 0
-42 -293 287 0
-42 293 -287 0
-43 -293 287 0
-43 293 -287 0
-44 -293 287 0
-44 293 -287 0
-45 -293 287 0
-45 293 -287 0
-63 -293 287 0
-63 293 -287 0
-31 -288 294 0
-31 -287 294 0
-31 -294 288 287 0
-32 -294 288 0
-32 294 -288 0
-33 -294 288 0
-33 294 -288 0
-34 -294 288 0
-34 294 -288 0
-35 -294 288 0
-35 294 -288 0
-36 -294 288 0
-36 -294 289 0
-36 294 -288 -289 0
-37 -294 288 0
-37 -294 290 0
-37 294 -288 -290 0
-38 -294 288 0
-38 -294 291 0
-38 294 -288 -291 0
-39 -294 288 0
-39 -294 292 0
-39 294 -288 -292 0
-40 -294 288 0
-40 294 -288 0
-41 -294 288 0
-41 294 -288 0
-42 -294 288 0
-42 294 -288 0
-43 -294 288 0
-43 294 -288 0
-44 -294 288 0
-44 294 -288 0
-45 -294 288 0
-45 294 -288 0
-63 -294 288 0
-63 294 -288 0
-31 -295 289 0
-31 295 -289 0
-32 -289 295 0
-32 -287 295 0
-32 -295 289 287 0
-33 -295 289 0
-33 295 -289 0
-34 -295 289 0
-34 295 -289 0
-35 -295 289 0
-35 295 -289 0
-36 -289 295 0
-36 -288 295 0
-36 -295 289 288 0
-37 -295 289 0
-37 295 -289 0
-38 -295 289 0
-38 295 -289 0
-39 -295 289 0
-39 295 -289 0
-40 -295 289 0
-40 -295 290 0
-40 295 -289 -290 0
-41 -295 289 0
-41 -295 291 0
-41 295 -289 -291 0
-42 -295 289 0
-42 -295 292 0
-42 295 -289 -292 0
-43 -295 289 0
-43 295 -289 0
-44 -295 289 0
-44 295 -289 0
-45 -295 289 0
-45 295 -289 0
-63 -295 289 0
-63 295 -289 0
-31 -296 290 0
-31 296 -290 0
-32 -296 290 0
-32 296 -290 0
-33 -290 296 0
-33 -287 296 0
-33 -296 290 287 0
-34 -296 290 0
-34 296 -290 0
-35 -296 290 0
-35 296 -290 0
-36 -296 290 0
-36 296 -290 0
-37 -290 296 0
-37 -288 296 0
-37 -296 290 288 0
-38 -296 290 0
-38 296 -290 0
-39 -296 290 0
-39 296 -290 0
-40 -290 296 0
-40 -289 296 0
-40 -296 290 289 0
-41 -296 290 0
-41 296 -290 0
-42 -296 290 0
-42 296 -290 0
-43 -296 290 0
-43 -296 291 0
-43 296 -290 -291 0
-44 -296 290 0
-44 -296 292 0
-44 296 -290 -292 0
-45 -296 290 0
-45 296 -290 0
-63 -296 290 0
-63 296 -290 0
-31 -297 291 0
-31 297 -291 0
-32 -297 291 0
-32 297 -291 0
-33 -297 291 0
-33 297 -291 0
-34 -291 297 0
-34 -287 297 0
-34 -297 291 287 0
-35 -297 291 0
-35 297 -291 0
-36 -297 291 0
-36 297 -291 0
-37 -297 291 0
-37 297 -291 0
-38 -291 297 0
-38 -288 297 0
-38 -297 291 288 0
-39 -297 291 0
-39 297 -291 0
-40 -297 291 0
-40 297 -291 0
-41 -291 297 0
-41 -289 297 0
-41 -297 291 289 0
-42 -297 291 0
-42 297 -291 0
-43 -291 297 0
-43 -290 297 0
-43 -297 291 290 0
-44 -297 291 0
-44 297 -291 0
-45 -297 291 0
-45 -297 292 0
-45 297 -291 -292 0
-63 -297 291 0
-63 297 -291 0
-31 -298 292 0
-31 298 -292 0
-32 -298 292 0
-32 298 -292 0
-33 -298 292 0
-33 298 -292 0
-34 -298 292 0
-34 298 -292 0
-35 -292 298 0
-35 -287 298 0
-35 -298 292 287 0
-36 -298 292 0
-36 298 -292 0
-37 -298 292 0
-37 298 -292 0
-38 -298 292 0
-38 298 -292 0
-39 -292 298 0
-39 -288 298 0
-39 -298 292 288 0
-40 -298 292 0
-40 298 -292 0
-41 -298 292 0
-41 298 -292 0
-42 -292 298 0
-42 -289 298 0
-42 -298 292 289 0
-43 -298 292 0
-43 298 -292 0
-44 -292 298 0
-44 -290 298 0
-44 -298 292 290 0
-45 -292 298 0
-45 -291 298 0
-45 -298 292 291 0
-63 -298 292 0
-63 298 -292 0
-46 -299 293 0
-46 -299 294 0
-46 299 -293 -294 0
-47 -299 293 0
-47 -299 295 0
-47 299 -293 -295 0
-48 -299 293 0
-48 -299 296 0
-48 299 -293 -296 0
-49 -299 293 0
-49 -299 297 0
-49 299 -293 -297 0
-50 -299 293 0
-50 -299 298 0
-50 299 -293 -298 0
-51 -299 293 0
-51 299 -293 0
-52 -299 293 0
-52 299 -293 0
-53 -299 293 0
-53 299 -293 0
-54 -299 293 0
-54 299 -293 0
-55 -299 293 0
-55 299 -293 0
-56 -299 293 0
-56 299 -293 0
-57 -299 293 0
-57 299 -293 0
-58 -299 293 0
-58 299 -293 0
-59 -299 293 0
-59 299 -293 0
-60 -299 293 0
-60 299 -293 0
-64 -299 293 0
-64 299 -293 0
-46 -294 300 0
-46 -293 300 0
-46 -300 294 293 0
-47 -300 294 0
-47 300 -294 0
-48 -300 294 0
-48 300 -294 0
-49 -300 294 0
-49 300 -294 0
-50 -300 294 0
-50 300 -294 0
-51 -300 294 0
-51 -300 295 0
-51 300 -294 -295 0
-52 -300 294 0
-52 -300 296 0
-52 300 -294 -296 0
-53 -300 294 0
-53 -300 297 0
-53 300 -294 -297 0
-54 -300 294 0
-54 -300 298 0
-54 300 -294 -298 0
-55 -300 294 0
-55 300 -294 0
-56 -300 294 0
-56 300 -294 0
-57 -300 294 0
-57 300 -294 0
-58 -300 294 0
-58 300 -294 0
-59 -300 294 0
-59 300 -294 0
-60 -300 294 0
-60 300 -294 0
-64 -300 294 0
-64 300 -294 0
-46 -301 295 0
-46 301 -295 0
-47 -295 301 0
-47 -293 301 0
-47 -301 295 293 0
-48 -301 295 0
-48 301 -295 0
-49 -301 295 0
-49 301 -295 0
-50 -301 295 0
-50 301 -295 0
-51 -295 301 0
-51 -294 301 0
-51 -301 295 294 0
-52 -301 295 0
-52 301 -295 0
-53 -301 295 0
-53 301 -295 0
-54 -301 295 0
-54 301 -295 0
-55 -301 295 0
-55 -301 296 0
-55 301 -295 -296 0
-56 -301 295 0
-56 -301 297 0
-56 301 -295 -297 0
-57 -301 295 0
-57 -301 298 0
-57 301 -295 -298 0
-58 -301 295 0
-58 301 -295 0
-59 -301 295 0
-59 301 -295 0
-60 -301 295 0
-60 301 -295 0
-64 -301 295 0
-64 301 -295 0
-46 -302 296 0
-46 302 -296 0
-47 -302 296 0
-47 302 -296 0
-48 -296 302 0
-48 -293 302 0
-48 -302 296 293 0
-49 -302 296 0
-49 302 -296 0
-50 -302 296 0
-50 302 -296 0
-51 -302 296 0
-51 302 -296 0
-52 -296 302 0
-52 -294 302 0
-52 -302 296 294 0
-53 -302 296 0
-53 302 -296 0
-54 -302 296 0
-54 302 -296 0
-55 -296 302 0
-55 -295 302 0
-55 -302 296 295 0
-56 -302 296 0
-56 302 -296 0
-57 -302 296 0
-57 302 -296 0
-58 -302 296 0
-58 -302 297 0
-58 302 -296 -297 0
-59 -302 296 0
-59 -302 298 0
-59 302 -296 -298 0
-60 -302 296 0
-60 302 -296 0
-64 -302 296 0
-64 302 -296 0
-46 -303 297 0
-46 303 -297 0
-47 -303 297 0
-47 303 -297 0
-48 -303 297 0
-48 303 -297 0
-49 -297 303 0
-49 -293 303 0
-49 -303 297 293 0
-50 -303 297 0
-50 303 -297 0
-51 -303 297 0
-51 303 -297 0
-52 -303 297 0
-52 303 -297 0
-53 -297 303 0
-53 -294 303 0
-53 -303 297 294 0
-54 -303 297 0
-54 303 -297 0
-55 -303 297 0
-55 303 -297 0
-56 -297 303 0
-56 -295 303 0
-56 -303 297 295 0
-57 -303 297 0
-57 303 -297 0
-58 -297 303 0
-58 -296 303 0
-58 -303 297 296 0
-59 -303 297 0
-59 303 -297 0
-60 -303 297 0
-60 -303 298 0
-60 303 -297 -298 0
-64 -303 297 0
-64 303 -297 0
-46 -304 298 0
-46 304 -298 0
-47 -304 298 0
-47 304 -298 0
-48 -304 298 0
-48 304 -298 0
-49 -304 298 0
-49 304 -298 0
-50 -298 304 0
-50 -293 304 0
-50 -304 298 293 0
-51 -304 298 0
-51 304 -298 0
-52 -304 298 0
-52 304 -298 0
-53 -304 298 0
-53 304 -298 0
-54 -298 304 0
-54 -294 304 0
-54 -304 298 294 0
-55 -304 298 0
-55 304 -298 0
-56 -304 298 0
-56 304 -298 0
-57 -298 304 0
-57 -295 304 0
-57 -304 298 295 0
-58 -304 298 0
-58 304 -298 0
-59 -298 304 0
-59 -296 304 0
-59 -304 298 296 0
-60 -298 304 0
-60 -297 304 0
-60 -304 298 297 0
-64 -304 298 0
-64 304 -298 0
-305 0
-1 -311 305 0
-1 -311 306 0
-1 311 -305 -306 0
-2 -311 305 0
-2 -311 307 0
-2 311 -305 -307 0
-3 -311 305 0
-3 -311 308 0
-3 311 -305 -308 0
-4 -311 305 0
-4 -311 309 0
-4 311 -305 -309 0
-5 -311 305 0
-5 -311 310 0
-5 311 -305 -310 0
-6 -311 305 0
-6 311 -305 0
-7 -311 305 0
-7 311 -305 0
-8 -311 305 0
-8 311 -305 0
-9 -311 305 0
-9 311 -305 0
-10 -311 305 0
-10 311 -305 0
-11 -311 305 0
-11 311 -305 0
-12 -311 305 0
-12 311 -305 0
-13 -311 305 0
-13 311 -305 0
-14 -311 305 0
-14 311 -305 0
-15 -311 305 0
-15 311 -305 0
-61 -311 305 0
-61 311 -305 0
306 0
-1 -306 312 0
-1 -305 312 0
-1 -312 306 305 0
-2 -312 306 0
-2 312 -306 0
-3 -312 306 0
-3 312 -306 0
-4 -312 306 0
-4 312 -306 0
-5 -312 306 0
-5 312 -306 0
-6 -312 306 0
-6 -312 307 0
-6 312 -306 -307 0
-7 -312 306 0
-7 -312 308 0
-7 312 -306 -308 0
-8 -312 306 0
-8 -312 309 0
-8 312 -306 -309 0
-9 -312 306 0
-9 -312 310 0
-9 312 -306 -310 0
-10 -312 306 0
-10 312 -306 0
-11 -312 306 0
-11 312 -306 0
-12 -312 306 0
-12 312 -306 0
-13 -312 306 0
-13 312 -306 0
-14 -312 306 0
-14 312 -306 0
-15 -312 306 0
-15 312 -306 0
-61 -312 306 0
-61 312 -306 0
-307 0
-1 -313 307 0
-1 313 -307 0
-2 -307 313 0
-2 -305 313 0
-2 -313 307 305 0
-3 -313 307 0
-3 313 -307 0
-4 -313 307 0
-4 313 -307 0
-5 -313 307 0
-5 313 -307 0
-6 -307 313 0
-6 -306 313 0
-6 -313 307 306 0
-7 -313 307 0
-7 313 -307 0
-8 -313 307 0
-8 313 -307 0
-9 -313 307 0
-9 313 -307 0
-10 -313 307 0
-10 -313 308 0
-10 313 -307 -308 0
-11 -313 307 0
-11 -313 309 0
-11 313 -307 -309 0
-12 -313 307 0
-12 -313 310 0
-12 313 -307 -310 0
-13 -313 307 0
-13 313 -307 0
-14 -313 307 0
-14 313 -307 0
-15 -313 307 0
-15 313 -307 0
-61 -313 307 0
-61 313 -307 0
308 0
-1 -314 308 0
-1 314 -308 0
-2 -314 308 0
-2 314 -308 0
-3 -308 314 0
-3 -305 314 0
-3 -314 308 305 0
-4 -314 308 0
-4 314 -308 0
-5 -314 308 0
-5 314 -308 0
-6 -314 308 0
-6 314 -308 0
-7 -308 314 0
-7 -306 314 0
-7 -314 308 306 0
-8 -314 308 0
-8 314 -308 0
-9 -314 308 0
-9 314 -308 0
-10 -308 314 0
-10 -307 314 0
-10 -314 308 307 0
-11 -314 308 0
-11 314 -308 0
-12 -314 308 0
-12 314 -308 0
-13 -314 308 0
-13 -314 309 0
-13 314 -308 -309 0
-14 -314 308 0
-14 -314 310 0
-14 314 -308 -310 0
-15 -314 308 0
-15 314 -308 0
-61 -314 308 0
-61 314 -308 0
309 0
-1 -315 309 0
-1 315 -309 0
-2 -315 309 0
-2 315 -309 0
-3 -315 309 0
-3 315 -309 0
-4 -309 315 0
-4 -305 315 0
-4 -315 309 305 0
-5 -315 309 0
-5 315 -309 0
-6 -315 309 0
-6 315 -309 0
-7 -315 309 0
-7 315 -309 0
-8 -309 315 0
-8 -306 315 0
-8 -315 309 306 0
-9 -315 309 0
-9 315 -309 0
-10 -315 309 0
-10 315 -309 0
-11 -309 315 0
-11 -307 315 0
-11 -315 309 307 0
-12 -315 309 0
-12 315 -309 0
-13 -309 315 0
-13 -308 315 0
-13 -315 309 308 0
-14 -315 309 0
-14 315 -309 0
-15 -315 309 0
-15 -315 310 0
-15 315 -309 -310 0
-61 -315 309 0
-61 315 -309 0
310 0
-1 -316 310 0
-1 316 -310 0
-2 -316 310 0
-2 316 -310 0
-3 -316 310 0
-3 316 -310 0
-4 -316 310 0
-4 316 -310 0
-5 -310 316 0
-5 -305 316 0
-5 -316 310 305 0
-6 -316 310 0
-6 316 -310 0
-7 -316 310 0
-7 316 -310 0
-8 -316 310 0
-8 316 -310 0
-9 -310 316 0
-9 -306 316 0
-9 -316 310 306 0
-10 -316 310 0
-10 316 -310 0
-11 -316 310 0
-11 316 -310 0
-12 -310 316 0
-12 -307 316 0
-12 -316 310 307 0
-13 -316 310 0
-13 316 -310 0
-14 -310 316 0
-14 -308 316 0
-14 -316 310 308 0
-15 -310 316 0
-15 -309 316 0
-15 -316 310 309 0
-61 -316 310 0
-61 316 -310 0
-16 -317 311 0
-16 -317 312 0
-16 317 -311 -312 0
-17 -317 311 0
-17 -317 313 0
-17 317 -311 -313 0
-18 -317 311 0
-18 -317 314 0
-18 317 -311 -314 0
-19 -317 311 0
-19 -317 315 0
-19 317 -311 -315 0
-20 -317 311 0
-20 -317 316 0
-20 317 -311 -316 0
-21 -317 311 0
-21 317 -311 0
-22 -317 311 0
-22 317 -311 0
-23 -317 311 0
-23 317 -311 0
-24 -317 311 0
-24 317 -311 0
-25 -317 311 0
-25 317 -311 0
-26 -317 311 0
-26 317 -311 0
-27 -317 311 0
-27 317 -311 0
-28 -317 311 0
-28 317 -311 0
-29 -317 311 0
-29 317 -311 0
-30 -317 311 0
-30 317 -311 0
-62 -317 311 0
-62 317 -311 0
-16 -312 318 0
-16 -311 318 0
-16 -318 312 311 0
-17 -318 312 0
-17 318 -312 0
-18 -318 312 0
-18 318 -312 0
-19 -318 312 0
-19 318 -312 0
-20 -318 312 0
-20 318 -312 0
-21 -318 312 0
-21 -318 313 0
-21 318 -312 -313 0
-22 -318 312 0
-22 -318 314 0
-22 318 -312 -314 0
-23 -318 312 0
-23 -318 315 0
-23 318 -312 -315 0
-24 -318 312 0
-24 -318 316 0
-24 318 -312 -316 0
-25 -318 312 0
-25 318 -312 0
-26 -318 312 0
-26 318 -312 0
-27 -318 312 0
-27 318 -312 0
-28 -318 312 0
-28 318 -312 0
-29 -318 312 0
-29 318 -312 0
-30 -318 312 0
-30 318 -312 0
-62 -318 312 0
-62 318 -312 0
-16 -319 313 0
-16 319 -313 0
-17 -313 319 0
-17 -311 319 0
-17 -319 313 311 0
-18 -319 313 0
-18 319 -313 0
-19 -319 313 0
-19 319 -313 0
-20 -319 313 0
-20 319 -313 0
-21 -313 319 0
-21 -312 319 0
-21 -319 313 312 0
-22 -319 313 0
-22 319 -313 0
-23 -319 313 0
-23 319 -313 0
-24 -319 313 0
-24 319 -313 0
-25 -319 313 0
-25 -319 314 0
-25 319 -313 -314 0
-26 -319 313 0
-26 -319 315 0
-26 319 -313 -315 0
-27 -319 313 0
-27 -319 316 0
-27 319 -313 -316 0
-28 -319 313 0
-28 319 -313 0
-29 -319 313 0
-29 319 -313 0
-30 -319 313 0
-30 319 -313 0
-62 -319 313 0
-62 319 -313 0
-16 -320 314 0
-16 320 -314 0
-17 -320 314 0
-17 320 -314 0
-18 -314 320 0
-18 -311 320 0
-18 -320 314 311 0
-19 -320 314 0
-19 320 -314 0
-20 -320 314 0
-20 320 -314 0
-21 -320 314 0
-21 320 -314 0
-22 -314 320 0
-22 -312 320 0
-22 -320 314 312 0
-23 -320 314 0
-23 320 -314 0
-24 -320 314 0
-24 320 -314 0
-25 -314 320 0
-25 -313 320 0
-25 -320 314 313 0
-26 -320 314 0
-26 320 -314 0
-27 -320 314 0
-27 320 -314 0
-28 -320 314 0
-28 -320 315 0
-28 320 -314 -315 0
-29 -320 314 0
-29 -320 316 0
-29 320 -314 -316 0
-30 -320 314 0
-30 320 -314 0
-62 -320 314 0
-62 320 -314 0
-16 -321 315 0
-16 321 -315 0
-17 -321 315 0
-17 321 -315 0
-18 -321 315 0
-18 321 -315 0
-19 -315 321 0
-19 -311 321 0
-19 -321 315 311 0
-20 -321 315 0
-20 321 -315 0
-21 -321 315 0
-21 321 -315 0
-22 -321 315 0
-22 321 -315 0
-23 -315 321 0
-23 -312 321 0
-23 -321 315 312 0
-24 -321 315 0
-24 321 -315 0
-25 -321 315 0
-25 321 -315 0
-26 -315 321 0
-26 -313 321 0
-26 -321 315 313 0
-27 -321 315 0
-27 321 -315 0
-28 -315 321 0
-28 -314 321 0
-28 -321 315 314 0
-29 -321 315 0
-29 321 -315 0
-30 -321 315 0
-30 -321 316 0
-30 321 -315 -316 0
-62 -321 315 0
-62 321 -315 0
-16 -322 316 0
-16 322 -316 0
-17 -322 316 0
-17 322 -316 0
-18 -322 316 0
-18 322 -316 0
-19 -322 316 0
-19 322 -316 0
-20 -316 322 0
-20 -311 322 0
-20 -322 316 311 0
-21 -322 316 0
-21 322 -316 0
-22 -322 316 0
-22 322 -316 0
-23 -322 316 0
-23 322 -316 0
-24 -316 322 0
-24 -312 322 0
-24 -322 316 312 0
-25 -322 316 0
-25 322 -316 0
-26 -322 316 0
-26 322 -316 0
-27 -316 322 0
-27 -313 322 0
-27 -322 316 313 0
-28 -322 316 0
-28 322 -316 0
-29 -316 322 0
-29 -314 322 0
-29 -322 316 314 0
-30 -316 322 0
-30 -315 322 0
-30 -322 316 315 0
-62 -322 316 0
-62 322 -316 0
-31 -323 317 0
-31 -323 318 0
-31 323 -317 -318 0
-32 -323 317 0
-32 -323 319 0
-32 323 -317 -319 0
-33 -323 317 0
-33 -323 320 0
-33 323 -317 -320 0
-34 -323 317 0
-34 -323 321 0
-34 323 -317 -321 0
-35 -323 317 0
-35 -323 322 0
-35 323 -317 -322 0
-36 -323 317 0
-36 323 -317 0
-37 -323 317 0
-37 323 -317 0
-38 -323 317 0
-38 323 -317 0
-39 -323 317 0
-39 323 -317 0
-40 -323 317 0
-40 323 -317 0
-41 -323 317 0
-41 323 -317 0
-42 -323 317 0
-42 323 -317 0
-43 -323 317 0
-43 323 -317 0
-44 -323 317 0
-44 323 -317 0
-45 -323 317 0
-45 323 -317 0
-63 -323 317 0
-63 323 -317 0
-31 -318 324 0
-31 -317 324 0
-31 -324 318 317 0
-32 -324 318 0
-32 324 -318 0
-33 -324 318 0
-33 324 -318 0
-34 -324 318 0
-34 324 -318 0
-35 -324 318 0
-35 324 -318 0
-36 -324 318 0
-36 -324 319 0
-36 324 -318 -319 0
-37 -324 318 0
-37 -324 320 0
-37 324 -318 -320 0
-38 -324 318 0
-38 -324 321 0
-38 324 -318 -321 0
-39 -324 318 0
-39 -324 322 0
-39 324 -318 -322 0
-40 -324 318 0
-40 324 -318 0
-41 -324 318 0
-41 324 -318 0
-42 -324 318 0
-42 324 -318 0
-43 -324 318 0
-43 324 -318 0
-44 -324 318 0
-44 324 -318 0
-45 -324 318 0
-45 324 -318 0
-63 -324 318 0
-63 324 -318 0
-31 -325 319 0
-31 325 -319 0
-32 -319 325 0
-32 -317 325 0
-32 -325 319 317 0
-33 -325 319 0
-33 325 -319 0
-34 -325 319 0
-34 325 -319 0
-35 -325 319 0
-35 325 -319 0
-36 -319 325 0
-36 -318 325 0
-36 -325 319 318 0
-37 -325 319 0
-37 325 -319 0
-38 -325 319 0
-38 325 -319 0
-39 -325 319 0
-39 325 -319 0
-40 -325 319 0
-40 -325 320 0
-40 325 -319 -320 0
-41 -325 319 0
-41 -325 321 0
-41 325 -319 -321 0
-42 -325 319 0
-42 -325 322 0
-42 325 -319 -322 0
-43 -325 319 0
-43 325 -319 0
-44 -325 319 0
-44 325 -319 0
-45 -325 319 0
-45 325 -319 0
-63 -325 319 0
-63 325 -319 0
-31 -326 320 0
-31 326 -320 0
-32 -326 320 0
-32 326 -320 0
-33 -320 326 0
-33 -317 326 0
-33 -326 320 317 0
-34 -326 320 0
-34 326 -320 0
-35 -326 320 0
-35 326 -320 0
-36 -326 320 0
-36 326 -320 0
-37 -320 326 0
-37 -318 326 0
-37 -326 320 318 0
-38 -326 320 0
-38 326 -320 0
-39 -326 320 0
-39 326 -320 0
-40 -320 326 0
-40 -319 326 0
-40 -326 320 319 0
-41 -326 320 0
-41 326 -320 0
-42 -326 320 0
-42 326 -320 0
-43 -326 320 0
-43 -326 321 0
-43 326 -320 -321 0
-44 -326 320 0
-44 -326 322 0
-44 326 -320 -322 0
-45 -326 320 0
-45 326 -320 0
-63 -326 320 0
-63 326 -320 0
-31 -327 321 0
-31 327 -321 0
-32 -327 321 0
-32 327 -321 0
-33 -327 321 0
-33 327 -321 0
-34 -321 327 0
-34 -317 327 0
-34 -327 321 317 0
-35 -327 321 0
-35 327 -321 0
-36 -327 321 0
-36 327 -321 0
-37 -327 321 0
-37 327 -321 0
-38 -321 327 0
-38 -318 327 0
-38 -327 321 318 0
-39 -327 321 0
-39 327 -321 0
-40 -327 321 0
-40 327 -321 0
-41 -321 327 0
-41 -319 327 0
-41 -327 321 319 0
-42 -327 321 0
-42 327 -321 0
-43 -321 327 0
-43 -320 327 0
-43 -327 321 320 0
-44 -327 321 0
-44 327 -321 0
-45 -327 321 0
-45 -327 322 0
-45 327 -321 -322 0
-63 -327 321 0
-63 327 -321 0
-31 -328 322 0
-31 328 -322 0
-32 -328 322 0
-32 328 -322 0
-33 -328 322 0
-33 328 -322 0
-34 -328 322 0
-34 328 -322 0
-35 -322 328 0
-35 -317 328 0
-35 -328 322 317 0
-36 -328 322 0
-36 328 -322 0
-37 -328 322 0
-37 328 -322 0
-38 -328 322 0
-38 328 -322 0
-39 -322 328 0
-39 -318 328 0
-39 -328 322 318 0
-40 -328 322 0
-40 328 -322 0
-41 -328 322 0
-41 328 -322 0
-42 -322 328 0
-42 -319 328 0
-42 -328 322 319 0
-43 -328 322 0
-43 328 -322 0
-44 -322 328 0
-44 -320 328 0
-44 -328 322 320 0
-45 -322 328 0
-45 -321 328 0
-45 -328 322 321 0
-63 -328 322 0
-63 328 -322 0
-46 -329 323 0
-46 -329 324 0
-46 329 -323 -324 0
-47 -329 323 0
-47 -329 325 0
-47 329 -323 -325 0
-48 -329 323 0
-48 -329 326 0
-48 329 -323 -326 0
-49 -329 323 0
-49 -329 327 0
-49 329 -323 -327 0
-50 -329 323 0
-50 -329 328 0
-50 329 -323 -328 0
-51 -329 323 0
-51 329 -323 0
-52 -329 323 0
-52 329 -323 0
-53 -329 323 0
-53 329 -323 0
-54 -329 323 0
-54 329 -323 0
-55 -329 323 0
-55 329 -323 0
-56 -329 323 0
-56 329 -323 0
-57 -329 323 0
-57 329 -323 0
-58 -329 323 0
-58 329 -323 0
-59 -329 323 0
-59 329 -323 0
-60 -329 323 0
-60 329 -323 0
-64 -329 323 0
-64 329 -323 0
-46 -324 330 0
-46 -323 330 0
-46 -330 324 323 0
-47 -330 324 0
-47 330 -324 0
-48 -330 324 0
-48 330 -324 0
-49 -330 324 0
-49 330 -324 0
-50 -330 324 0
-50 330 -324 0
-51 -330 324 0
-51 -330 325 0
-51 330 -324 -325 0
-52 -330 324 0
-52 -330 326 0
-52 330 -324 -326 0
-53 -330 324 0
-53 -330 327 0
-53 330 -324 -327 0
-54 -330 324 0
-54 -330 328 0
-54 330 -324 -328 0
-55 -330 324 0
-55 330 -324 0
-56 -330 324 0
-56 330 -324 0
-57 -330 324 0
-57 330 -324 0
-58 -330 324 0
-58 330 -324 0
-59 -330 324 0
-59 330 -324 0
-60 -330 324 0
-60 330 -324 0
-64 -330 324 0
-64 330 -324 0
-46 -331 325 0
-46 331 -325 0
-47 -325 331 0
-47 -323 331 0
-47 -331 325 323 0
-48 -331 325 0
-48 331 -325 0
-49 -331 325 0
-49 331 -325 0
-50 -331 325 0
-50 331 -325 0
-51 -325 331 0
-51 -324 331 0
-51 -331 325 324 0
-52 -331 325 0
-52 331 -325 0
-53 -331 325 0
-53 331 -325 0
-54 -331 325 0
-54 331 -325 0
-55 -331 325 0
-55 -331 326 0
-55 331 -325 -326 0
-56 -331 325 0
-56 -331 327 0
-56 331 -325 -327 0
-57 -331 325 0
-57 -331 328 0
-57 331 -325 -328 0
-58 -331 325 0
-58 331 -325 0
-59 -331 325 0
-59 331 -325 0
-60 -331 325 0
-60 331 -325 0
-64 -331 325 0
-64 331 -325 0
-46 -332 326 0
-46 332 -326 0
-47 -332 326 0
-47 332 -326 0
-48 -326 332 0
-48 -323 332 0
-48 -332 326 323 0
-49 -332 326 0
-49 332 -326 0
-50 -332 326 0
-50 332 -326 0
-51 -332 326 0
-51 332 -326 0
-52 -326 332 0
-52 -324 332 0
-52 -332 326 324 0
-53 -332 326 0
-53 332 -326 0
-54 -332 326 0
-54 332 -326 0
-55 -326 332 0
-55 -325 332 0
-55 -332 326 325 0
-56 -332 326 0
-56 332 -326 0
-57 -332 326 0
-57 332 -326 0
-58 -332 326 0
-58 -332 327 0
-58 332 -326 -327 0
-59 -332 326 0
-59 -332 328 0
-59 332 -326 -328 0
-60 -332 326 0
-60 332 -326 0
-64 -332 326 0
-64 332 -326 0
-46 -333 327 0
-46 333 -327 0
-47 -333 327 0
-47 333 -327 0
-48 -333 327 0
-48 333 -327 0
-49 -327 333 0
-49 -323 333 0
-49 -333 327 323 0
-50 -333 327 0
-50 333 -327 0
-51 -333 327 0
-51 333 -327 0
-52 -333 327 0
-52 333 -327 0
-53 -327 333 0
-53 -324 333 0
-53 -333 327 324 0
-54 -333 327 0
-54 333 -327 0
-55 -333 327 0
-55 333 -327 0
-56 -327 333 0
-56 -325 333 0
-56 -333 327 325 0
-57 -333 327 0
-57 333 -327 0
-58 -327 333 0
-58 -326 333 0
-58 -333 327 326 0
-59 -333 327 0
-59 333 -327 0
-60 -333 327 0
-60 -333 328 0
-60 333 -327 -328 0
-64 -333 327 0
-64 333 -327 0
-46 -334 328 0
-46 334 -328 0
-47 -334 328 0
-47 334 -328 0
-48 -334 328 0
-48 334 -328 0
-49 -334 328 0
-49 334 -328 0
-50 -328 334 0
-50 -323 334 0
-50 -334 328 323 0
-51 -334 328 0
-51 334 -328 0
-52 -334 328 0
-52 334 -328 0
-53 -334 328 0
-53 334 -328 0
-54 -328 334 0
-54 -324 334 0
-54 -334 328 324 0
-55 -334 328 0
-55 334 -328 0
-56 -334 328 0
-56 334 -328 0
-57 -328 334 0
-57 -325 334 0
-57 -334 328 325 0
-58 -334 328 0
-58 334 -328 0
-59 -328 334 0
-59 -326 334 0
-59 -334 328 326 0
-60 -328 334 0
-60 -327 334 0
-60 -334 328 327 0
-64 -334 328 0
-64 334 -328 0
-335 0
-1 -341 335 0
-1 -341 336 0
-1 341 -335 -336 0
-2 -341 335 0
-2 -341 337 0
-2 341 -335 -337 0
-3 -341 335 0
-3 -341 338 0
-3 341 -335 -338 0
-4 -341 335 0
-4 -341 339 0
-4 341 -335 -339 0
-5 -341 335 0
-5 -341 340 0
-5 341 -335 -340 0
-6 -341 335 0
-6 341 -335 0
-7 -341 335 0
-7 341 -335 0
-8 -341 335 0
-8 341 -335 0
-9 -341 335 0
-9 341 -335 0
-10 -341 335 0
-10 341 -335 0
-11 -341 335 0
-11 341 -335 0
-12 -341 335 0
-12 341 -335 0
-13 -341 335 0
-13 341 -335 0
-14 -341 335 0
-14 341 -335 0
-15 -341 335 0
-15 341 -335 0
-61 -341 335 0
-61 341 -335 0
336 0
-1 -336 342 0
-1 -335 342 0
-1 -342 336 335 0
-2 -342 336 0
-2 342 -336 0
-3 -342 336 0
-3 342 -336 0
-4 -342 336 0
-4 342 -336 0
-5 -342 336 0
-5 342 -336 0
-6 -342 336 0
-6 -342 337 0
-6 342 -336 -337 0
-7 -342 336 0
-7 -342 338 0
-7 342 -336 -338 0
-8 -342 336 0
-8 -342 339 0
-8 342 -336 -339 0
-9 -342 336 0
-9 -342 340 0
-9 342 -336 -340 0
-10 -342 336 0
-10 342 -336 0
-11 -342 336 0
-11 342 -336 0
-12 -342 336 0
-12 342 -336 0
-13 -342 336 0
-13 342 -336 0
-14 -342 336 0
-14 342 -336 0
-15 -342 336 0
-15 342 -336 0
-61 -342 336 0
-61 342 -336 0
337 0
-1 -343 337 0
-1 343 -337 0
-2 -337 343 0
-2 -335 343 0
-2 -343 337 335 0
-3 -343 337 0
-3 343 -337 0
-4 -343 337 0
-4 343 -337 0
-5 -343 337 0
-5 343 -337 0
-6 -337 343 0
-6 -336 343 0
-6 -343 337 336 0
-7 -343 337 0
-7 343 -337 0
-8 -343 337 0
-8 343 -337 0
-9 -343 337 0
-9 343 -337 0
-10 -343 337 0
-10 -343 338 0
-10 343 -337 -338 0
-11 -343 337 0
-11 -343 339 0
-11 343 -337 -339 0
-12 -343 337 0
-12 -343 340 0
-12 343 -337 -340 0
-13 -343 337 0
-13 343 -337 0
-14 -343 337 0
-14 343 -337 0
-15 -343 337 0
-15 343 -337 0
-61 -343 337 0
-61 343 -337 0
338 0
-1 -344 338 0
-1 344 -338 0
-2 -344 338 0
-2 344 -338 0
-3 -338 344 0
-3 -335 344 0
-3 -344 338 335 0
-4 -344 338 0
-4 344 -338 0
-5 -344 338 0
-5 344 -338 0
-6 -344 338 0
-6 344 -338 0
-7 -338 344 0
-7 -336 344 0
-7 -344 338 336 0
-8 -344 338 0
-8 344 -338 0
-9 -344 338 0
-9 344 -338 0
-10 -338 344 0
-10 -337 344 0
-10 -344 338 337 0
-11 -344 338 0
-11 344 -338 0
-12 -344 338 0
-12 344 -338 0
-13 -344 338 0
-13 -344 339 0
-13 344 -338 -339 0
-14 -344 338 0
-14 -344 340 0
-14 344 -338 -340 0
-15 -344 338 0
-15 344 -338 0
-61 -344 338 0
-61 344 -338 0
339 0
-1 -345 339 0
-1 345 -339 0
-2 -345 339 0
-2 345 -339 0
-3 -345 339 0
-3 345 -339 0
-4 -339 345 0
-4 -335 345 0
-4 -345 339 335 0
-5 -345 339 0
-5 345 -339 0
-6 -345 339 0
-6 345 -339 0
-7 -345 339 0
-7 345 -339 0
-8 -339 345 0
-8 -336 345 0
-8 -345 339 336 0
-9 -345 339 0
-9 345 -339 0
-10 -345 339 0
-10 345 -339 0
-11 -339 345 0
-11 -337 345 0
-11 -345 339 337 0
-12 -345 339 0
-12 345 -339 0
-13 -339 345 0
-13 -338 345 0
-13 -345 339 338 0
-14 -345 339 0
-14 345 -339 0
-15 -345 339 0
-15 -345 340 0
-15 345 -339 -340 0
-61 -345 339 0
-61 345 -339 0
340 0
-1 -346 340 0
-1 346 -340 0
-2 -346 340 0
-2 346 -340 0
-3 -346 340 0
-3 346 -340 0
-4 -346 340 0
-4 346 -340 0
-5 -340 346 0
-5 -335 346 0
-5 -346 340 335 0
-6 -346 340 0
-6 346 -340 0
-7 -346 340 0
-7 346 -340 0
-8 -346 340 0
-8 346 -340 0
-9 -340 346 0
-9 -336 346 0
-9 -346 340 336 0
-10 -346 340 0
-10 346 -340 0
-11 -346 340 0
-11 346 -340 0
-12 -340 346 0
-12 -337 346 0
-12 -346 340 337 0
-13 -346 340 0
-13 346 -340 0
-14 -340 346 0
-14 -338 346 0
-14 -346 340 338 0
-15 -340 346 0
-15 -339 346 0
-15 -346 340 339 0
-61 -346 340 0
-61 346 -340 0
-16 -347 341 0
-16 -347 342 0
-16 347 -341 -342 0
-17 -347 341 0
-17 -347 343 0
-17 347 -341 -343 0
-18 -347 341 0
-18 -347 344 0
-18 347 -341 -344 0
-19 -347 341 0
-19 -347 345 0
-19 347 -341 -345 0
-20 -347 341 0
-20 -347 346 0
-20 347 -341 -346 0
-21 -347 341 0
-21 347 -341 0
-22 -347 341 0
-22 347 -341 0
-23 -347 341 0
-23 347 -341 0
-24 -347 341 0
-24 347 -341 0
-25 -347 341 0
-25 347 -341 0
-26 -347 341 0
-26 347 -341 0
-27 -347 341 0
-27 347 -341 0
-28 -347 341 0
-28 347 -341 0
-29 -347 341 0
-29 347 -341 0
-30 -347 341 0
-30 347 -341 0
-62 -347 341 0
-62 347 -341 0
-16 -342 348 0
-16 -341 348 0
-16 -348 342 341 0
-17 -348 342 0
-17 348 -342 0
-18 -348 342 0
-18 348 -342 0
-19 -348 342 0
-19 348 -342 0
-20 -348 342 0
-20 348 -342 0
-21 -348 342 0
-21 -348 343 0
-21 348 -342 -343 0
-22 -348 342 0
-22 -348 344 0
-22 348 -342 -344 0
-23 -348 342 0
-23 -348 345 0
-23 348 -342 -345 0
-24 -348 342 0
-24 -348 346 0
-24 348 -342 -346 0
-25 -348 342 0
-25 348 -342 0
-26 -348 342 0
-26 348 -342 0
-27 -348 342 0
-27 348 -342 0
-28 -348 342 0
-28 348 -342 0
-29 -348 342 0
-29 348 -342 0
-30 -348 342 0
-30 348 -342 0
-62 -348 342 0
-62 348 -342 0
-16 -349 343 0
-16 349 -343 0
-17 -343 349 0
-17 -341 349 0
-17 -349 343 341 0
-18 -349 343 0
-18 349 -343 0
-19 -349 343 0
-19 349 -343 0
-20 -349 343 0
-20 349 -343 0
-21 -343 349 0
-21 -342 349 0
-21 -349 343 342 0
-22 -349 343 0
-22 349 -343 0
-23 -349 343 0
-23 349 -343 0
-24 -349 343 0
-24 349 -343 0
-25 -349 343 0
-25 -349 344 0
-25 349 -343 -344 0
-26 -349 343 0
-26 -349 345 0
-26 349 -343 -345 0
-27 -349 343 0
-27 -349 346 0
-27 349 -343 -346 0
-28 -349 343 0
-28 349 -343 0
-29 -349 343 0
-29 349 -343 0
-30 -349 343 0
-30 349 -343 0
-62 -349 343 0
-62 349 -343 0
-16 -350 344 0
-16 350 -344 0
-17 -350 344 0
-17 350 -344 0
-18 -344 350 0
-18 -341 350 0
-18 -350 344 341 0
-19 -350 344 0
-19 350 -344 0
-20 -350 344 0
-20 350 -344 0
-21 -350 344 0
-21 350 -344 0
-22 -344 350 0
-22 -342 350 0
-22 -350 344 342 0
-23 -350 344 0
-23 350 -344 0
-24 -350 344 0
-24 350 -344 0
-25 -344 350 0
-25 -343 350 0
-25 -350 344 343 0
-26 -350 344 0
-26 350 -344 0
-27 -350 344 0
-27 350 -344 0
-28 -350 344 0
-28 -350 345 0
-28 350 -344 -345 0
-29 -350 344 0
-29 -350 346 0
-29 350 -344 -346 0
-30 -350 344 0
-30 350 -344 0
-62 -350 344 0
-62 350 -344 0
-16 -351 345 0
-16 351 -345 0
-17 -351 345 0
-17 351 -345 0
-18 -351 345 0
-18 351 -345 0
-19 -345 351 0
-19 -341 351 0
-19 -351 345 341 0
-20 -351 345 0
-20 351 -345 0
-21 -351 345 0
-21 351 -345 0
-22 -351 345 0
-22 351 -345 0
-23 -345 351 0
-23 -342 351 0
-23 -351 345 342 0
-24 -351 345 0
-24 351 -345 0
-25 -351 345 0
-25 351 -345 0
-26 -345 351 0
-26 -343 351 0
-26 -351 345 343 0
-27 -351 345 0
-27 351 -345 0
-28 -345 351 0
-28 -344 351 0
-28 -351 345 344 0
-29 -351 345 0
-29 351 -345 0
-30 -351 345 0
-30 -351 346 0
-30 351 -345 -346 0
-62 -351 345 0
-62 351 -345 0
-16 -352 346 0
-16 352 -346 0
-17 -352 346 0
-17 352 -346 0
-18 -352 346 0
-18 352 -346 0
-19 -352 346 0
-19 352 -346 0
-20 -346 352 0
-20 -341 352 0
-20 -352 346 341 0
-21 -352 346 0
-21 352 -346 0
-22 -352 346 0
-22 352 -346 0
-23 -352 346 0
-23 352 -346 0
-24 -346 352 0
-24 -342 352 0
-24 -352 346 342 0
-25 -352 346 0
-25 352 -346 0
-26 -352 346 0
-26 352 -346 0
-27 -346 352 0
-27 -343 352 0
-27 -352 346 343 0
-28 -352 346 0
-28 352 -346 0
-29 -346 352 0
-29 -344 352 0
-29 -352 346 344 0
-30 -346 352 0
-30 -345 352 0
-30 -352 346 345 0
-62 -352 346 0
-62 352 -346 0
-31 -353 347 0
-31 -353 348 0
-31 353 -347 -348 0
-32 -353 347 0
-32 -353 349 0
-32 353 -347 -349 0
-33 -353 347 0
-33 -353 350 0
-33 353 -347 -350 0
-34 -353 347 0
-34 -353 351 0
-34 353 -347 -351 0
-35 -353 347 0
-35 -353 352 0
-35 353 -347 -352 0
-36 -353 347 0
-36 353 -347 0
-37 -353 347 0
-37 353 -347 0
-38 -353 347 0
-38 353 -347 0
-39 -353 347 0
-39 353 -347 0
-40 -353 347 0
-40 353 -347 0
-41 -353 347 0
-41 353 -347 0
-42 -353 347 0
-42 353 -347 0
-43 -353 347 0
-43 353 -347 0
-44 -353 347 0
-44 353 -347 0
-45 -353 347 0
-45 353 -347 0
-63 -353 347 0
-63 353 -347 0
-31 -348 354 0
-31 -347 354 0
-31 -354 348 347 0
-32 -354 348 0
-32 354 -348 0
-33 -354 348 0
-33 354 -348 0
-34 -354 348 0
-34 354 -348 0
-35 -354 348 0
-35 354 -348 0
-36 -354 348 0
-36 -354 349 0
-36 354 -348 -349 0
-37 -354 348 0
-37 -354 350 0
-37 354 -348 -350 0
-38 -354 348 0
-38 -354 351 0
-38 354 -348 -351 0
-39 -354 348 0
-39 -354 352 0
-39 354 -348 -352 0
-40 -354 348 0
-40 354 -348 0
-41 -354 348 0
-41 354 -348 0
-42 -354 348 0
-42 354 -348 0
-43 -354 348 0
-43 354 -348 0
-44 -354 348 0
-44 354 -348 0
-45 -354 348 0
-45 354 -348 0
-63 -354 348 0
-63 354 -348 0
-31 -355 349 0
-31 355 -349 0
-32 -349 355 0
-32 -347 355 0
-32 -355 349 347 0
-33 -355 349 0
-33 355 -349 0
-34 -355 349 0
-34 355 -349 0
-35 -355 349 0
-35 355 -349 0
-36 -349 355 0
-36 -348 355 0
-36 -355 349 348 0
-37 -355 349 0
-37 355 -349 0
-38 -355 349 0
-38 355 -349 0
-39 -355 349 0
-39 355 -349 0
-40 -355 349 0
-40 -355 350 0
-40 355 -349 -350 0
-41 -355 349 0
-41 -355 351 0
-41 355 -349 -351 0
-42 -355 349 0
-42 -355 352 0
-42 355 -349 -352 0
-43 -355 349 0
-43 355 -349 0
-44 -355 349 0
-44 355 -349 0
-45 -355 349 0
-45 355 -349 0
-63 -355 349 0
-63 355 -349 0
-31 -356 350 0
-31 356 -350 0
-32 -356 350 0
-32 356 -350 0
-33 -350 356 0
-33 -347 356 0
-33 -356 350 347 0
-34 -356 350 0
-34 356 -350 0
-35 -356 350 0
-35 356 -350 0
-36 -356 350 0
-36 356 -350 0
-37 -350 356 0
-37 -348 356 0
-37 -356 350 348 0
-38 -356 350 0
-38 356 -350 0
-39 -356 350 0
-39 356 -350 0
-40 -350 356 0
-40 -349 356 0
-40 -356 350 349 0
-41 -356 350 0
-41 356 -350 0
-42 -356 350 0
-42 356 -350 0
-43 -356 350 0
-43 -356 351 0
-43 356 -350 -351 0
-44 -356 350 0
-44 -356 352 0
-44 356 -350 -352 0
-45 -356 350 0
-45 356 -350 0
-63 -356 350 0
-63 356 -350 0
-31 -357 351 0
-31 357 -351 0
-32 -357 351 0
-32 357 -351 0
-33 -357 351 0
-33 357 -351 0
-34 -351 357 0
-34 -347 357 0
-34 -357 351 347 0
-35 -357 351 0
-35 357 -351 0
-36 -357 351 0
-36 357 -351 0
-37 -357 351 0
-37 357 -351 0
-38 -351 357 0
-38 -348 357 0
-38 -357 351 348 0
-39 -357 351 0
-39 357 -351 0
-40 -357 351 0
-40 357 -351 0
-41 -351 357 0
-41 -349 357 0
-41 -357 351 349 0
-42 -357 351 0
-42 357 -351 0
-43 -351 357 0
-43 -350 357 0
-43 -357 351 350 0
-44 -357 351 0
-44 357 -351 0
-45 -357 351 0
-45 -357 352 0
-45 357 -351 -352 0
-63 -357 351 0
-63 357 -351 0
-31 -358 352 0
-31 358 -352 0
-32 -358 352 0
-32 358 -352 0
-33 -358 352 0
-33 358 -352 0
-34 -358 352 0
-34 358 -352 0
-35 -352 358 0
-35 -347 358 0
-35 -358 352 347 0
-36 -358 352 0
-36 358 -352 0
-37 -358 352 0
-37 358 -352 0
-38 -358 352 0
-38 358 -352 0
-39 -352 358 0
-39 -348 358 0
-39 -358 352 348 0
-40 -358 352 0
-40 358 -352 0
-41 -358 352 0
-41 358 -352 0
-42 -352 358 0
-42 -349 358 0
-42 -358 352 349 0
-43 -358 352 0
-43 358 -352 0
-44 -352 358 0
-44 -350 358 0
-44 -358 352 350 0
-45 -352 358 0
-45 -351 358 0
-45 -358 352 351 0
-63 -358 352 0
-63 358 -352 0
-46 -359 353 0
-46 -359 354 0
-46 359 -353 -354 0
-47 -359 353 0
-47 -359 355 0
-47 359 -353 -355 0
-48 -359 353 0
-48 -359 356 0
-48 359 -353 -356 0
-49 -359 353 0
-49 -359 357 0
-49 359 -353 -357 0
-50 -359 353 0
-50 -359 358 0
-50 359 -353 -358 0
-51 -359 353 0
-51 359 -353 0
-52 -359 353 0
-52 359 -353 0
-53 -359 353 0
-53 359 -353 0
-54 -359 353 0
-54 359 -353 0
-55 -359 353 0
-55 359 -353 0
-56 -359 353 0
-56 359 -353 0
-57 -359 353 0
-57 359 -353 0
-58 -359 353 0
-58 359 -353 0
-59 -359 353 0
-59 359 -353 0
-60 -359 353 0
-60 359 -353 0
-64 -359 353 0
-64 359 -353 0
-46 -354 360 0
-46 -353 360 0
-46 -360 354 353 0
-47 -360 354 0
-47 360 -354 0
-48 -360 354 0
-48 360 -354 0
-49 -360 354 0
-49 360 -354 0
-50 -360 354 0
-50 360 -354 0
-51 -360 354 0
-51 -360 355 0
-51 360 -354 -355 0
-52 -360 354 0
-52 -360 356 0
-52 360 -354 -356 0
-53 -360 354 0
-53 -360 357 0
-53 360 -354 -357 0
-54 -360 354 0
-54 -360 358 0
-54 360 -354 -358 0
-55 -360 354 0
-55 360 -354 0
-56 -360 354 0
-56 360 -354 0
-57 -360 354 0
-57 360 -354 0
-58 -360 354 0
-58 360 -354 0
-59 -360 354 0
-59 360 -354 0
-60 -360 354 0
-60 360 -354 0
-64 -360 354 0
-64 360 -354 0
-46 -361 355 0
-46 361 -355 0
-47 -355 361 0
-47 -353 361 0
-47 -361 355 353 0
-48 -361 355 0
-48 361 -355 0
-49 -361 355 0
-49 361 -355 0
-50 -361 355 0
-50 361 -355 0
-51 -355 361 0
-51 -354 361 0
-51 -361 355 354 0
-52 -361 355 0
-52 361 -355 0
-53 -361 355 0
-53 361 -355 0
-54 -361 355 0
-54 361 -355 0
-55 -361 355 0
-55 -361 356 0
-55 361 -355 -356 0
-56 -361 355 0
-56 -361 357 0
-56 361 -355 -357 0
-57 -361 355 0
-57 -361 358 0
-57 361 -355 -358 0
-58 -361 355 0
-58 361 -355 0
-59 -361 355 0
-59 361 -355 0
-60 -361 355 0
-60 361 -355 0
-64 -361 355 0
-64 361 -355 0
-46 -362 356 0
-46 362 -356 0
-47 -362 356 0
-47 362 -356 0
-48 -356 362 0
-48 -353 362 0
-48 -362 356 353 0
-49 -362 356 0
-49 362 -356 0
-50 -362 356 0
-50 362 -356 0
-51 -362 356 0
-51 362 -356 0
-52 -356 362 0
-52 -354 362 0
-52 -362 356 354 0
-53 -362 356 0
-53 362 -356 0
-54 -362 356 0
-54 362 -356 0
-55 -356 362 0
-55 -355 362 0
-55 -362 356 355 0
-56 -362 356 0
-56 362 -356 0
-57 -362 356 0
-57 362 -356 0
-58 -362 356 0
-58 -362 357 0
-58 362 -356 -357 0
-59 -362 356 0
-59 -362 358 0
-59 362 -356 -358 0
-60 -362 356 0
-60 362 -356 0
-64 -362 356 0
-64 362 -356 0
-46 -363 357 0
-46 363 -357 0
-47 -363 357 0
-47 363 -357 0
-48 -363 357 0
-48 363 -357 0
-49 -357 363 0
-49 -353 363 0
-49 -363 357 353 0
-50 -363 357 0
-50 363 -357 0
-51 -363 357 0
-51 363 -357 0
-52 -363 357 0
-52 363 -357 0
-53 -357 363 0
-53 -354 363 0
-53 -363 357 354 0
-54 -363 357 0
-54 363 -357 0
-55 -363 357 0
-55 363 -357 0
-56 -357 363 0
-56 -355 363 0
-56 -363 357 355 0
-57 -363 357 0
-57 363 -357 0
-58 -357 363 0
-58 -356 363 0
-58 -363 357 356 0
-59 -363 357 0
-59 363 -357 0
-60 -363 357 0
-60 -363 358 0
-60 363 -357 -358 0
-64 -363 357 0
-64 363 -357 0
-46 -364 358 0
-46 364 -358 0
-47 -364 358 0
-47 364 -358 0
-48 -364 358 0
-48 364 -358 0
-49 -364 358 0
-49 364 -358 0
-50 -358 364 0
-50 -353 364 0
-50 -364 358 353 0
-51 -364 358 0
-51 364 -358 0
-52 -364 358 0
-52 364 -358 0
-53 -364 358 0
-53 364 -358 0
-54 -358 364 0
-54 -354 364 0
-54 -364 358 354 0
-55 -364 358 0
-55 364 -358 0
-56 -364 358 0
-56 364 -358 0
-57 -358 364 0
-57 -355 364 0
-57 -364 358 355 0
-58 -364 358 0
-58 364 -358 0
-59 -358 364 0
-59 -356 364 0
-59 -364 358 356 0
-60 -358 364 0
-60 -357 364 0
-60 -364 358 357 0
-64 -364 358 0
-64 364 -358 0
365 0
-1 -371 365 0
-1 -371 366 0
-1 371 -365 -366 0
-2 -371 365 0
-2 -371 367 0
-2 371 -365 -367 0
-3 -371 365 0
-3 -371 368 0
-3 371 -365 -368 0
-4 -371 365 0
-4 -371 369 0
-4 371 -365 -369 0
-5 -371 365 0
-5 -371 370 0
-5 371 -365 -370 0
-6 -371 365 0
-6 371 -365 0
-7 -371 365 0
-7 371 -365 0
-8 -371 365 0
-8 371 -365 0
-9 -371 365 0
-9 371 -365 0
-10 -371 365 0
-10 371 -365 0
-11 -371 365 0
-11 371 -365 0
-12 -371 365 0
-12 371 -365 0
-13 -371 365 0
-13 371 -365 0
-14 -371 365 0
-14 371 -365 0
-15 -371 365 0
-15 371 -365 0
-61 -371 365 0
-61 371 -365 0
366 0
-1 -366 372 0
-1 -365 372 0
-1 -372 366 365 0
-2 -372 366 0
-2 372 -366 0
-3 -372 366 0
-3 372 -366 0
-4 -372 366 0
-4 372 -366 0
-5 -372 366 0
-5 372 -366 0
-6 -372 366 0
-6 -372 367 0
-6 372 -366 -367 0
-7 -372 366 0
-7 -372 368 0
-7 372 -366 -368 0
-8 -372 366 0
-8 -372 369 0
-8 372 -366 -369 0
-9 -372 366 0
-9 -372 370 0
-9 372 -366 -370 0
-10 -372 366 0
-10 372 -366 0
-11 -372 366 0
-11 372 -366 0
-12 -372 366 0
-12 372 -366 0
-13 -372 366 0
-13 372 -366 0
-14 -372 366 0
-14 372 -366 0
-15 -372 366 0
-15 372 -366 0
-61 -372 366 0
-61 372 -366 0
-367 0
-1 -373 367 0
-1 373 -367 0
-2 -367 373 0
-2 -365 373 0
-2 -373 367 365 0
-3 -373 367 0
-3 373 -367 0
-4 -373 367 0
-4 373 -367 0
-5 -373 367 0
-5 373 -367 0
-6 -367 373 0
-6 -366 373 0
-6 -373 367 366 0
-7 -373 367 0
-7 373 -367 0
-8 -373 367 0
-8 373 -367 0
-9 -373 367 0
-9 373 -367 0
-10 -373 367 0
-10 -373 368 0
-10 373 -367 -368 0
-11 -373 367 0
-11 -373 369 0
-11 373 -367 -369 0
-12 -373 367 0
-12 -373 370 0
-12 373 -367 -370 0
-13 -373 367 0
-13 373 -367 0
-14 -373 367 0
-14 373 -367 0
-15 -373 367 0
-15 373 -367 0
-61 -373 367 0
-61 373 -367 0
-368 0
-1 -374 368 0
-1 374 -368 0
-2 -374 368 0
-2 374 -368 0
-3 -368 374 0
-3 -365 374 0
-3 -374 368 365 0
-4 -374 368 0
-4 374 -368 0
-5 -374 368 0
-5 374 -368 0
-6 -374 368 0
-6 374 -368 0
-7 -368 374 0
-7 -366 374 0
-7 -374 368 366 0
-8 -374 368 0
-8 374 -368 0
-9 -374 368 0
-9 374 -368 0
-10 -368 374 0
-10 -367 374 0
-10 -374 368 367 0
-11 -374 368 0
-11 374 -368 0
-12 -374 368 0
-12 374 -368 0
-13 -374 368 0
-13 -374 369 0
-13 374 -368 -369 0
-14 -374 368 0
-14 -374 370 0
-14 374 -368 -370 0
-15 -374 368 0
-15 374 -368 0
-61 -374 368 0
-61 374 -368 0
-369 0
-1 -375 369 0
-1 375 -369 0
-2 -375 369 0
-2 375 -369 0
-3 -375 369 0
-3 375 -369 0
-4 -369 375 0
-4 -365 375 0
-4 -375 369 365 0
-5 -375 369 0
-5 375 -369 0
-6 -375 369 0
-6 375 -369 0
-7 -375 369 0
-7 375 -369 0
-8 -369 375 0
-8 -366 375 0
-8 -375 369 366 0
-9 -375 369 0
-9 375 -369 0
-10 -375 369 0
-10 375 -369 0
-11 -369 375 0
-11 -367 375 0
-11 -375 369 367 0
-12 -375 369 0
-12 375 -369 0
-13 -369 375 0
-13 -368 375 0
-13 -375 369 368 0
-14 -375 369 0
-14 375 -369 0
-15 -375 369 0
-15 -375 370 0
-15 375 -369 -370 0
-61 -375 369 0
-61 375 -369 0
-370 0
-1 -376 370 0
-1 376 -370 0
-2 -376 370 0
-2 376 -370 0
-3 -376 370 0
-3 376 -370 0
-4 -376 370 0
-4 376 -370 0
-5 -370 376 0
-5 -365 376 0
-5 -376 370 365 0
-6 -376 370 0
-6 376 -370 0
-7 -376 370 0
-7 376 -370 0
-8 -376 370 0
-8 376 -370 0
-9 -370 376 0
-9 -366 376 0
-9 -376 370 366 0
-10 -376 370 0
-10 376 -370 0
-11 -376 370 0
-11 376 -370 0
-12 -370 376 0
-12 -367 376 0
-12 -376 370 367 0
-13 -376 370 0
-13 376 -370 0
-14 -370 376 0
-14 -368 376 0
-14 -376 370 368 0
-15 -370 376 0
-15 -369 376 0
-15 -376 370 369 0
-61 -376 370 0
-61 376 -370 0
-16 -377 371 0
-16 -377 372 0
-16 377 -371 -372 0
-17 -377 371 0
-17 -377 373 0
-17 377 -371 -373 0
-18 -377 371 0
-18 -377 374 0
-18 377 -371 -374 0
-19 -377 371 0
-19 -377 375 0
-19 377 -371 -375 0
-20 -377 371 0
-20 -377 376 0
-20 377 -371 -376 0
-21 -377 371 0
-21 377 -371 0
-22 -377 371 0
-22 377 -371 0
-23 -377 371 0
-23 377 -371 0
-24 -377 371 0
-24 377 -371 0
-25 -377 371 0
-25 377 -371 0
-26 -377 371 0
-26 377 -371 0
-27 -377 371 0
-27 377 -371 0
-28 -377 371 0
-28 377 -371 0
-29 -377 371 0
-29 377 -371 0
-30 -377 371 0
-30 377 -371 0
-62 -377 371 0
-62 377 -371 0
-16 -372 378 0
-16 -371 378 0
-16 -378 372 371 0
-17 -378 372 0
-17 378 -372 0
-18 -378 372 0
-18 378 -372 0
-19 -378 372 0
-19 378 -372 0
-20 -378 372 0
-20 378 -372 0
-21 -378 372 0
-21 -378 373 0
-21 378 -372 -373 0
-22 -378 372 0
-22 -378 374 0
-22 378 -372 -374 0
-23 -378 372 0
-23 -378 375 0
-23 378 -372 -375 0
-24 -378 372 0
-24 -378 376 0
-24 378 -372 -376 0
-25 -378 372 0
-25 378 -372 0
-26 -378 372 0
-26 378 -372 0
-27 -378 372 0
-27 378 -372 0
-28 -378 372 0
-28 378 -372 0
-29 -378 372 0
-29 378 -372 0
-30 -378 372 0
-30 378 -372 0
-62 -378 372 0
-62 378 -372 0
-16 -379 373 0
-16 379 -373 0
-17 -373 379 0
-17 -371 379 0
-17 -379 373 371 0
-18 -379 373 0
-18 379 -373 0
-19 -379 373 0
-19 379 -373 0
-20 -379 373 0
-20 379 -373 0
-21 -373 379 0
-21 -372 379 0
-21 -379 373 372 0
-22 -379 373 0
-22 379 -373 0
-23 -379 373 0
-23 379 -373 0
-24 -379 373 0
-24 379 -373 0
-25 -379 373 0
-25 -379 374 0
-25 379 -373 -374 0
-26 -379 373 0
-26 -379 375 0
-26 379 -373 -375 0
-27 -379 373 0
-27 -379 376 0
-27 379 -373 -376 0
-28 -379 373 0
-28 379 -373 0
-29 -379 373 0
-29 379 -373 0
-30 -379 373 0
-30 379 -373 0
-62 -379 373 0
-62 379 -373 0
-16 -380 374 0
-16 380 -374 0
-17 -380 374 0
-17 380 -374 0
-18 -374 380 0
-18 -371 380 0
-18 -380 374 371 0
-19 -380 374 0
-19 380 -374 0
-20 -380 374 0
-20 380 -374 0
-21 -380 374 0
-21 380 -374 0
-22 -374 380 0
-22 -372 380 0
-22 -380 374 372 0
-23 -380 374 0
-23 380 -374 0
-24 -380 374 0
-24 380 -374 0
-25 -374 380 0
-25 -373 380 0
-25 -380 374 373 0
-26 -380 374 0
-26 380 -374 0
-27 -380 374 0
-27 380 -374 0
-28 -380 374 0
-28 -380 375 0
-28 380 -374 -375 0
-29 -380 374 0
-29 -380 376 0
-29 380 -374 -376 0
-30 -380 374 0
-30 380 -374 0
-62 -380 374 0
-62 380 -374 0
-16 -381 375 0
-16 381 -375 0
-17 -381 375 0
-17 381 -375 0
-18 -381 375 0
-18 381 -375 0
-19 -375 381 0
-19 -371 381 0
-19 -381 375 371 0
-20 -381 375 0
-20 381 -375 0
-21 -381 375 0
-21 381 -375 0
-22 -381 375 0
-22 381 -375 0
-23 -375 381 0
-23 -372 381 0
-23 -381 375 372 0
-24 -381 375 0
-24 381 -375 0
-25 -381 375 0
-25 381 -375 0
-26 -375 381 0
-26 -373 381 0
-26 -381 375 373 0
-27 -381 375 0
-27 381 -375 0
-28 -375 381 0
-28 -374 381 0
-28 -381 375 374 0
-29 -381 375 0
-29 381 -375 0
-30 -381 375 0
-30 -381 376 0
-30 381 -375 -376 0
-62 -381 375 0
-62 381 -375 0
-16 -382 376 0
-16 382 -376 0
-17 -382 376 0
-17 382 -376 0
-18 -382 376 0
-18 382 -376 0
-19 -382 376 0
-19 382 -376 0
-20 -376 382 0
-20 -371 382 0
-20 -382 376 371 0
-21 -382 376 0
-21 382 -376 0
-22 -382 376 0
-22 382 -376 0
-23 -382 376 0
-23 382 -376 0
-24 -376 382 0
-24 -372 382 0
-24 -382 376 372 0
-25 -382 376 0
-25 382 -376 0
-26 -382 376 0
-26 382 -376 0
-27 -376 382 0
-27 -373 382 0
-27 -382 376 373 0
-28 -382 376 0
-28 382 -376 0
-29 -376 382 0
-29 -374 382 0
-29 -382 376 374 0
-30 -376 382 0
-30 -375 382 0
-30 -382 376 375 0
-62 -382 376 0
-62 382 -376 0
-31 -383 377 0
-31 -383 378 0
-31 383 -377 -378 0
-32 -383 377 0
-32 -383 379 0
-32 383 -377 -379 0
-33 -383 377 0
-33 -383 380 0
-33 383 -377 -380 0
-34 -383 377 0
-34 -383 381 0
-34 383 -377 -381 0
-35 -383 377 0
-35 -383 382 0
-35 383 -377 -382 0
-36 -383 377 0
-36 383 -377 0
-37 -383 377 0
-37 383 -377 0
-38 -383 377 0
-38 383 -377 0
-39 -383 377 0
-39 383 -377 0
-40 -383 377 0
-40 383 -377 0
-41 -383 377 0
-41 383 -377 0
-42 -383 377 0
-42 383 -377 0
-43 -383 377 0
-43 383 -377 0
-44 -383 377 0
-44 383 -377 0
-45 -383 377 0
-45 383 -377 0
-63 -383 377 0
-63 383 -377 0
-31 -378 384 0
-31 -377 384 0
-31 -384 378 377 0
-32 -384 378 0
-32 384 -378 0
-33 -384 378 0
-33 384 -378 0
-34 -384 378 0
-34 384 -378 0
-35 -384 378 0
-35 384 -378 0
-36 -384 378 0
-36 -384 379 0
-36 384 -378 -379 0
-37 -384 378 0
-37 -384 380 0
-37 384 -378 -380 0
-38 -384 378 0
-38 -384 381 0
-38 384 -378 -381 0
-39 -384 378 0
-39 -384 382 0
-39 384 -378 -382 0
-40 -384 378 0
-40 384 -378 0
-41 -384 378 0
-41 384 -378 0
-42 -384 378 0
-42 384 -378 0
-43 -384 378 0
-43 384 -378 0
-44 -384 378 0
-44 384 -378 0
-45 -384 378 0
-45 384 -378 0
-63 -384 378 0
-63 384 -378 0
-31 -385 379 0
-31 385 -379 0
-32 -379 385 0
-32 -377 385 0
-32 -385 379 377 0
-33 -385 379 0
-33 385 -379 0
-34 -385 379 0
-34 385 -379 0
-35 -385 379 0
-35 385 -379 0
-36 -379 385 0
-36 -378 385 0
-36 -385 379 378 0
-37 -385 379 0
-37 385 -379 0
-38 -385 379 0
-38 385 -379 0
-39 -385 379 0
-39 385 -379 0
-40 -385 379 0
-40 -385 380 0
-40 385 -379 -380 0
-41 -385 379 0
-41 -385 381 0
-41 385 -379 -381 0
-42 -385 379 0
-42 -385 382 0
-42 385 -379 -382 0
-43 -385 379 0
-43 385 -379 0
-44 -385 379 0
-44 385 -379 0
-45 -385 379 0
-45 385 -379 0
-63 -385 379 0
-63 385 -379 0
-31 -386 380 0
-31 386 -380 0
-32 -386 380 0
-32 386 -380 0
-33 -380 386 0
-33 -377 386 0
-33 -386 380 377 0
-34 -386 380 0
-34 386 -380 0
-35 -386 380 0
-35 386 -380 0
-36 -386 380 0
-36 386 -380 0
-37 -380 386 0
-37 -378 386 0
-37 -386 380 378 0
-38 -386 380 0
-38 386 -380 0
-39 -386 380 0
-39 386 -380 0
-40 -380 386 0
-40 -379 386 0
-40 -386 380 379 0
-41 -386 380 0
-41 386 -380 0
-42 -386 380 0
-42 386 -380 0
-43 -386 380 0
-43 -386 381 0
-43 386 -380 -381 0
-44 -386 380 0
-44 -386 382 0
-44 386 -380 -382 0
-45 -386 380 0
-45 386 -380 0
-63 -386 380 0
-63 386 -380 0
-31 -387 381 0
-31 387 -381 0
-32 -387 381 0
-32 387 -381 0
-33 -387 381 0
-33 387 -381 0
-34 -381 387 0
-34 -377 387 0
-34 -387 381 377 0
-35 -387 381 0
-35 387 -381 0
-36 -387 381 0
-36 387 -381 0
-37 -387 381 0
-37 387 -381 0
-38 -381 387 0
-38 -378 387 0
-38 -387 381 378 0
-39 -387 381 0
-39 387 -381 0
-40 -387 381 0
-40 387 -381 0
-41 -381 387 0
-41 -379 387 0
-41 -387 381 379 0
-42 -387 381 0
-42 387 -381 0
-43 -381 387 0
-43 -380 387 0
-43 -387 381 380 0
-44 -387 381 0
-44 387 -381 0
-45 -387 381 0
-45 -387 382 0
-45 387 -381 -382 0
-63 -387 381 0
-63 387 -381 0
-31 -388 382 0
-31 388 -382 0
-32 -388 382 0
-32 388 -382 0
-33 -388 382 0
-33 388 -382 0
-34 -388 382 0
-34 388 -382 0
-35 -382 388 0
-35 -377 388 0
-35 -388 382 377 0
-36 -388 382 0
-36 388 -382 0
-37 -388 382 0
-37 388 -382 0
-38 -388 382 0
-38 388 -382 0
-39 -382 388 0
-39 -378 388 0
-39 -388 382 378 0
-40 -388 382 0
-40 388 -382 0
-41 -388 382 0
-41 388 -382 0
-42 -382 388 0
-42 -379 388 0
-42 -388 382 379 0
-43 -388 382 0
-43 388 -382 0
-44 -382 388 0
-44 -380 388 0
-44 -388 382 380 0
-45 -382 388 0
-45 -381 388 0
-45 -388 382 381 0
-63 -388 382 0
-63 388 -382 0
-46 -389 383 0
-46 -389 384 0
-46 389 -383 -384 0
-47 -389 383 0
-47 -389 385 0
-47 389 -383 -385 0
-48 -389 383 0
-48 -389 386 0
-48 389 -383 -386 0
-49 -389 383 0
-49 -389 387 0
-49 389 -383 -387 0
-50 -389 383 0
-50 -389 388 0
-50 389 -383 -388 0
-51 -389 383 0
-51 389 -383 0
-52 -389 383 0
-52 389 -383 0
-53 -389 383 0
-53 389 -383 0
-54 -389 383 0
-54 389 -383 0
-55 -389 383 0
-55 389 -383 0
-56 -389 383 0
-56 389 -383 0
-57 -389 383 0
-57 389 -383 0
-58 -389 383 0
-58 389 -383 0
-59 -389 383 0
-59 389 -383 0
-60 -389 383 0
-60 389 -383 0
-64 -389 383 0
-64 389 -383 0
-46 -384 390 0
-46 -383 390 0
-46 -390 384 383 0
-47 -390 384 0
-47 390 -384 0
-48 -390 384 0
-48 390 -384 0
-49 -390 384 0
-49 390 -384 0
-50 -390 384 0
-50 390 -384 0
-51 -390 384 0
-51 -390 385 0
-51 390 -384 -385 0
-52 -390 384 0
-52 -390 386 0
-52 390 -384 -386 0
-53 -390 384 0
-53 -390 387 0
-53 390 -384 -387 0
-54 -390 384 0
-54 -390 388 0
-54 390 -384 -388 0
-55 -390 384 0
-55 390 -384 0
-56 -390 384 0
-56 390 -384 0
-57 -390 384 0
-57 390 -384 0
-58 -390 384 0
-58 390 -384 0
-59 -390 384 0
-59 390 -384 0
-60 -390 384 0
-60 390 -384 0
-64 -390 384 0
-64 390 -384 0
-46 -391 385 0
-46 391 -385 0
-47 -385 391 0
-47 -383 391 0
-47 -391 385 383 0
-48 -391 385 0
-48 391 -385 0
-49 -391 385 0
-49 391 -385 0
-50 -391 385 0
-50 391 -385 0
-51 -385 391 0
-51 -384 391 0
-51 -391 385 384 0
-52 -391 385 0
-52 391 -385 0
-53 -391 385 0
-53 391 -385 0
-54 -391 385 0
-54 391 -385 0
-55 -391 385 0
-55 -391 386 0
-55 391 -385 -386 0
-56 -391 385 0
-56 -391 387 0
-56 391 -385 -387 0
-57 -391 385 0
-57 -391 388 0
-57 391 -385 -388 0
-58 -391 385 0
-58 391 -385 0
-59 -391 385 0
-59 391 -385 0
-60 -391 385 0
-60 391 -385 0
-64 -391 385 0
-64 391 -385 0
-46 -392 386 0
-46 392 -386 0
-47 -392 386 0
-47 392 -386 0
-48 -386 392 0
-48 -383 392 0
-48 -392 386 383 0
-49 -392 386 0
-49 392 -386 0
-50 -392 386 0
-50 392 -386 0
-51 -392 386 0
-51 392 -386 0
-52 -386 392 0
-52 -384 392 0
-52 -392 386 384 0
-53 -392 386 0
-53 392 -386 0
-54 -392 386 0
-54 392 -386 0
-55 -386 392 0
-55 -385 392 0
-55 -392 386 385 0
-56 -392 386 0
-56 392 -386 0
-57 -392 386 0
-57 392 -386 0
-58 -392 386 0
-58 -392 387 0
-58 392 -386 -387 0
-59 -392 386 0
-59 -392 388 0
-59 392 -386 -388 0
-60 -392 386 0
-60 392 -386 0
-64 -392 386 0
-64 392 -386 0
-46 -393 387 0
-46 393 -387 0
-47 -393 387 0
-47 393 -387 0
-48 -393 387 0
-48 393 -387 0
-49 -387 393 0
-49 -383 393 0
-49 -393 387 383 0
-50 -393 387 0
-50 393 -387 0
-51 -393 387 0
-51 393 -387 0
-52 -393 387 0
-52 393 -387 0
-53 -387 393 0
-53 -384 393 0
-53 -393 387 384 0
-54 -393 387 0
-54 393 -387 0
-55 -393 387 0
-55 393 -387 0
-56 -387 393 0
-56 -385 393 0
-56 -393 387 385 0
-57 -393 387 0
-57 393 -387 0
-58 -387 393 0
-58 -386 393 0
-58 -393 387 386 0
-59 -393 387 0
-59 393 -387 0
-60 -393 387 0
-60 -393 388 0
-60 393 -387 -388 0
-64 -393 387 0
-64 393 -387 0
-46 -394 388 0
-46 394 -388 0
-47 -394 388 0
-47 394 -388 0
-48 -394 388 0
-48 394 -388 0
-49 -394 388 0
-49 394 -388 0
-50 -388 394 0
-50 -383 394 0
-50 -394 388 383 0
-51 -394 388 0
-51 394 -388 0
-52 -394 388 0
-52 394 -388 0
-53 -394 388 0
-53 394 -388 0
-54 -388 394 0
-54 -384 394 0
-54 -394 388 384 0
-55 -394 388 0
-55 394 -388 0
-56 -394 388 0
-56 394 -388 0
-57 -388 394 0
-57 -385 394 0
-57 -394 388 385 0
-58 -394 388 0
-58 394 -388 0
-59 -388 394 0
-59 -386 394 0
-59 -394 388 386 0
-60 -388 394 0
-60 -387 394 0
-60 -394 388 387 0
-64 -394 388 0
-64 394 -388 0
395 0
-1 -401 395 0
-1 -401 396 0
-1 401 -395 -396 0
-2 -401 395 0
-2 -401 397 0
-2 401 -395 -397 0
-3 -401 395 0
-3 -401 398 0
-3 401 -395 -398 0
-4 -401 395 0
-4 -401 399 0
-4 401 -395 -399 0
-5 -401 395 0
-5 -401 400 0
-5 401 -395 -400 0
-6 -401 395 0
-6 401 -395 0
-7 -401 395 0
-7 401 -395 0
-8 -401 395 0
-8 401 -395 0
-9 -401 395 0
-9 401 -395 0
-10 -401 395 0
-10 401 -395 0
-11 -401 395 0
-11 401 -395 0
-12 -401 395 0
-12 401 -395 0
-13 -401 395 0
-13 401 -395 0
-14 -401 395 0
-14 401 -395 0
-15 -401 395 0
-15 401 -395 0
-61 -401 395 0
-61 401 -395 0
396 0
-1 -396 402 0
-1 -395 402 0
-1 -402 396 395 0
-2 -402 396 0
-2 402 -396 0
-3 -402 396 0
-3 402 -396 0
-4 -402 396 0
-4 402 -396 0
-5 -402 396 0
-5 402 -396 0
-6 -402 396 0
-6 -402 397 0
-6 402 -396 -397 0
-7 -402 396 0
-7 -402 398 0
-7 402 -396 -398 0
-8 -402 396 0
-8 -402 399 0
-8 402 -396 -399 0
-9 -402 396 0
-9 -402 400 0
-9 402 -396 -400 0
-10 -402 396 0
-10 402 -396 0
-11 -402 396 0
-11 402 -396 0
-12 -402 396 0
-12 402 -396 0
-13 -402 396 0
-13 402 -396 0
-14 -402 396 0
-14 402 -396 0
-15 -402 396 0
-15 402 -396 0
-61 -402 396 0
-61 402 -396 0
-397 0
-1 -403 397 0
-1 403 -397 0
-2 -397 403 0
-2 -395 403 0
-2 -403 397 395 0
-3 -403 397 0
-3 403 -397 0
-4 -403 397 0
-4 403 -397 0
-5 -403 397 0
-5 403 -397 0
-6 -397 403 0
-6 -396 403 0
-6 -403 397 396 0
-7 -403 397 0
-7 403 -397 0
-8 -403 397 0
-8 403 -397 0
-9 -403 397 0
-9 403 -397 0
-10 -403 397 0
-10 -403 398 0
-10 403 -397 -398 0
-11 -403 397 0
-11 -403 399 0
-11 403 -397 -399 0
-12 -403 397 0
-12 -403 400 0
-12 403 -397 -400 0
-13 -403 397 0
-13 403 -397 0
-14 -403 397 0
-14 403 -397 0
-15 -403 397 0
-15 403 -397 0
-61 -403 397 0
-61 403 -397 0
-398 0
-1 -404 398 0
-1 404 -398 0
-2 -404 398 0
-2 404 -398 0
-3 -398 404 0
-3 -395 404 0
-3 -404 398 395 0
-4 -404 398 0
-4 404 -398 0
-5 -404 398 0
-5 404 -398 0
-6 -404 398 0
-6 404 -398 0
-7 -398 404 0
-7 -396 404 0
-7 -404 398 396 0
-8 -404 398 0
-8 404 -398 0
-9 -404 398 0
-9 404 -398 0
-10 -398 404 0
-10 -397 404 0
-10 -404 398 397 0
-11 -404 398 0
-11 404 -398 0
-12 -404 398 0
-12 404 -398 0
-13 -404 398 0
-13 -404 399 0
-13 404 -398 -399 0
-14 -404 398 0
-14 -404 400 0
-14 404 -398 -400 0
-15 -404 398 0
-15 404 -398 0
-61 -404 398 0
-61 404 -398 0
-399 0
-1 -405 399 0
-1 405 -399 0
-2 -405 399 0
-2 405 -399 0
-3 -405 399 0
-3 405 -399 0
-4 -399 405 0
-4 -395 405 0
-4 -405 399 395 0
-5 -405 399 0
-5 405 -399 0
-6 -405 399 0
-6 405 -399 0
-7 -405 399 0
-7 405 -399 0
-8 -399 405 0
-8 -396 405 0
-8 -405 399 396 0
-9 -405 399 0
-9 405 -399 0
-10 -405 399 0
-10 405 -399 0
-11 -399 405 0
-11 -397 405 0
-11 -405 399 397 0
-12 -405 399 0
-12 405 -399 0
-13 -399 405 0
-13 -398 405 0
-13 -405 399 398 0
-14 -405 399 0
-14 405 -399 0
-15 -405 399 0
-15 -405 400 0
-15 405 -399 -400 0
-61 -405 399 0
-61 405 -399 0
400 0
-1 -406 400 0
-1 406 -400 0
-2 -406 400 0
-2 406 -400 0
-3 -406 400 0
-3 406 -400 0
-4 -406 400 0
-4 406 -400 0
-5 -400 406 0
-5 -395 406 0
-5 -406 400 395 0
-6 -406 400 0
-6 406 -400 0
-7 -406 400 0
-7 406 -400 0
-8 -406 400 0
-8 406 -400 0
-9 -400 406 0
-9 -396 406 0
-9 -406 400 396 0
-10 -406 400 0
-10 406 -400 0
-11 -406 400 0
-11 406 -400 0
-12 -400 406 0
-12 -397 406 0
-12 -406 400 397 0
-13 -406 400 0
-13 406 -400 0
-14 -400 406 0
-14 -398 406 0
-14 -406 400 398 0
-15 -400 406 0
-15 -399 406 0
-15 -406 400 399 0
-61 -406 400 0
-61 406 -400 0
-16 -407 401 0
-16 -407 402 0
-16 407 -401 -402 0
-17 -407 401 0
-17 -407 403 0
-17 407 -401 -403 0
-18 -407 401 0
-18 -407 404 0
-18 407 -401 -404 0
-19 -407 401 0
-19 -407 405 0
-19 407 -401 -405 0
-20 -407 401 0
-20 -407 406 0
-20 407 -401 -406 0
-21 -407 401 0
-21 407 -401 0
-22 -407 401 0
-22 407 -401 0
-23 -407 401 0
-23 407 -401 0
-24 -407 401 0
-24 407 -401 0
-25 -407 401 0
-25 407 -401 0
-26 -407 401 0
-26 407 -401 0
-27 -407 401 0
-27 407 -401 0
-28 -407 401 0
-28 407 -401 0
-29 -407 401 0
-29 407 -401 0
-30 -407 401 0
-30 407 -401 0
-62 -407 401 0
-62 407 -401 0
-16 -402 408 0
-16 -401 408 0
-16 -408 402 401 0
-17 -408 402 0
-17 408 -402 0
-18 -408 402 0
-18 408 -402 0
-19 -408 402 0
-19 408 -402 0
-20 -408 402 0
-20 408 -402 0
-21 -408 402 0
-21 -408 403 0
-21 408 -402 -403 0
-22 -408 402 0
-22 -408 404 0
-22 408 -402 -404 0
-23 -408 402 0
-23 -408 405 0
-23 408 -402 -405 0
-24 -408 402 0
-24 -408 406 0
-24 408 -402 -406 0
-25 -408 402 0
-25 408 -402 0
-26 -408 402 0
-26 408 -402 0
-27 -408 402 0
-27 408 -402 0
-28 -408 402 0
-28 408 -402 0
-29 -408 402 0
-29 408 -402 0
-30 -408 402 0
-30 408 -402 0
-62 -408 402 0
-62 408 -402 0
-16 -409 403 0
-16 409 -403 0
-17 -403 409 0
-17 -401 409 0
-17 -409 403 401 0
-18 -409 403 0
-18 409 -403 0
-19 -409 403 0
-19 409 -403 0
-20 -409 403 0
-20 409 -403 0
-21 -403 409 0
-21 -402 409 0
-21 -409 403 402 0
-22 -409 403 0
-22 409 -403 0
-23 -409 403 0
-23 409 -403 0
-24 -409 403 0
-24 409 -403 0
-25 -409 403 0
-25 -409 404 0
-25 409 -403 -404 0
-26 -409 403 0
-26 -409 405 0
-26 409 -403 -405 0
-27 -409 403 0
-27 -409 406 0
-27 409 -403 -406 0
-28 -409 403 0
-28 409 -403 0
-29 -409 403 0
-29 409 -403 0
-30 -409 403 0
-30 409 -403 0
-62 -409 403 0
-62 409 -403 0
-16 -410 404 0
-16 410 -404 0
-17 -410 404 0
-17 410 -404 0
-18 -404 410 0
-18 -401 410 0
-18 -410 404 401 0
-19 -410 404 0
-19 410 -404 0
-20 -410 404 0
-20 410 -404 0
-21 -410 404 0
-21 410 -404 0
-22 -404 410 0
-22 -402 410 0
-22 -410 404 402 0
-23 -410 404 0
-23 410 -404 0
-24 -410 404 0
-24 410 -404 0
-25 -404 410 0
-25 -403 410 0
-25 -410 404 403 0
-26 -410 404 0
-26 410 -404 0
-27 -410 404 0
-27 410 -404 0
-28 -410 404 0
-28 -410 405 0
-28 410 -404 -405 0
-29 -410 404 0
-29 -410 406 0
-29 410 -404 -406 0
-30 -410 404 0
-30 410 -404 0
-62 -410 404 0
-62 410 -404 0
-16 -411 405 0
-16 411 -405 0
-17 -411 405 0
-17 411 -405 0
-18 -411 405 0
-18 411 -405 0
-19 -405 411 0
-19 -401 411 0
-19 -411 405 401 0
-20 -411 405 0
-20 411 -405 0
-21 -411 405 0
-21 411 -405 0
-22 -411 405 0
-22 411 -405 0
-23 -405 411 0
-23 -402 411 0
-23 -411 405 402 0
-24 -411 405 0
-24 411 -405 0
-25 -411 405 0
-25 411 -405 0
-26 -405 411 0
-26 -403 411 0
-26 -411 405 403 0
-27 -411 405 0
-27 411 -405 0
-28 -405 411 0
-28 -404 411 0
-28 -411 405 404 0
-29 -411 405 0
-29 411 -405 0
-30 -411 405 0
-30 -411 406 0
-30 411 -405 -406 0
-62 -411 405 0
-62 411 -405 0
-16 -412 406 0
-16 412 -406 0
-17 -412 406 0
-17 412 -406 0
-18 -412 406 0
-18 412 -406 0
-19 -412 406 0
-19 412 -406 0
-20 -406 412 0
-20 -401 412 0
-20 -412 406 401 0
-21 -412 406 0
-21 412 -406 0
-22 -412 406 0
-22 412 -406 0
-23 -412 406 0
-23 412 -406 0
-24 -406 412 0
-24 -402 412 0
-24 -412 406 402 0
-25 -412 406 0
-25 412 -406 0
-26 -412 406 0
-26 412 -406 0
-27 -406 412 0
-27 -403 412 0
-27 -412 406 403 0
-28 -412 406 0
-28 412 -406 0
-29 -406 412 0
-29 -404 412 0
-29 -412 406 404 0
-30 -406 412 0
-30 -405 412 0
-30 -412 406 405 0
-62 -412 406 0
-62 412 -406 0
-31 -413 407 0
-31 -413 408 0
-31 413 -407 -408 0
-32 -413 407 0
-32 -413 409 0
-32 413 -407 -409 0
-33 -413 407 0
-33 -413 410 0
-33 413 -407 -410 0
-34 -413 407 0
-34 -413 411 0
-34 413 -407 -411 0
-35 -413 407 0
-35 -413 412 0
-35 413 -407 -412 0
-36 -413 407 0
-36 413 -407 0
-37 -413 407 0
-37 413 -407 0
-38 -413 407 0
-38 413 -407 0
-39 -413 407 0
-39 413 -407 0
-40 -413 407 0
-40 413 -407 0
-41 -413 407 0
-41 413 -407 0
-42 -413 407 0
-42 413 -407 0
-43 -413 407 0
-43 413 -407 0
-44 -413 407 0
-44 413 -407 0
-45 -413 407 0
-45 413 -407 0
-63 -413 407 0
-63 413 -407 0
-31 -408 414 0
-31 -407 414 0
-31 -414 408 407 0
-32 -414 408 0
-32 414 -408 0
-33 -414 408 0
-33 414 -408 0
-34 -414 408 0
-34 414 -408 0
-35 -414 408 0
-35 414 -408 0
-36 -414 408 0
-36 -414 409 0
-36 414 -408 -409 0
-37 -414 408 0
-37 -414 410 0
-37 414 -408 -410 0
-38 -414 408 0
-38 -414 411 0
-38 414 -408 -411 0
-39 -414 408 0
-39 -414 412 0
-39 414 -408 -412 0
-40 -414 408 0
-40 414 -408 0
-41 -414 408 0
-41 414 -408 0
-42 -414 408 0
-42 414 -408 0
-43 -414 408 0
-43 414 -408 0
-44 -414 408 0
-44 414 -408 0
-45 -414 408 0
-45 414 -408 0
-63 -414 408 0
-63 414 -408 0
-31 -415 409 0
-31 415 -409 0
-32 -409 415 0
-32 -407 415 0
-32 -415 409 407 0
-33 -415 409 0
-33 415 -409 0
-34 -415 409 0
-34 415 -409 0
-35 -415 409 0
-35 415 -409 0
-36 -409 415 0
-36 -408 415 0
-36 -415 409 408 0
-37 -415 409 0
-37 415 -409 0
-38 -415 409 0
-38 415 -409 0
-39 -415 409 0
-39 415 -409 0
-40 -415 409 0
-40 -415 410 0
-40 415 -409 -410 0
-41 -415 409 0
-41 -415 411 0
-41 415 -409 -411 0
-42 -415 409 0
-42 -415 412 0
-42 415 -409 -412 0
-43 -415 409 0
-43 415 -409 0
-44 -415 409 0
-44 415 -409 0
-45 -415 409 0
-45 415 -409 0
-63 -415 409 0
-63 415 -409 0
-31 -416 410 0
-31 416 -410 0
-32 -416 410 0
-32 416 -410 0
-33 -410 416 0
-33 -407 416 0
-33 -416 410 407 0
-34 -416 410 0
-34 416 -410 0
-35 -416 410 0
-35 416 -410 0
-36 -416 410 0
-36 416 -410 0
-37 -410 416 0
-37 -408 416 0
-37 -416 410 408 0
-38 -416 410 0
-38 416 -410 0
-39 -416 410 0
-39 416 -410 0
-40 -410 416 0
-40 -409 416 0
-40 -416 410 409 0
-41 -416 410 0
-41 416 -410 0
-42 -416 410 0
-42 416 -410 0
-43 -416 410 0
-43 -416 411 0
-43 416 -410 -411 0
-44 -416 410 0
-44 -416 412 0
-44 416 -410 -412 0
-45 -416 410 0
-45 416 -410 0
-63 -416 410 0
-63 416 -410 0
-31 -417 411 0
-31 417 -411 0
-32 -417 411 0
-32 417 -411 0
-33 -417 411 0
-33 417 -411 0
-34 -411 417 0
-34 -407 417 0
-34 -417 411 407 0
-35 -417 411 0
-35 417 -411 0
-36 -417 411 0
-36 417 -411 0
-37 -417 411 0
-37 417 -411 0
-38 -411 417 0
-38 -408 417 0
-38 -417 411 408 0
-39 -417 411 0
-39 417 -411 0
-40 -417 411 0
-40 417 -411 0
-41 -411 417 0
-41 -409 417 0
-41 -417 411 409 0
-42 -417 411 0
-42 417 -411 0
-43 -411 417 0
-43 -410 417 0
-43 -417 411 410 0
-44 -417 411 0
-44 417 -411 0
-45 -417 411 0
-45 -417 412 0
-45 417 -411 -412 0
-63 -417 411 0
-63 417 -411 0
-31 -418 412 0
-31 418 -412 0
-32 -418 412 0
-32 418 -412 0
-33 -418 412 0
-33 418 -412 0
-34 -418 412 0
-34 418 -412 0
-35 -412 418 0
-35 -407 418 0
-35 -418 412 407 0
-36 -418 412 0
-36 418 -412 0
-37 -418 412 0
-37 418 -412 0
-38 -418 412 0
-38 418 -412 0
-39 -412 418 0
-39 -408 418 0
-39 -418 412 408 0
-40 -418 412 0
-40 418 -412 0
-41 -418 412 0
-41 418 -412 0
-42 -412 418 0
-42 -409 418 0
-42 -418 412 409 0
-43 -418 412 0
-43 418 -412 0
-44 -412 418 0
-44 -410 418 0
-44 -418 412 410 0
-45 -412 418 0
-45 -411 418 0
-45 -418 412 411 0
-63 -418 412 0
-63 418 -412 0
-46 -419 413 0
-46 -419 414 0
-46 419 -413 -414 0
-47 -419 413 0
-47 -419 415 0
-47 419 -413 -415 0
-48 -419 413 0
-48 -419 416 0
-48 419 -413 -416 0
-49 -419 413 0
-49 -419 417 0
-49 419 -413 -417 0
-50 -419 413 0
-50 -419 418 0
-50 419 -413 -418 0
-51 -419 413 0
-51 419 -413 0
-52 -419 413 0
-52 419 -413 0
-53 -419 413 0
-53 419 -413 0
-54 -419 413 0
-54 419 -413 0
-55 -419 413 0
-55 419 -413 0
-56 -419 413 0
-56 419 -413 0
-57 -419 413 0
-57 419 -413 0
-58 -419 413 0
-58 419 -413 0
-59 -419 413 0
-59 419 -413 0
-60 -419 413 0
-60 419 -413 0
-64 -419 413 0
-64 419 -413 0
-46 -414 420 0
-46 -413 420 0
-46 -420 414 413 0
-47 -420 414 0
-47 420 -414 0
-48 -420 414 0
-48 420 -414 0
-49 -420 414 0
-49 420 -414 0
-50 -420 414 0
-50 420 -414 0
-51 -420 414 0
-51 -420 415 0
-51 420 -414 -415 0
-52 -420 414 0
-52 -420 416 0
-52 420 -414 -416 0
-53 -420 414 0
-53 -420 417 0
-53 420 -414 -417 0
-54 -420 414 0
-54 -420 418 0
-54 420 -414 -418 0
-55 -420 414 0
-55 420 -414 0
-56 -420 414 0
-56 420 -414 0
-57 -420 414 0
-57 420 -414 0
-58 -420 414 0
-58 420 -414 0
-59 -420 414 0
-59 420 -414 0
-60 -420 414 0
-60 420 -414 0
-64 -420 414 0
-64 420 -414 0
-46 -421 415 0
-46 421 -415 0
-47 -415 421 0
-47 -413 421 0
-47 -421 415 413 0
-48 -421 415 0
-48 421 -415 0
-49 -421 415 0
-49 421 -415 0
-50 -421 415 0
-50 421 -415 0
-51 -415 421 0
-51 -414 421 0
-51 -421 415 414 0
-52 -421 415 0
-52 421 -415 0
-53 -421 415 0
-53 421 -415 0
-54 -421 415 0
-54 421 -415 0
-55 -421 415 0
-55 -421 416 0
-55 421 -415 -416 0
-56 -421 415 0
-56 -421 417 0
-56 421 -415 -417 0
-57 -421 415 0
-57 -421 418 0
-57 421 -415 -418 0
-58 -421 415 0
-58 421 -415 0
-59 -421 415 0
-59 421 -415 0
-60 -421 415 0
-60 421 -415 0
-64 -421 415 0
-64 421 -415 0
-46 -422 416 0
-46 422 -416 0
-47 -422 416 0
-47 422 -416 0
-48 -416 422 0
-48 -413 422 0
-48 -422 416 413 0
-49 -422 416 0
-49 422 -416 0
-50 -422 416 0
-50 422 -416 0
-51 -422 416 0
-51 422 -416 0
-52 -416 422 0
-52 -414 422 0
-52 -422 416 414 0
-53 -422 416 0
-53 422 -416 0
-54 -422 416 0
-54 422 -416 0
-55 -416 422 0
-55 -415 422 0
-55 -422 416 415 0
-56 -422 416 0
-56 422 -416 0
-57 -422 416 0
-57 422 -416 0
-58 -422 416 0
-58 -422 417 0
-58 422 -416 -417 0
-59 -422 416 0
-59 -422 418 0
-59 422 -416 -418 0
-60 -422 416 0
-60 422 -416 0
-64 -422 416 0
-64 422 -416 0
-46 -423 417 0
-46 423 -417 0
-47 -423 417 0
-47 423 -417 0
-48 -423 417 0
-48 423 -417 0
-49 -417 423 0
-49 -413 423 0
-49 -423 417 413 0
-50 -423 417 0
-50 423 -417 0
-51 -423 417 0
-51 423 -417 0
-52 -423 417 0
-52 423 -417 0
-53 -417 423 0
-53 -414 423 0
-53 -423 417 414 0
-54 -423 417 0
-54 423 -417 0
-55 -423 417 0
-55 423 -417 0
-56 -417 423 0
-56 -415 423 0
-56 -423 417 415 0
-57 -423 417 0
-57 423 -417 0
-58 -417 423 0
-58 -416 423 0
-58 -423 417 416 0
-59 -423 417 0
-59 423 -417 0
-60 -423 417 0
-60 -423 418 0
-60 423 -417 -418 0
-64 -423 417 0
-64 423 -417 0
-46 -424 418 0
-46 424 -418 0
-47 -424 418 0
-47 424 -418 0
-48 -424 418 0
-48 424 -418 0
-49 -424 418 0
-49 424 -418 0
-50 -418 424 0
-50 -413 424 0
-50 -424 418 413 0
-51 -424 418 0
-51 424 -418 0
-52 -424 418 0
-52 424 -418 0
-53 -424 418 0
-53 424 -418 0
-54 -418 424 0
-54 -414 424 0
-54 -424 418 414 0
-55 -424 418 0
-55 424 -418 0
-56 -424 418 0
-56 424 -418 0
-57 -418 424 0
-57 -415 424 0
-57 -424 418 415 0
-58 -424 418 0
-58 424 -418 0
-59 -418 424 0
-59 -416 424 0
-59 -424 418 416 0
-60 -418 424 0
-60 -417 424 0
-60 -424 418 417 0
-64 -424 418 0
-64 424 -418 0
425 0
-1 -431 425 0
-1 -431 426 0
-1 431 -425 -426 0
-2 -431 425 0
-2 -431 427 0
-2 431 -425 -427 0
-3 -431 425 0
-3 -431 428 0
-3 431 -425 -428 0
-4 -431 425 0
-4 -431 429 0
-4 431 -425 -429 0
-5 -431 425 0
-5 -431 430 0
-5 431 -425 -430 0
-6 -431 425 0
-6 431 -425 0
-7 -431 425 0
-7 431 -425 0
-8 -431 425 0
-8 431 -425 0
-9 -431 425 0
-9 431 -425 0
-10 -431 425 0
-10 431 -425 0
-11 -431 425 0
-11 431 -425 0
-12 -431 425 0
-12 431 -425 0
-13 -431 425 0
-13 431 -425 0
-14 -431 425 0
-14 431 -425 0
-15 -431 425 0
-15 431 -425 0
-61 -431 425 0
-61 431 -425 0
426 0
-1 -426 432 0
-1 -425 432 0
-1 -432 426 425 0
-2 -432 426 0
-2 432 -426 0
-3 -432 426 0
-3 432 -426 0
-4 -432 426 0
-4 432 -426 0
-5 -432 426 0
-5 432 -426 0
-6 -432 426 0
-6 -432 427 0
-6 432 -426 -427 0
-7 -432 426 0
-7 -432 428 0
-7 432 -426 -428 0
-8 -432 426 0
-8 -432 429 0
-8 432 -426 -429 0
-9 -432 426 0
-9 -432 430 0
-9 432 -426 -430 0
-10 -432 426 0
-10 432 -426 0
-11 -432 426 0
-11 432 -426 0
-12 -432 426 0
-12 432 -426 0
-13 -432 426 0
-13 432 -426 0
-14 -432 426 0
-14 432 -426 0
-15 -432 426 0
-15 432 -426 0
-61 -432 426 0
-61 432 -426 0
-427 0
-1 -433 427 0
-1 433 -427 0
-2 -427 433 0
-2 -425 433 0
-2 -433 427 425 0
-3 -433 427 0
-3 433 -427 0
-4 -433 427 0
-4 433 -427 0
-5 -433 427 0
-5 433 -427 0
-6 -427 433 0
-6 -426 433 0
-6 -433 427 426 0
-7 -433 427 0
-7 433 -427 0
-8 -433 427 0
-8 433 -427 0
-9 -433 427 0
-9 433 -427 0
-10 -433 427 0
-10 -433 428 0
-10 433 -427 -428 0
-11 -433 427 0
-11 -433 429 0
-11 433 -427 -429 0
-12 -433 427 0
-12 -433 430 0
-12 433 -427 -430 0
-13 -433 427 0
-13 433 -427 0
-14 -433 427 0
-14 433 -427 0
-15 -433 427 0
-15 433 -427 0
-61 -433 427 0
-61 433 -427 0
-428 0
-1 -434 428 0
-1 434 -428 0
-2 -434 428 0
-2 434 -428 0
-3 -428 434 0
-3 -425 434 0
-3 -434 428 425 0
-4 -434 428 0
-4 434 -428 0
-5 -434 428 0
-5 434 -428 0
-6 -434 428 0
-6 434 -428 0
-7 -428 434 0
-7 -426 434 0
-7 -434 428 426 0
-8 -434 428 0
-8 434 -428 0
-9 -434 428 0
-9 434 -428 0
-10 -428 434 0
-10 -427 434 0
-10 -434 428 427 0
-11 -434 428 0
-11 434 -428 0
-12 -434 428 0
-12 434 -428 0
-13 -434 428 0
-13 -434 429 0
-13 434 -428 -429 0
-14 -434 428 0
-14 -434 430 0
-14 434 -428 -430 0
-15 -434 428 0
-15 434 -428 0
-61 -434 428 0
-61 434 -428 0
429 0
-1 -435 429 0
-1 435 -429 0
-2 -435 429 0
-2 435 -429 0
-3 -435 429 0
-3 435 -429 0
-4 -429 435 0
-4 -425 435 0
-4 -435 429 425 0
-5 -435 429 0
-5 435 -429 0
-6 -435 429 0
-6 435 -429 0
-7 -435 429 0
-7 435 -429 0
-8 -429 435 0
-8 -426 435 0
-8 -435 429 426 0
-9 -435 429 0
-9 435 -429 0
-10 -435 429 0
-10 435 -429 0
-11 -429 435 0
-11 -427 435 0
-11 -435 429 427 0
-12 -435 429 0
-12 435 -429 0
-13 -429 435 0
-13 -428 435 0
-13 -435 429 428 0
-14 -435 429 0
-14 435 -429 0
-15 -435 429 0
-15 -435 430 0
-15 435 -429 -430 0
-61 -435 429 0
-61 435 -429 0
430 0
-1 -436 430 0
-1 436 -430 0
-2 -436 430 0
-2 436 -430 0
-3 -436 430 0
-3 436 -430 0
-4 -436 430 0
-4 436 -430 0
-5 -430 436 0
-5 -425 436 0
-5 -436 430 425 0
-6 -436 430 0
-6 436 -430 0
-7 -436 430 0
-7 436 -430 0
-8 -436 430 0
-8 436 -430 0
-9 -430 436 0
-9 -426 436 0
-9 -436 430 426 0
-10 -436 430 0
-10 436 -430 0
-11 -436 430 0
-11 436 -430 0
-12 -430 436 0
-12 -427 436 0
-12 -436 430 427 0
-13 -436 430 0
-13 436 -430 0
-14 -430 436 0
-14 -428 436 0
-14 -436 430 428 0
-15 -430 436 0
-15 -429 436 0
-15 -436 430 429 0
-61 -436 430 0
-61 436 -430 0
-16 -437 431 0
-16 -437 432 0
-16 437 -431 -432 0
-17 -437 431 0
-17 -437 433 0
-17 437 -431 -433 0
-18 -437 431 0
-18 -437 434 0
-18 437 -431 -434 0
-19 -437 431 0
-19 -437 435 0
-19 437 -431 -435 0
-20 -437 431 0
-20 -437 436 0
-20 437 -431 -436 0
-21 -437 431 0
-21 437 -431 0
-22 -437 431 0
-22 437 -431 0
-23 -437 431 0
-23 437 -431 0
-24 -437 431 0
-24 437 -431 0
-25 -437 431 0
-25 437 -431 0
-26 -437 431 0
-26 437 -431 0
-27 -437 431 0
-27 437 -431 0
-28 -437 431 0
-28 437 -431 0
-29 -437 431 0
-29 437 -431 0
-30 -437 431 0
-30 437 -431 0
-62 -437 431 0
-62 437 -431 0
-16 -432 438 0
-16 -431 438 0
-16 -438 432 431 0
-17 -438 432 0
-17 438 -432 0
-18 -438 432 0
-18 438 -432 0
-19 -438 432 0
-19 438 -432 0
-20 -438 432 0
-20 438 -432 0
-21 -438 432 0
-21 -438 433 0
-21 438 -432 -433 0
-22 -438 432 0
-22 -438 434 0
-22 438 -432 -434 0
-23 -438 432 0
-23 -438 435 0
-23 438 -432 -435 0
-24 -438 432 0
-24 -438 436 0
-24 438 -432 -436 0
-25 -438 432 0
-25 438 -432 0
-26 -438 432 0
-26 438 -432 0
-27 -438 432 0
-27 438 -432 0
-28 -438 432 0
-28 438 -432 0
-29 -438 432 0
-29 438 -432 0
-30 -438 432 0
-30 438 -432 0
-62 -438 432 0
-62 438 -432 0
-16 -439 433 0
-16 439 -433 0
-17 -433 439 0
-17 -431 439 0
-17 -439 433 431 0
-18 -439 433 0
-18 439 -433 0
-19 -439 433 0
-19 439 -433 0
-20 -439 433 0
-20 439 -433 0
-21 -433 439 0
-21 -432 439 0
-21 -439 433 432 0
-22 -439 433 0
-22 439 -433 0
-23 -439 433 0
-23 439 -433 0
-24 -439 433 0
-24 439 -433 0
-25 -439 433 0
-25 -439 434 0
-25 439 -433 -434 0
-26 -439 433 0
-26 -439 435 0
-26 439 -433 -435 0
-27 -439 433 0
-27 -439 436 0
-27 439 -433 -436 0
-28 -439 433 0
-28 439 -433 0
-29 -439 433 0
-29 439 -433 0
-30 -439 433 0
-30 439 -433 0
-62 -439 433 0
-62 439 -433 0
-16 -440 434 0
-16 440 -434 0
-17 -440 434 0
-17 440 -434 0
-18 -434 440 0
-18 -431 440 0
-18 -440 434 431 0
-19 -440 434 0
-19 440 -434 0
-20 -440 434 0
-20 440 -434 0
-21 -440 434 0
-21 440 -434 0
-22 -434 440 0
-22 -432 440 0
-22 -440 434 432 0
-23 -440 434 0
-23 440 -434 0
-24 -440 434 0
-24 440 -434 0
-25 -434 440 0
-25 -433 440 0
-25 -440 434 433 0
-26 -440 434 0
-26 440 -434 0
-27 -440 434 0
-27 440 -434 0
-28 -440 434 0
-28 -440 435 0
-28 440 -434 -435 0
-29 -440 434 0
-29 -440 436 0
-29 440 -434 -436 0
-30 -440 434 0
-30 440 -434 0
-62 -440 434 0
-62 440 -434 0
-16 -441 435 0
-16 441 -435 0
-17 -441 435 0
-17 441 -435 0
-18 -441 435 0
-18 441 -435 0
-19 -435 441 0
-19 -431 441 0
-19 -441 435 431 0
-20 -441 435 0
-20 441 -435 0
-21 -441 435 0
-21 441 -435 0
-22 -441 435 0
-22 441 -435 0
-23 -435 441 0
-23 -432 441 0
-23 -441 435 432 0
-24 -441 435 0
-24 441 -435 0
-25 -441 435 0
-25 441 -435 0
-26 -435 441 0
-26 -433 441 0
-26 -441 435 433 0
-27 -441 435 0
-27 441 -435 0
-28 -435 441 0
-28 -434 441 0
-28 -441 435 434 0
-29 -441 435 0
-29 441 -435 0
-30 -441 435 0
-30 -441 436 0
-30 441 -435 -436 0
-62 -441 435 0
-62 441 -435 0
-16 -442 436 0
-16 442 -436 0
-17 -442 436 0
-17 442 -436 0
-18 -442 436 0
-18 442 -436 0
-19 -442 436 0
-19 442 -436 0
-20 -436 442 0
-20 -431 442 0
-20 -442 436 431 0
-21 -442 436 0
-21 442 -436 0
-22 -442 436 0
-22 442 -436 0
-23 -442 436 0
-23 442 -436 0
-24 -436 442 0
-24 -432 442 0
-24 -442 436 432 0
-25 -442 436 0
-25 442 -436 0
-26 -442 436 0
-26 442 -436 0
-27 -436 442 0
-27 -433 442 0
-27 -442 436 433 0
-28 -442 436 0
-28 442 -436 0
-29 -436 442 0
-29 -434 442 0
-29 -442 436 434 0
-30 -436 442 0
-30 -435 442 0
-30 -442 436 435 0
-62 -442 436 0
-62 442 -436 0
-31 -443 437 0
-31 -443 438 0
-31 443 -437 -438 0
-32 -443 437 0
-32 -443 439 0
-32 443 -437 -439 0
-33 -443 437 0
-33 -443 440 0
-33 443 -437 -440 0
-34 -443 437 0
-34 -443 441 0
-34 443 -437 -441 0
-35 -443 437 0
-35 -443 442 0
-35 443 -437 -442 0
-36 -443 437 0
-36 443 -437 0
-37 -443 437 0
-37 443 -437 0
-38 -443 437 0
-38 443 -437 0
-39 -443 437 0
-39 443 -437 0
-40 -443 437 0
-40 443 -437 0
-41 -443 437 0
-41 443 -437 0
-42 -443 437 0
-42 443 -437 0
-43 -443 437 0
-43 443 -437 0
-44 -443 437 0
-44 443 -437 0
-45 -443 437 0
-45 443 -437 0
-63 -443 437 0
-63 443 -437 0
-31 -438 444 0
-31 -437 444 0
-31 -444 438 437 0
-32 -444 438 0
-32 444 -438 0
-33 -444 438 0
-33 444 -438 0
-34 -444 438 0
-34 444 -438 0
-35 -444 438 0
-35 444 -438 0
-36 -444 438 0
-36 -444 439 0
-36 444 -438 -439 0
-37 -444 438 0
-37 -444 440 0
-37 444 -438 -440 0
-38 -444 438 0
-38 -444 441 0
-38 444 -438 -441 0
-39 -444 438 0
-39 -444 442 0
-39 444 -438 -442 0
-40 -444 438 0
-40 444 -438 0
-41 -444 438 0
-41 444 -438 0
-42 -444 438 0
-42 444 -438 0
-43 -444 438 0
-43 444 -438 0
-44 -444 438 0
-44 444 -438 0
-45 -444 438 0
-45 444 -438 0
-63 -444 438 0
-63 444 -438 0
-31 -445 439 0
-31 445 -439 0
-32 -439 445 0
-32 -437 445 0
-32 -445 439 437 0
-33 -445 439 0
-33 445 -439 0
-34 -445 439 0
-34 445 -439 0
-35 -445 439 0
-35 445 -439 0
-36 -439 445 0
-36 -438 445 0
-36 -445 439 438 0
-37 -445 439 0
-37 445 -439 0
-38 -445 439 0
-38 445 -439 0
-39 -445 439 0
-39 445 -439 0
-40 -445 439 0
-40 -445 440 0
-40 445 -439 -440 0
-41 -445 439 0
-41 -445 441 0
-41 445 -439 -441 0
-42 -445 439 0
-42 -445 442 0
-42 445 -439 -442 0
-43 -445 439 0
-43 445 -439 0
-44 -445 439 0
-44 445 -439 0
-45 -445 439 0
-45 445 -439 0
-63 -445 439 0
-63 445 -439 0
-31 -446 440 0
-31 446 -440 0
-32 -446 440 0
-32 446 -440 0
-33 -440 446 0
-33 -437 446 0
-33 -446 440 437 0
-34 -446 440 0
-34 446 -440 0
-35 -446 440 0
-35 446 -440 0
-36 -446 440 0
-36 446 -440 0
-37 -440 446 0
-37 -438 446 0
-37 -446 440 438 0
-38 -446 440 0
-38 446 -440 0
-39 -446 440 0
-39 446 -440 0
-40 -440 446 0
-40 -439 446 0
-40 -446 440 439 0
-41 -446 440 0
-41 446 -440 0
-42 -446 440 0
-42 446 -440 0
-43 -446 440 0
-43 -446 441 0
-43 446 -440 -441 0
-44 -446 440 0
-44 -446 442 0
-44 446 -440 -442 0
-45 -446 440 0
-45 446 -440 0
-63 -446 440 0
-63 446 -440 0
-31 -447 441 0
-31 447 -441 0
-32 -447 441 0
-32 447 -441 0
-33 -447 441 0
-33 447 -441 0
-34 -441 447 0
-34 -437 447 0
-34 -447 441 437 0
-35 -447 441 0
-35 447 -441 0
-36 -447 441 0
-36 447 -441 0
-37 -447 441 0
-37 447 -441 0
-38 -441 447 0
-38 -438 447 0
-38 -447 441 438 0
-39 -447 441 0
-39 447 -441 0
-40 -447 441 0
-40 447 -441 0
-41 -441 447 0
-41 -439 447 0
-41 -447 441 439 0
-42 -447 441 0
-42 447 -441 0
-43 -441 447 0
-43 -440 447 0
-43 -447 441 440 0
-44 -447 441 0
-44 447 -441 0
-45 -447 441 0
-45 -447 442 0
-45 447 -441 -442 0
-63 -447 441 0
-63 447 -441 0
-31 -448 442 0
-31 448 -442 0
-32 -448 442 0
-32 448 -442 0
-33 -448 442 0
-33 448 -442 0
-34 -448 442 0
-34 448 -442 0
-35 -442 448 0
-35 -437 448 0
-35 -448 442 437 0
-36 -448 442 0
-36 448 -442 0
-37 -448 442 0
-37 448 -442 0
-38 -448 442 0
-38 448 -442 0
-39 -442 448 0
-39 -438 448 0
-39 -448 442 438 0
-40 -448 442 0
-40 448 -442 0
-41 -448 442 0
-41 448 -442 0
-42 -442 448 0
-42 -439 448 0
-42 -448 442 439 0
-43 -448 442 0
-43 448 -442 0
-44 -442 448 0
-44 -440 448 0
-44 -448 442 440 0
-45 -442 448 0
-45 -441 448 0
-45 -448 442 441 0
-63 -448 442 0
-63 448 -442 0
-46 -449 443 0
-46 -449 444 0
-46 449 -443 -444 0
-47 -449 443 0
-47 -449 445 0
-47 449 -443 -445 0
-48 -449 443 0
-48 -449 446 0
-48 449 -443 -446 0
-49 -449 443 0
-49 -449 447 0
-49 449 -443 -447 0
-50 -449 443 0
-50 -449 448 0
-50 449 -443 -448 0
-51 -449 443 0
-51 449 -443 0
-52 -449 443 0
-52 449 -443 0
-53 -449 443 0
-53 449 -443 0
-54 -449 443 0
-54 449 -443 0
-55 -449 443 0
-55 449 -443 0
-56 -449 443 0
-56 449 -443 0
-57 -449 443 0
-57 449 -443 0
-58 -449 443 0
-58 449 -443 0
-59 -449 443 0
-59 449 -443 0
-60 -449 443 0
-60 449 -443 0
-64 -449 443 0
-64 449 -443 0
-46 -444 450 0
-46 -443 450 0
-46 -450 444 443 0
-47 -450 444 0
-47 450 -444 0
-48 -450 444 0
-48 450 -444 0
-49 -450 444 0
-49 450 -444 0
-50 -450 444 0
-50 450 -444 0
-51 -450 444 0
-51 -450 445 0
-51 450 -444 -445 0
-52 -450 444 0
-52 -450 446 0
-52 450 -444 -446 0
-53 -450 444 0
-53 -450 447 0
-53 450 -444 -447 0
-54 -450 444 0
-54 -450 448 0
-54 450 -444 -448 0
-55 -450 444 0
-55 450 -444 0
-56 -450 444 0
-56 450 -444 0
-57 -450 444 0
-57 450 -444 0
-58 -450 444 0
-58 450 -444 0
-59 -450 444 0
-59 450 -444 0
-60 -450 444 0
-60 450 -444 0
-64 -450 444 0
-64 450 -444 0
-46 -451 445 0
-46 451 -445 0
-47 -445 451 0
-47 -443 451 0
-47 -451 445 443 0
-48 -451 445 0
-48 451 -445 0
-49 -451 445 0
-49 451 -445 0
-50 -451 445 0
-50 451 -445 0
-51 -445 451 0
-51 -444 451 0
-51 -451 445 444 0
-52 -451 445 0
-52 451 -445 0
-53 -451 445 0
-53 451 -445 0
-54 -451 445 0
-54 451 -445 0
-55 -451 445 0
-55 -451 446 0
-55 451 -445 -446 0
-56 -451 445 0
-56 -451 447 0
-56 451 -445 -447 0
-57 -451 445 0
-57 -451 448 0
-57 451 -445 -448 0
-58 -451 445 0
-58 451 -445 0
-59 -451 445 0
-59 451 -445 0
-60 -451 445 0
-60 451 -445 0
-64 -451 445 0
-64 451 -445 0
-46 -452 446 0
-46 452 -446 0
-47 -452 446 0
-47 452 -446 0
-48 -446 452 0
-48 -443 452 0
-48 -452 446 443 0
-49 -452 446 0
-49 452 -446 0
-50 -452 446 0
-50 452 -446 0
-51 -452 446 0
-51 452 -446 0
-52 -446 452 0
-52 -444 452 0
-52 -452 446 444 0
-53 -452 446 0
-53 452 -446 0
-54 -452 446 0
-54 452 -446 0
-55 -446 452 0
-55 -445 452 0
-55 -452 446 445 0
-56 -452 446 0
-56 452 -446 0
-57 -452 446 0
-57 452 -446 0
-58 -452 446 0
-58 -452 447 0
-58 452 -446 -447 0
-59 -452 446 0
-59 -452 448 0
-59 452 -446 -448 0
-60 -452 446 0
-60 452 -446 0
-64 -452 446 0
-64 452 -446 0
-46 -453 447 0
-46 453 -447 0
-47 -453 447 0
-47 453 -447 0
-48 -453 447 0
-48 453 -447 0
-49 -447 453 0
-49 -443 453 0
-49 -453 447 443 0
-50 -453 447 0
-50 453 -447 0
-51 -453 447 0
-51 453 -447 0
-52 -453 447 0
-52 453 -447 0
-53 -447 453 0
-53 -444 453 0
-53 -453 447 444 0
-54 -453 447 0
-54 453 -447 0
-55 -453 447 0
-55 453 -447 0
-56 -447 453 0
-56 -445 453 0
-56 -453 447 445 0
-57 -453 447 0
-57 453 -447 0
-58 -447 453 0
-58 -446 453 0
-58 -453 447 446 0
-59 -453 447 0
-59 453 -447 0
-60 -453 447 0
-60 -453 448 0
-60 453 -447 -448 0
-64 -453 447 0
-64 453 -447 0
-46 -454 448 0
-46 454 -448 0
-47 -454 448 0
-47 454 -448 0
-48 -454 448 0
-48 454 -448 0
-49 -454 448 0
-49 454 -448 0
-50 -448 454 0
-50 -443 454 0
-50 -454 448 443 0
-51 -454 448 0
-51 454 -448 0
-52 -454 448 0
-52 454 -448 0
-53 -454 448 0
-53 454 -448 0
-54 -448 454 0
-54 -444 454 0
-54 -454 448 444 0
-55 -454 448 0
-55 454 -448 0
-56 -454 448 0
-56 454 -448 0
-57 -448 454 0
-57 -445 454 0
-57 -454 448 445 0
-58 -454 448 0
-58 454 -448 0
-59 -448 454 0
-59 -446 454 0
-59 -454 448 446 0
-60 -448 454 0
-60 -447 454 0
-60 -454 448 447 0
-64 -454 448 0
-64 454 -448 0
455 0
-1 -461 455 0
-1 -461 456 0
-1 461 -455 -456 0
-2 -461 455 0
-2 -461 457 0
-2 461 -455 -457 0
-3 -461 455 0
-3 -461 458 0
-3 461 -455 -458 0
-4 -461 455 0
-4 -461 459 0
-4 461 -455 -459 0
-5 -461 455 0
-5 -461 460 0
-5 461 -455 -460 0
-6 -461 455 0
-6 461 -455 0
-7 -461 455 0
-7 461 -455 0
-8 -461 455 0
-8 461 -455 0
-9 -461 455 0
-9 461 -455 0
-10 -461 455 0
-10 461 -455 0
-11 -461 455 0
-11 461 -455 0
-12 -461 455 0
-12 461 -455 0
-13 -461 455 0
-13 461 -455 0
-14 -461 455 0
-14 461 -455 0
-15 -461 455 0
-15 461 -455 0
-61 -461 455 0
-61 461 -455 0
456 0
-1 -456 462 0
-1 -455 462 0
-1 -462 456 455 0
-2 -462 456 0
-2 462 -456 0
-3 -462 456 0
-3 462 -456 0
-4 -462 456 0
-4 462 -456 0
-5 -462 456 0
-5 462 -456 0
-6 -462 456 0
-6 -462 457 0
-6 462 -456 -457 0
-7 -462 456 0
-7 -462 458 0
-7 462 -456 -458 0
-8 -462 456 0
-8 -462 459 0
-8 462 -456 -459 0
-9 -462 456 0
-9 -462 460 0
-9 462 -456 -460 0
-10 -462 456 0
-10 462 -456 0
-11 -462 456 0
-11 462 -456 0
-12 -462 456 0
-12 462 -456 0
-13 -462 456 0
-13 462 -456 0
-14 -462 456 0
-14 462 -456 0
-15 -462 456 0
-15 462 -456 0
-61 -462 456 0
-61 462 -456 0
-457 0
-1 -463 457 0
-1 463 -457 0
-2 -457 463 0
-2 -455 463 0
-2 -463 457 455 0
-3 -463 457 0
-3 463 -457 0
-4 -463 457 0
-4 463 -457 0
-5 -463 457 0
-5 463 -457 0
-6 -457 463 0
-6 -456 463 0
-6 -463 457 456 0
-7 -463 457 0
-7 463 -457 0
-8 -463 457 0
-8 463 -457 0
-9 -463 457 0
-9 463 -457 0
-10 -463 457 0
-10 -463 458 0
-10 463 -457 -458 0
-11 -463 457 0
-11 -463 459 0
-11 463 -457 -459 0
-12 -463 457 0
-12 -463 460 0
-12 463 -457 -460 0
-13 -463 457 0
-13 463 -457 0
-14 -463 457 0
-14 463 -457 0
-15 -463 457 0
-15 463 -457 0
-61 -463 457 0
-61 463 -457 0
458 0
-1 -464 458 0
-1 464 -458 0
-2 -464 458 0
-2 464 -458 0
-3 -458 464 0
-3 -455 464 0
-3 -464 458 455 0
-4 -464 458 0
-4 464 -458 0
-5 -464 458 0
-5 464 -458 0
-6 -464 458 0
-6 464 -458 0
-7 -458 464 0
-7 -456 464 0
-7 -464 458 456 0
-8 -464 458 0
-8 464 -458 0
-9 -464 458 0
-9 464 -458 0
-10 -458 464 0
-10 -457 464 0
-10 -464 458 457 0
-11 -464 458 0
-11 464 -458 0
-12 -464 458 0
-12 464 -458 0
-13 -464 458 0
-13 -464 459 0
-13 464 -458 -459 0
-14 -464 458 0
-14 -464 460 0
-14 464 -458 -460 0
-15 -464 458 0
-15 464 -458 0
-61 -464 458 0
-61 464 -458 0
459 0
-1 -465 459 0
-1 465 -459 0
-2 -465 459 0
-2 465 -459 0
-3 -465 459 0
-3 465 -459 0
-4 -459 465 0
-4 -455 465 0
-4 -465 459 455 0
-5 -465 459 0
-5 465 -459 0
-6 -465 459 0
-6 465 -459 0
-7 -465 459 0
-7 465 -459 0
-8 -459 465 0
-8 -456 465 0
-8 -465 459 456 0
-9 -465 459 0
-9 465 -459 0
-10 -465 459 0
-10 465 -459 0
-11 -459 465 0
-11 -457 465 0
-11 -465 459 457 0
-12 -465 459 0
-12 465 -459 0
-13 -459 465 0
-13 -458 465 0
-13 -465 459 458 0
-14 -465 459 0
-14 465 -459 0
-15 -465 459 0
-15 -465 460 0
-15 465 -459 -460 0
-61 -465 459 0
-61 465 -459 0
460 0
-1 -466 460 0
-1 466 -460 0
-2 -466 460 0
-2 466 -460 0
-3 -466 460 0
-3 466 -460 0
-4 -466 460 0
-4 466 -460 0
-5 -460 466 0
-5 -455 466 0
-5 -466 460 455 0
-6 -466 460 0
-6 466 -460 0
-7 -466 460 0
-7 466 -460 0
-8 -466 460 0
-8 466 -460 0
-9 -460 466 0
-9 -456 466 0
-9 -466 460 456 0
-10 -466 460 0
-10 466 -460 0
-11 -466 460 0
-11 466 -460 0
-12 -460 466 0
-12 -457 466 0
-12 -466 460 457 0
-13 -466 460 0
-13 466 -460 0
-14 -460 466 0
-14 -458 466 0
-14 -466 460 458 0
-15 -460 466 0
-15 -459 466 0
-15 -466 460 459 0
-61 -466 460 0
-61 466 -460 0
-16 -467 461 0
-16 -467 462 0
-16 467 -461 -462 0
-17 -467 461 0
-17 -467 463 0
-17 467 -461 -463 0
-18 -467 461 0
-18 -467 464 0
-18 467 -461 -464 0
-19 -467 461 0
-19 -467 465 0
-19 467 -461 -465 0
-20 -467 461 0
-20 -467 466 0
-20 467 -461 -466 0
-21 -467 461 0
-21 467 -461 0
-22 -467 461 0
-22 467 -461 0
-23 -467 461 0
-23 467 -461 0
-24 -467 461 0
-24 467 -461 0
-25 -467 461 0
-25 467 -461 0
-26 -467 461 0
-26 467 -461 0
-27 -467 461 0
-27 467 -461 0
-28 -467 461 0
-28 467 -461 0
-29 -467 461 0
-29 467 -461 0
-30 -467 461 0
-30 467 -461 0
-62 -467 461 0
-62 467 -461 0
-16 -462 468 0
-16 -461 468 0
-16 -468 462 461 0
-17 -468 462 0
-17 468 -462 0
-18 -468 462 0
-18 468 -462 0
-19 -468 462 0
-19 468 -462 0
-20 -468 462 0
-20 468 -462 0
-21 -468 462 0
-21 -468 463 0
-21 468 -462 -463 0
-22 -468 462 0
-22 -468 464 0
-22 468 -462 -464 0
-23 -468 462 0
-23 -468 465 0
-23 468 -462 -465 0
-24 -468 462 0
-24 -468 466 0
-24 468 -462 -466 0
-25 -468 462 0
-25 468 -462 0
-26 -468 462 0
-26 468 -462 0
-27 -468 462 0
-27 468 -462 0
-28 -468 462 0
-28 468 -462 0
-29 -468 462 0
-29 468 -462 0
-30 -468 462 0
-30 468 -462 0
-62 -468 462 0
-62 468 -462 0
-16 -469 463 0
-16 469 -463 0
-17 -463 469 0
-17 -461 469 0
-17 -469 463 461 0
-18 -469 463 0
-18 469 -463 0
-19 -469 463 0
-19 469 -463 0
-20 -469 463 0
-20 469 -463 0
-21 -463 469 0
-21 -462 469 0
-21 -469 463 462 0
-22 -469 463 0
-22 469 -463 0
-23 -469 463 0
-23 469 -463 0
-24 -469 463 0
-24 469 -463 0
-25 -469 463 0
-25 -469 464 0
-25 469 -463 -464 0
-26 -469 463 0
-26 -469 465 0
-26 469 -463 -465 0
-27 -469 463 0
-27 -469 466 0
-27 469 -463 -466 0
-28 -469 463 0
-28 469 -463 0
-29 -469 463 0
-29 469 -463 0
-30 -469 463 0
-30 469 -463 0
-62 -469 463 0
-62 469 -463 0
-16 -470 464 0
-16 470 -464 0
-17 -470 464 0
-17 470 -464 0
-18 -464 470 0
-18 -461 470 0
-18 -470 464 461 0
-19 -470 464 0
-19 470 -464 0
-20 -470 464 0
-20 470 -464 0
-21 -470 464 0
-21 470 -464 0
-22 -464 470 0
-22 -462 470 0
-22 -470 464 462 0
-23 -470 464 0
-23 470 -464 0
-24 -470 464 0
-24 470 -464 0
-25 -464 470 0
-25 -463 470 0
-25 -470 464 463 0
-26 -470 464 0
-26 470 -464 0
-27 -470 464 0
-27 470 -464 0
-28 -470 464 0
-28 -470 465 0
-28 470 -464 -465 0
-29 -470 464 0
-29 -470 466 0
-29 470 -464 -466 0
-30 -470 464 0
-30 470 -464 0
-62 -470 464 0
-62 470 -464 0
-16 -471 465 0
-16 471 -465 0
-17 -471 465 0
-17 471 -465 0
-18 -471 465 0
-18 471 -465 0
-19 -465 471 0
-19 -461 471 0
-19 -471 465 461 0
-20 -471 465 0
-20 471 -465 0
-21 -471 465 0
-21 471 -465 0
-22 -471 465 0
-22 471 -465 0
-23 -465 471 0
-23 -462 471 0
-23 -471 465 462 0
-24 -471 465 0
-24 471 -465 0
-25 -471 465 0
-25 471 -465 0
-26 -465 471 0
-26 -463 471 0
-26 -471 465 463 0
-27 -471 465 0
-27 471 -465 0
-28 -465 471 0
-28 -464 471 0
-28 -471 465 464 0
-29 -471 465 0
-29 471 -465 0
-30 -471 465 0
-30 -471 466 0
-30 471 -465 -466 0
-62 -471 465 0
-62 471 -465 0
-16 -472 466 0
-16 472 -466 0
-17 -472 466 0
-17 472 -466 0
-18 -472 466 0
-18 472 -466 0
-19 -472 466 0
-19 472 -466 0
-20 -466 472 0
-20 -461 472 0
-20 -472 466 461 0
-21 -472 466 0
-21 472 -466 0
-22 -472 466 0
-22 472 -466 0
-23 -472 466 0
-23 472 -466 0
-24 -466 472 0
-24 -462 472 0
-24 -472 466 462 0
-25 -472 466 0
-25 472 -466 0
-26 -472 466 0
-26 472 -466 0
-27 -466 472 0
-27 -463 472 0
-27 -472 466 463 0
-28 -472 466 0
-28 472 -466 0
-29 -466 472 0
-29 -464 472 0
-29 -472 466 464 0
-30 -466 472 0
-30 -465 472 0
-30 -472 466 465 0
-62 -472 466 0
-62 472 -466 0
-31 -473 467 0
-31 -473 468 0
-31 473 -467 -468 0
-32 -473 467 0
-32 -473 469 0
-32 473 -467 -469 0
-33 -473 467 0
-33 -473 470 0
-33 473 -467 -470 0
-34 -473 467 0
-34 -473 471 0
-34 473 -467 -471 0
-35 -473 467 0
-35 -473 472 0
-35 473 -467 -472 0
-36 -473 467 0
-36 473 -467 0
-37 -473 467 0
-37 473 -467 0
-38 -473 467 0
-38 473 -467 0
-39 -473 467 0
-39 473 -467 0
-40 -473 467 0
-40 473 -467 0
-41 -473 467 0
-41 473 -467 0
-42 -473 467 0
-42 473 -467 0
-43 -473 467 0
-43 473 -467 0
-44 -473 467 0
-44 473 -467 0
-45 -473 467 0
-45 473 -467 0
-63 -473 467 0
-63 473 -467 0
-31 -468 474 0
-31 -467 474 0
-31 -474 468 467 0
-32 -474 468 0
-32 474 -468 0
-33 -474 468 0
-33 474 -468 0
-34 -474 468 0
-34 474 -468 0
-35 -474 468 0
-35 474 -468 0
-36 -474 468 0
-36 -474 469 0
-36 474 -468 -469 0
-37 -474 468 0
-37 -474 470 0
-37 474 -468 -470 0
-38 -474 468 0
-38 -474 471 0
-38 474 -468 -471 0
-39 -474 468 0
-39 -474 472 0
-39 474 -468 -472 0
-40 -474 468 0
-40 474 -468 0
-41 -474 468 0
-41 474 -468 0
-42 -474 468 0
-42 474 -468 0
-43 -474 468 0
-43 474 -468 0
-44 -474 468 0
-44 474 -468 0
-45 -474 468 0
-45 474 -468 0
-63 -474 468 0
-63 474 -468 0
-31 -475 469 0
-31 475 -469 0
-32 -469 475 0
-32 -467 475 0
-32 -475 469 467 0
-33 -475 469 0
-33 475 -469 0
-34 -475 469 0
-34 475 -469 0
-35 -475 469 0
-35 475 -469 0
-36 -469 475 0
-36 -468 475 0
-36 -475 469 468 0
-37 -475 469 0
-37 475 -469 0
-38 -475 469 0
-38 475 -469 0
-39 -475 469 0
-39 475 -469 0
-40 -475 469 0
-40 -475 470 0
-40 475 -469 -470 0
-41 -475 469 0
-41 -475 471 0
-41 475 -469 -471 0
-42 -475 469 0
-42 -475 472 0
-42 475 -469 -472 0
-43 -475 469 0
-43 475 -469 0
-44 -475 469 0
-44 475 -469 0
-45 -475 469 0
-45 475 -469 0
-63 -475 469 0
-63 475 -469 0
-31 -476 470 0
-31 476 -470 0
-32 -476 470 0
-32 476 -470 0
-33 -470 476 0
-33 -467 476 0
-33 -476 470 467 0
-34 -476 470 0
-34 476 -470 0
-35 -476 470 0
-35 476 -470 0
-36 -476 470 0
-36 476 -470 0
-37 -470 476 0
-37 -468 476 0
-37 -476 470 468 0
-38 -476 470 0
-38 476 -470 0
-39 -476 470 0
-39 476 -470 0
-40 -470 476 0
-40 -469 476 0
-40 -476 470 469 0
-41 -476 470 0
-41 476 -470 0
-42 -476 470 0
-42 476 -470 0
-43 -476 470 0
-43 -476 471 0
-43 476 -470 -471 0
-44 -476 470 0
-44 -476 472 0
-44 476 -470 -472 0
-45 -476 470 0
-45 476 -470 0
-63 -476 470 0
-63 476 -470 0
-31 -477 471 0
-31 477 -471 0
-32 -477 471 0
-32 477 -471 0
-33 -477 471 0
-33 477 -471 0
-34 -471 477 0
-34 -467 477 0
-34 -477 471 467 0
-35 -477 471 0
-35 477 -471 0
-36 -477 471 0
-36 477 -471 0
-37 -477 471 0
-37 477 -471 0
-38 -471 477 0
-38 -468 477 0
-38 -477 471 468 0
-39 -477 471 0
-39 477 -471 0
-40 -477 471 0
-40 477 -471 0
-41 -471 477 0
-41 -469 477 0
-41 -477 471 469 0
-42 -477 471 0
-42 477 -471 0
-43 -471 477 0
-43 -470 477 0
-43 -477 471 470 0
-44 -477 471 0
-44 477 -471 0
-45 -477 471 0
-45 -477 472 0
-45 477 -471 -472 0
-63 -477 471 0
-63 477 -471 0
-31 -478 472 0
-31 478 -472 0
-32 -478 472 0
-32 478 -472 0
-33 -478 472 0
-33 478 -472 0
-34 -478 472 0
-34 478 -472 0
-35 -472 478 0
-35 -467 478 0
-35 -478 472 467 0
-36 -478 472 0
-36 478 -472 0
-37 -478 472 0
-37 478 -472 0
-38 -478 472 0
-38 478 -472 0
-39 -472 478 0
-39 -468 478 0
-39 -478 472 468 0
-40 -478 472 0
-40 478 -472 0
-41 -478 472 0
-41 478 -472 0
-42 -472 478 0
-42 -469 478 0
-42 -478 472 469 0
-43 -478 472 0
-43 478 -472 0
-44 -472 478 0
-44 -470 478 0
-44 -478 472 470 0
-45 -472 478 0
-45 -471 478 0
-45 -478 472 471 0
-63 -478 472 0
-63 478 -472 0
-46 -479 473 0
-46 -479 474 0
-46 479 -473 -474 0
-47 -479 473 0
-47 -479 475 0
-47 479 -473 -475 0
-48 -479 473 0
-48 -479 476 0
-48 479 -473 -476 0
-49 -479 473 0
-49 -479 477 0
-49 479 -473 -477 0
-50 -479 473 0
-50 -479 478 0
-50 479 -473 -478 0
-51 -479 473 0
-51 479 -473 0
-52 -479 473 0
-52 479 -473 0
-53 -479 473 0
-53 479 -473 0
-54 -479 473 0
-54 479 -473 0
-55 -479 473 0
-55 479 -473 0
-56 -479 473 0
-56 479 -473 0
-57 -479 473 0
-57 479 -473 0
-58 -479 473 0
-58 479 -473 0
-59 -479 473 0
-59 479 -473 0
-60 -479 473 0
-60 479 -473 0
-64 -479 473 0
-64 479 -473 0
-46 -474 480 0
-46 -473 480 0
-46 -480 474 473 0
-47 -480 474 0
-47 480 -474 0
-48 -480 474 0
-48 480 -474 0
-49 -480 474 0
-49 480 -474 0
-50 -480 474 0
-50 480 -474 0
-51 -480 474 0
-51 -480 475 0
-51 480 -474 -475 0
-52 -480 474 0
-52 -480 476 0
-52 480 -474 -476 0
-53 -480 474 0
-53 -480 477 0
-53 480 -474 -477 0
-54 -480 474 0
-54 -480 478 0
-54 480 -474 -478 0
-55 -480 474 0
-55 480 -474 0
-56 -480 474 0
-56 480 -474 0
-57 -480 474 0
-57 480 -474 0
-58 -480 474 0
-58 480 -474 0
-59 -480 474 0
-59 480 -474 0
-60 -480 474 0
-60 480 -474 0
-64 -480 474 0
-64 480 -474 0
-46 -481 475 0
-46 481 -475 0
-47 -475 481 0
-47 -473 481 0
-47 -481 475 473 0
-48 -481 475 0
-48 481 -475 0
-49 -481 475 0
-49 481 -475 0
-50 -481 475 0
-50 481 -475 0
-51 -475 481 0
-51 -474 481 0
-51 -481 475 474 0
-52 -481 475 0
-52 481 -475 0
-53 -481 475 0
-53 481 -475 0
-54 -481 475 0
-54 481 -475 0
-55 -481 475 0
-55 -481 476 0
-55 481 -475 -476 0
-56 -481 475 0
-56 -481 477 0
-56 481 -475 -477 0
-57 -481 475 0
-57 -481 478 0
-57 481 -475 -478 0
-58 -481 475 0
-58 481 -475 0
-59 -481 475 0
-59 481 -475 0
-60 -481 475 0
-60 481 -475 0
-64 -481 475 0
-64 481 -475 0
-46 -482 476 0
-46 482 -476 0
-47 -482 476 0
-47 482 -476 0
-48 -476 482 0
-48 -473 482 0
-48 -482 476 473 0
-49 -482 476 0
-49 482 -476 0
-50 -482 476 0
-50 482 -476 0
-51 -482 476 0
-51 482 -476 0
-52 -476 482 0
-52 -474 482 0
-52 -482 476 474 0
-53 -482 476 0
-53 482 -476 0
-54 -482 476 0
-54 482 -476 0
-55 -476 482 0
-55 -475 482 0
-55 -482 476 475 0
-56 -482 476 0
-56 482 -476 0
-57 -482 476 0
-57 482 -476 0
-58 -482 476 0
-58 -482 477 0
-58 482 -476 -477 0
-59 -482 476 0
-59 -482 478 0
-59 482 -476 -478 0
-60 -482 476 0
-60 482 -476 0
-64 -482 476 0
-64 482 -476 0
-46 -483 477 0
-46 483 -477 0
-47 -483 477 0
-47 483 -477 0
-48 -483 477 0
-48 483 -477 0
-49 -477 483 0
-49 -473 483 0
-49 -483 477 473 0
-50 -483 477 0
-50 483 -477 0
-51 -483 477 0
-51 483 -477 0
-52 -483 477 0
-52 483 -477 0
-53 -477 483 0
-53 -474 483 0
-53 -483 477 474 0
-54 -483 477 0
-54 483 -477 0
-55 -483 477 0
-55 483 -477 0
-56 -477 483 0
-56 -475 483 0
-56 -483 477 475 0
-57 -483 477 0
-57 483 -477 0
-58 -477 483 0
-58 -476 483 0
-58 -483 477 476 0
-59 -483 477 0
-59 483 -477 0
-60 -483 477 0
-60 -483 478 0
-60 483 -477 -478 0
-64 -483 477 0
-64 483 -477 0
-46 -484 478 0
-46 484 -478 0
-47 -484 478 0
-47 484 -478 0
-48 -484 478 0
-48 484 -478 0
-49 -484 478 0
-49 484 -478 0
-50 -478 484 0
-50 -473 484 0
-50 -484 478 473 0
-51 -484 478 0
-51 484 -478 0
-52 -484 478 0
-52 484 -478 0
-53 -484 478 0
-53 484 -478 0
-54 -478 484 0
-54 -474 484 0
-54 -484 478 474 0
-55 -484 478 0
-55 484 -478 0
-56 -484 478 0
-56 484 -478 0
-57 -478 484 0
-57 -475 484 0
-57 -484 478 475 0
-58 -484 478 0
-58 484 -478 0
-59 -478 484 0
-59 -476 484 0
-59 -484 478 476 0
-60 -478 484 0
-60 -477 484 0
-60 -484 478 477 0
-64 -484 478 0
-64 484 -478 0
485 0
-1 -491 485 0
-1 -491 486 0
-1 491 -485 -486 0
-2 -491 485 0
-2 -491 487 0
-2 491 -485 -487 0
-3 -491 485 0
-3 -491 488 0
-3 491 -485 -488 0
-4 -491 485 0
-4 -491 489 0
-4 491 -485 -489 0
-5 -491 485 0
-5 -491 490 0
-5 491 -485 -490 0
-6 -491 485 0
-6 491 -485 0
-7 -491 485 0
-7 491 -485 0
-8 -491 485 0
-8 491 -485 0
-9 -491 485 0
-9 491 -485 0
-10 -491 485 0
-10 491 -485 0
-11 -491 485 0
-11 491 -485 0
-12 -491 485 0
-12 491 -485 0
-13 -491 485 0
-13 491 -485 0
-14 -491 485 0
-14 491 -485 0
-15 -491 485 0
-15 491 -485 0
-61 -491 485 0
-61 491 -485 0
486 0
-1 -486 492 0
-1 -485 492 0
-1 -492 486 485 0
-2 -492 486 0
-2 492 -486 0
-3 -492 486 0
-3 492 -486 0
-4 -492 486 0
-4 492 -486 0
-5 -492 486 0
-5 492 -486 0
-6 -492 486 0
-6 -492 487 0
-6 492 -486 -487 0
-7 -492 486 0
-7 -492 488 0
-7 492 -486 -488 0
-8 -492 486 0
-8 -492 489 0
-8 492 -486 -489 0
-9 -492 486 0
-9 -492 490 0
-9 492 -486 -490 0
-10 -492 486 0
-10 492 -486 0
-11 -492 486 0
-11 492 -486 0
-12 -492 486 0
-12 492 -486 0
-13 -492 486 0
-13 492 -486 0
-14 -492 486 0
-14 492 -486 0
-15 -492 486 0
-15 492 -486 0
-61 -492 486 0
-61 492 -486 0
487 0
-1 -493 487 0
-1 493 -487 0
-2 -487 493 0
-2 -485 493 0
-2 -493 487 485 0
-3 -493 487 0
-3 493 -487 0
-4 -493 487 0
-4 493 -487 0
-5 -493 487 0
-5 493 -487 0
-6 -487 493 0
-6 -486 493 0
-6 -493 487 486 0
-7 -493 487 0
-7 493 -487 0
-8 -493 487 0
-8 493 -487 0
-9 -493 487 0
-9 493 -487 0
-10 -493 487 0
-10 -493 488 0
-10 493 -487 -488 0
-11 -493 487 0
-11 -493 489 0
-11 493 -487 -489 0
-12 -493 487 0
-12 -493 490 0
-12 493 -487 -490 0
-13 -493 487 0
-13 493 -487 0
-14 -493 487 0
-14 493 -487 0
-15 -493 487 0
-15 493 -487 0
-61 -493 487 0
-61 493 -487 0
488 0
-1 -494 488 0
-1 494 -488 0
-2 -494 488 0
-2 494 -488 0
-3 -488 494 0
-3 -485 494 0
-3 -494 488 485 0
-4 -494 488 0
-4 494 -488 0
-5 -494 488 0
-5 494 -488 0
-6 -494 488 0
-6 494 -488 0
-7 -488 494 0
-7 -486 494 0
-7 -494 488 486 0
-8 -494 488 0
-8 494 -488 0
-9 -494 488 0
-9 494 -488 0
-10 -488 494 0
-10 -487 494 0
-10 -494 488 487 0
-11 -494 488 0
-11 494 -488 0
-12 -494 488 0
-12 494 -488 0
-13 -494 488 0
-13 -494 489 0
-13 494 -488 -489 0
-14 -494 488 0
-14 -494 490 0
-14 494 -488 -490 0
-15 -494 488 0
-15 494 -488 0
-61 -494 488 0
-61 494 -488 0
489 0
-1 -495 489 0
-1 495 -489 0
-2 -495 489 0
-2 495 -489 0
-3 -495 489 0
-3 495 -489 0
-4 -489 495 0
-4 -485 495 0
-4 -495 489 485 0
-5 -495 489 0
-5 495 -489 0
-6 -495 489 0
-6 495 -489 0
-7 -495 489 0
-7 495 -489 0
-8 -489 495 0
-8 -486 495 0
-8 -495 489 486 0
-9 -495 489 0
-9 495 -489 0
-10 -495 489 0
-10 495 -489 0
-11 -489 495 0
-11 -487 495 0
-11 -495 489 487 0
-12 -495 489 0
-12 495 -489 0
-13 -489 495 0
-13 -488 495 0
-13 -495 489 488 0
-14 -495 489 0
-14 495 -489 0
-15 -495 489 0
-15 -495 490 0
-15 495 -489 -490 0
-61 -495 489 0
-61 495 -489 0
490 0
-1 -496 490 0
-1 496 -490 0
-2 -496 490 0
-2 496 -490 0
-3 -496 490 0
-3 496 -490 0
-4 -496 490 0
-4 496 -490 0
-5 -490 496 0
-5 -485 496 0
-5 -496 490 485 0
-6 -496 490 0
-6 496 -490 0
-7 -496 490 0
-7 496 -490 0
-8 -496 490 0
-8 496 -490 0
-9 -490 496 0
-9 -486 496 0
-9 -496 490 486 0
-10 -496 490 0
-10 496 -490 0
-11 -496 490 0
-11 496 -490 0
-12 -490 496 0
-12 -487 496 0
-12 -496 490 487 0
-13 -496 490 0
-13 496 -490 0
-14 -490 496 0
-14 -488 496 0
-14 -496 490 488 0
-15 -490 496 0
-15 -489 496 0
-15 -496 490 489 0
-61 -496 490 0
-61 496 -490 0
-16 -497 491 0
-16 -497 492 0
-16 497 -491 -492 0
-17 -497 491 0
-17 -497 493 0
-17 497 -491 -493 0
-18 -497 491 0
-18 -497 494 0
-18 497 -491 -494 0
-19 -497 491 0
-19 -497 495 0
-19 497 -491 -495 0
-20 -497 491 0
-20 -497 496 0
-20 497 -491 -496 0
-21 -497 491 0
-21 497 -491 0
-22 -497 491 0
-22 497 -491 0
-23 -497 491 0
-23 497 -491 0
-24 -497 491 0
-24 497 -491 0
-25 -497 491 0
-25 497 -491 0
-26 -497 491 0
-26 497 -491 0
-27 -497 491 0
-27 497 -491 0
-28 -497 491 0
-28 497 -491 0
-29 -497 491 0
-29 497 -491 0
-30 -497 491 0
-30 497 -491 0
-62 -497 491 0
-62 497 -491 0
-16 -492 498 0
-16 -491 498 0
-16 -498 492 491 0
-17 -498 492 0
-17 498 -492 0
-18 -498 492 0
-18 498 -492 0
-19 -498 492 0
-19 498 -492 0
-20 -498 492 0
-20 498 -492 0
-21 -498 492 0
-21 -498 493 0
-21 498 -492 -493 0
-22 -498 492 0
-22 -498 494 0
-22 498 -492 -494 0
-23 -498 492 0
-23 -498 495 0
-23 498 -492 -495 0
-24 -498 492 0
-24 -498 496 0
-24 498 -492 -496 0
-25 -498 492 0
-25 498 -492 0
-26 -498 492 0
-26 498 -492 0
-27 -498 492 0
-27 498 -492 0
-28 -498 492 0
-28 498 -492 0
-29 -498 492 0
-29 498 -492 0
-30 -498 492 0
-30 498 -492 0
-62 -498 492 0
-62 498 -492 0
-16 -499 493 0
-16 499 -493 0
-17 -493 499 0
-17 -491 499 0
-17 -499 493 491 0
-18 -499 493 0
-18 499 -493 0
-19 -499 493 0
-19 499 -493 0
-20 -499 493 0
-20 499 -493 0
-21 -493 499 0
-21 -492 499 0
-21 -499 493 492 0
-22 -499 493 0
-22 499 -493 0
-23 -499 493 0
-23 499 -493 0
-24 -499 493 0
-24 499 -493 0
-25 -499 493 0
-25 -499 494 0
-25 499 -493 -494 0
-26 -499 493 0
-26 -499 495 0
-26 499 -493 -495 0
-27 -499 493 0
-27 -499 496 0
-27 499 -493 -496 0
-28 -499 493 0
-28 499 -493 0
-29 -499 493 0
-29 499 -493 0
-30 -499 493 0
-30 499 -493 0
-62 -499 493 0
-62 499 -493 0
-16 -500 494 0
-16 500 -494 0
-17 -500 494 0
-17 500 -494 0
-18 -494 500 0
-18 -491 500 0
-18 -500 494 491 0
-19 -500 494 0
-19 500 -494 0
-20 -500 494 0
-20 500 -494 0
-21 -500 494 0
-21 500 -494 0
-22 -494 500 0
-22 -492 500 0
-22 -500 494 492 0
-23 -500 494 0
-23 500 -494 0
-24 -500 494 0
-24 500 -494 0
-25 -494 500 0
-25 -493 500 0
-25 -500 494 493 0
-26 -500 494 0
-26 500 -494 0
-27 -500 494 0
-27 500 -494 0
-28 -500 494 0
-28 -500 495 0
-28 500 -494 -495 0
-29 -500 494 0
-29 -500 496 0
-29 500 -494 -496 0
-30 -500 494 0
-30 500 -494 0
-62 -500 494 0
-62 500 -494 0
-16 -501 495 0
-16 501 -495 0
-17 -501 495 0
-17 501 -495 0
-18 -501 495 0
-18 501 -495 0
-19 -495 501 0
-19 -491 501 0
-19 -501 495 491 0
-20 -501 495 0
-20 501 -495 0
-21 -501 495 0
-21 501 -495 0
-22 -501 495 0
-22 501 -495 0
-23 -495 501 0
-23 -492 501 0
-23 -501 495 492 0
-24 -501 495 0
-24 501 -495 0
-25 -501 495 0
-25 501 -495 0
-26 -495 501 0
-26 -493 501 0
-26 -501 495 493 0
-27 -501 495 0
-27 501 -495 0
-28 -495 501 0
-28 -494 501 0
-28 -501 495 494 0
-29 -501 495 0
-29 501 -495 0
-30 -501 495 0
-30 -501 496 0
-30 501 -495 -496 0
-62 -501 495 0
-62 501 -495 0
-16 -502 496 0
-16 502 -496 0
-17 -502 496 0
-17 502 -496 0
-18 -502 496 0
-18 502 -496 0
-19 -502 496 0
-19 502 -496 0
-20 -496 502 0
-20 -491 502 0
-20 -502 496 491 0
-21 -502 496 0
-21 502 -496 0
-22 -502 496 0
-22 502 -496 0
-23 -502 496 0
-23 502 -496 0
-24 -496 502 0
-24 -492 502 0
-24 -502 496 492 0
-25 -502 496 0
-25 502 -496 0
-26 -502 496 0
-26 502 -496 0
-27 -496 502 0
-27 -493 502 0
-27 -502 496 493 0
-28 -502 496 0
-28 502 -496 0
-29 -496 502 0
-29 -494 502 0
-29 -502 496 494 0
-30 -496 502 0
-30 -495 502 0
-30 -502 496 495 0
-62 -502 496 0
-62 502 -496 0
-31 -503 497 0
-31 -503 498 0
-31 503 -497 -498 0
-32 -503 497 0
-32 -503 499 0
-32 503 -497 -499 0
-33 -503 497 0
-33 -503 500 0
-33 503 -497 -500 0
-34 -503 497 0
-34 -503 501 0
-34 503 -497 -501 0
-35 -503 497 0
-35 -503 502 0
-35 503 -497 -502 0
-36 -503 497 0
-36 503 -497 0
-37 -503 497 0
-37 503 -497 0
-38 -503 497 0
-38 503 -497 0
-39 -503 497 0
-39 503 -497 0
-40 -503 497 0
-40 503 -497 0
-41 -503 497 0
-41 503 -497 0
-42 -503 497 0
-42 503 -497 0
-43 -503 497 0
-43 503 -497 0
-44 -503 497 0
-44 503 -497 0
-45 -503 497 0
-45 503 -497 0
-63 -503 497 0
-63 503 -497 0
-31 -498 504 0
-31 -497 504 0
-31 -504 498 497 0
-32 -504 498 0
-32 504 -498 0
-33 -504 498 0
-33 504 -498 0
-34 -504 498 0
-34 504 -498 0
-35 -504 498 0
-35 504 -498 0
-36 -504 498 0
-36 -504 499 0
-36 504 -498 -499 0
-37 -504 498 0
-37 -504 500 0
-37 504 -498 -500 0
-38 -504 498 0
-38 -504 501 0
-38 504 -498 -501 0
-39 -504 498 0
-39 -504 502 0
-39 504 -498 -502 0
-40 -504 498 0
-40 504 -498 0
-41 -504 498 0
-41 504 -498 0
-42 -504 498 0
-42 504 -498 0
-43 -504 498 0
-43 504 -498 0
-44 -504 498 0
-44 504 -498 0
-45 -504 498 0
-45 504 -498 0
-63 -504 498 0
-63 504 -498 0
-31 -505 499 0
-31 505 -499 0
-32 -499 505 0
-32 -497 505 0
-32 -505 499 497 0
-33 -505 499 0
-33 505 -499 0
-34 -505 499 0
-34 505 -499 0
-35 -505 499 0
-35 505 -499 0
-36 -499 505 0
-36 -498 505 0
-36 -505 499 498 0
-37 -505 499 0
-37 505 -499 0
-38 -505 499 0
-38 505 -499 0
-39 -505 499 0
-39 505 -499 0
-40 -505 499 0
-40 -505 500 0
-40 505 -499 -500 0
-41 -505 499 0
-41 -505 501 0
-41 505 -499 -501 0
-42 -505 499 0
-42 -505 502 0
-42 505 -499 -502 0
-43 -505 499 0
-43 505 -499 0
-44 -505 499 0
-44 505 -499 0
-45 -505 499 0
-45 505 -499 0
-63 -505 499 0
-63 505 -499 0
-31 -506 500 0
-31 506 -500 0
-32 -506 500 0
-32 506 -500 0
-33 -500 506 0
-33 -497 506 0
-33 -506 500 497 0
-34 -506 500 0
-34 506 -500 0
-35 -506 500 0
-35 506 -500 0
-36 -506 500 0
-36 506 -500 0
-37 -500 506 0
-37 -498 506 0
-37 -506 500 498 0
-38 -506 500 0
-38 506 -500 0
-39 -506 500 0
-39 506 -500 0
-40 -500 506 0
-40 -499 506 0
-40 -506 500 499 0
-41 -506 500 0
-41 506 -500 0
-42 -506 500 0
-42 506 -500 0
-43 -506 500 0
-43 -506 501 0
-43 506 -500 -501 0
-44 -506 500 0
-44 -506 502 0
-44 506 -500 -502 0
-45 -506 500 0
-45 506 -500 0
-63 -506 500 0
-63 506 -500 0
-31 -507 501 0
-31 507 -501 0
-32 -507 501 0
-32 507 -501 0
-33 -507 501 0
-33 507 -501 0
-34 -501 507 0
-34 -497 507 0
-34 -507 501 497 0
-35 -507 501 0
-35 507 -501 0
-36 -507 501 0
-36 507 -501 0
-37 -507 501 0
-37 507 -501 0
-38 -501 507 0
-38 -498 507 0
-38 -507 501 498 0
-39 -507 501 0
-39 507 -501 0
-40 -507 501 0
-40 507 -501 0
-41 -501 507 0
-41 -499 507 0
-41 -507 501 499 0
-42 -507 501 0
-42 507 -501 0
-43 -501 507 0
-43 -500 507 0
-43 -507 501 500 0
-44 -507 501 0
-44 507 -501 0
-45 -507 501 0
-45 -507 502 0
-45 507 -501 -502 0
-63 -507 501 0
-63 507 -501 0
-31 -508 502 0
-31 508 -502 0
-32 -508 502 0
-32 508 -502 0
-33 -508 502 0
-33 508 -502 0
-34 -508 502 0
-34 508 -502 0
-35 -502 508 0
-35 -497 508 0
-35 -508 502 497 0
-36 -508 502 0
-36 508 -502 0
-37 -508 502 0
-37 508 -502 0
-38 -508 502 0
-38 508 -502 0
-39 -502 508 0
-39 -498 508 0
-39 -508 502 498 0
-40 -508 502 0
-40 508 -502 0
-41 -508 502 0
-41 508 -502 0
-42 -502 508 0
-42 -499 508 0
-42 -508 502 499 0
-43 -508 502 0
-43 508 -502 0
-44 -502 508 0
-44 -500 508 0
-44 -508 502 500 0
-45 -502 508 0
-45 -501 508 0
-45 -508 502 501 0
-63 -508 502 0
-63 508 -502 0
-46 -509 503 0
-46 -509 504 0
-46 509 -503 -504 0
-47 -509 503 0
-47 -509 505 0
-47 509 -503 -505 0
-48 -509 503 0
-48 -509 506 0
-48 509 -503 -506 0
-49 -509 503 0
-49 -509 507 0
-49 509 -503 -507 0
-50 -509 503 0
-50 -509 508 0
-50 509 -503 -508 0
-51 -509 503 0
-51 509 -503 0
-52 -509 503 0
-52 509 -503 0
-53 -509 503 0
-53 509 -503 0
-54 -509 503 0
-54 509 -503 0
-55 -509 503 0
-55 509 -503 0
-56 -509 503 0
-56 509 -503 0
-57 -509 503 0
-57 509 -503 0
-58 -509 503 0
-58 509 -503 0
-59 -509 503 0
-59 509 -503 0
-60 -509 503 0
-60 509 -503 0
-64 -509 503 0
-64 509 -503 0
-46 -504 510 0
-46 -503 510 0
-46 -510 504 503 0
-47 -510 504 0
-47 510 -504 0
-48 -510 504 0
-48 510 -504 0
-49 -510 504 0
-49 510 -504 0
-50 -510 504 0
-50 510 -504 0
-51 -510 504 0
-51 -510 505 0
-51 510 -504 -505 0
-52 -510 504 0
-52 -510 506 0
-52 510 -504 -506 0
-53 -510 504 0
-53 -510 507 0
-53 510 -504 -507 0
-54 -510 504 0
-54 -510 508 0
-54 510 -504 -508 0
-55 -510 504 0
-55 510 -504 0
-56 -510 504 0
-56 510 -504 0
-57 -510 504 0
-57 510 -504 0
-58 -510 504 0
-58 510 -504 0
-59 -510 504 0
-59 510 -504 0
-60 -510 504 0
-60 510 -504 0
-64 -510 504 0
-64 510 -504 0
-46 -511 505 0
-46 511 -505 0
-47 -505 511 0
-47 -503 511 0
-47 -511 505 503 0
-48 -511 505 0
-48 511 -505 0
-49 -511 505 0
-49 511 -505 0
-50 -511 505 0
-50 511 -505 0
-51 -505 511 0
-51 -504 511 0
-51 -511 505 504 0
-52 -511 505 0
-52 511 -505 0
-53 -511 505 0
-53 511 -505 0
-54 -511 505 0
-54 511 -505 0
-55 -511 505 0
-55 -511 506 0
-55 511 -505 -506 0
-56 -511 505 0
-56 -511 507 0
-56 511 -505 -507 0
-57 -511 505 0
-57 -511 508 0
-57 511 -505 -508 0
-58 -511 505 0
-58 511 -505 0
-59 -511 505 0
-59 511 -505 0
-60 -511 505 0
-60 511 -505 0
-64 -511 505 0
-64 511 -505 0
-46 -512 506 0
-46 512 -506 0
-47 -512 506 0
-47 512 -506 0
-48 -506 512 0
-48 -503 512 0
-48 -512 506 503 0
-49 -512 506 0
-49 512 -506 0
-50 -512 506 0
-50 512 -506 0
-51 -512 506 0
-51 512 -506 0
-52 -506 512 0
-52 -504 512 0
-52 -512 506 504 0
-53 -512 506 0
-53 512 -506 0
-54 -512 506 0
-54 512 -506 0
-55 -506 512 0
-55 -505 512 0
-55 -512 506 505 0
-56 -512 506 0
-56 512 -506 0
-57 -512 506 0
-57 512 -506 0
-58 -512 506 0
-58 -512 507 0
-58 512 -506 -507 0
-59 -512 506 0
-59 -512 508 0
-59 512 -506 -508 0
-60 -512 506 0
-60 512 -506 0
-64 -512 506 0
-64 512 -506 0
-46 -513 507 0
-46 513 -507 0
-47 -513 507 0
-47 513 -507 0
-48 -513 507 0
-48 513 -507 0
-49 -507 513 0
-49 -503 513 0
-49 -513 507 503 0
-50 -513 507 0
-50 513 -507 0
-51 -513 507 0
-51 513 -507 0
-52 -513 507 0
-52 513 -507 0
-53 -507 513 0
-53 -504 513 0
-53 -513 507 504 0
-54 -513 507 0
-54 513 -507 0
-55 -513 507 0
-55 513 -507 0
-56 -507 513 0
-56 -505 513 0
-56 -513 507 505 0
-57 -513 507 0
-57 513 -507 0
-58 -507 513 0
-58 -506 513 0
-58 -513 507 506 0
-59 -513 507 0
-59 513 -507 0
-60 -513 507 0
-60 -513 508 0
-60 513 -507 -508 0
-64 -513 507 0
-64 513 -507 0
-46 -514 508 0
-46 514 -508 0
-47 -514 508 0
-47 514 -508 0
-48 -514 508 0
-48 514 -508 0
-49 -514 508 0
-49 514 -508 0
-50 -508 514 0
-50 -503 514 0
-50 -514 508 503 0
-51 -514 508 0
-51 514 -508 0
-52 -514 508 0
-52 514 -508 0
-53 -514 508 0
-53 514 -508 0
-54 -508 514 0
-54 -504 514 0
-54 -514 508 504 0
-55 -514 508 0
-55 514 -508 0
-56 -514 508 0
-56 514 -508 0
-57 -508 514 0
-57 -505 514 0
-57 -514 508 505 0
-58 -514 508 0
-58 514 -508 0
-59 -508 514 0
-59 -506 514 0
-59 -514 508 506 0
-60 -508 514 0
-60 -507 514 0
-60 -514 508 507 0
-64 -514 508 0
-64 514 -508 0
-89 90 0
-90 91 0
-91 92 0
-92 93 0
-93 94 0
-119 120 0
-120 121 0
-121 122 0
-122 123 0
-123 124 0
-149 150 0
-150 151 0
-151 152 0
-152 153 0
-153 154 0
-179 180 0
-180 181 0
-181 182 0
-182 183 0
-183 184 0
-209 210 0
-210 211 0
-211 212 0
-212 213 0
-213 214 0
-239 240 0
-240 241 0
-241 242 0
-242 243 0
-243 244 0
-269 270 0
-270 271 0
-271 272 0
-272 273 0
-273 274 0
-299 300 0
-300 301 0
-301 302 0
-302 303 0
-303 304 0
-329 330 0
-330 331 0
-331 332 0
-332 333 0
-333 334 0
-359 360 0
-360 361 0
-361 362 0
-362 363 0
-363 364 0
-389 390 0
-390 391 0
-391 392 0
-392 393 0
-393 394 0
-419 420 0
-420 421 0
-421 422 0
-422 423 0
-423 424 0
-449 450 0
-450 451 0
-451 452 0
-452 453 0
-453 454 0
-479 480 0
-480 481 0
-481 482 0
-482 483 0
-483 484 0
-509 510 0
-510 511 0
-511 512 0
-512 513 0
-513 514 0
